LAMMPS data file via write_data, version 23 Jun 2022, timestep = 0

540 atoms
3 atom types

0 15.126656667556212 xlo xhi
0 15.126656667556212 ylo yhi
-2.2283669804811876 28.5230973501592 zlo zhi

Masses

1 12.011
2 1.00784
3 16

Atoms # charge/kk

3 1 8.2636954682766618e-07 1.2605547222971689e+00 1.2605547222960294e+00 -1.6675604903875167e+00 0 0 0
4 1 -2.8223158396078622e-06 2.5211118319640153e+00 1.2605547227396827e+00 -9.9136010708477085e-01 0 0 0
7 1 1.7115179949738146e-06 1.2605547222969147e+00 6.3027736114819648e+00 -1.6675604903875247e+00 0 0 0
8 1 -1.7308984323685350e-06 1.2605547222969795e+00 3.7816641668893318e+00 -1.6675604903875378e+00 0 0 0
9 1 -1.9360884895091401e-06 2.5211118319636574e+00 6.3027736119248488e+00 -9.9136010708492595e-01 0 0 0
10 1 8.4809954837297511e-07 2.5211118319639323e+00 3.7816641673322193e+00 -9.9136010708478628e-01 0 0 0
11 1 4.6170436153083147e-07 3.7816641668890245e+00 3.7816641668888642e+00 -1.6675622354260040e+00 0 0 0
12 1 9.6085818577072737e-07 3.7816641668890347e+00 1.2605547222963587e+00 -1.6675622354260151e+00 0 0 0
13 1 -4.8010946278939304e-06 5.0422165018139333e+00 3.7816641664459323e+00 -9.9136010708459033e-01 0 0 0
14 1 2.8896530735767091e-06 5.0422165018139369e+00 1.2605547218533284e+00 -9.9136010708470146e-01 0 0 0
15 1 2.0350051921725023e-06 6.3027736114812427e+00 1.2605547222959665e+00 -1.6675604903874690e+00 0 0 0
24 1 2.3900647348356988e-06 3.7816641668890498e+00 6.3027736114816371e+00 -1.6675622354261923e+00 0 0 0
26 1 6.1855092307702595e-07 5.0422165018141882e+00 6.3027736110385977e+00 -9.9136010708472166e-01 0 0 0
27 1 1.2598804533236914e-06 6.3027736114813901e+00 6.3027736114820287e+00 -1.6675604903872776e+00 0 0 0
28 1 -1.6719444506637248e-06 6.3027736114812942e+00 3.7816641668893589e+00 -1.6675604903873715e+00 0 0 0
74 1 -9.2015634940449767e-07 6.4995121414583551e-02 3.7523695127655254e+00 2.6965536185264640e+00 0 0 0
75 1 -5.2136056979921604e-07 1.5092236755585075e+01 1.2559912941041791e+00 2.6373450291414944e+00 -1 0 0
76 1 1.3782574603598393e-06 1.3027455505391121e+00 2.4597011976266252e+00 9.1584224637510037e-01 0 0 0
78 1 -3.0001385771793609e-07 1.2897221398217387e+00 1.2431406030238255e+00 1.8329887844814423e+00 0 0 0
81 1 -8.5120463067360757e-07 2.5494938006543921e+00 1.2205607845168940e+00 2.7174930593560691e+00 0 0 0
85 1 1.4089380015262098e-06 2.5208360070214257e-02 6.2743922625743584e+00 2.6684349702965311e+00 0 0 0
88 1 2.4465792677145713e-06 1.3155385954540970e+00 6.3314975674302589e+00 1.8020691729781608e+00 0 0 0
89 1 2.9339457359764329e-06 1.3437641437968133e+00 3.7603580473594840e+00 1.7745637068336710e+00 0 0 0
90 1 3.7713036047833921e-06 2.5691077007016192e+00 4.9757956753358767e+00 8.9552945564863855e-03 0 0 0
91 1 -2.4848680877195605e-06 1.2971230010679768e+00 5.0374568911897271e+00 9.0382558994405870e-01 0 0 0
92 1 -2.3176630333347122e-06 2.5329462686243480e+00 6.3288833610124389e+00 2.6837155919308215e+00 0 0 0
93 1 -1.5564674619392616e-06 2.5638071479502798e+00 3.7390594768426841e+00 2.6833296693242552e+00 0 0 0
94 1 -2.4365873112832388e-06 3.8338572028961888e+00 5.0194772605024127e+00 8.6742771092221205e-01 0 0 0
95 1 -3.1048525940550354e-06 2.5763848078860332e+00 2.4834404365219802e+00 3.5718566959778791e-02 0 0 0
96 1 4.4091064360723408e-06 3.8851726984528656e+00 3.7386237000153004e+00 1.7937265708359522e+00 0 0 0
97 1 9.2594911182430275e-08 3.8092641638669931e+00 1.2754033905983895e+00 1.8249454199111534e+00 0 0 0
98 1 5.1775481667113480e-06 5.0183791367112187e+00 2.5411588878951470e+00 2.2461752243664517e-02 0 0 0
99 1 -1.8691742647484339e-06 3.8129839733182855e+00 2.5066422133003226e+00 8.5225601700019860e-01 0 0 0
100 1 -9.9495958572594942e-07 5.1318403469395157e+00 3.7764281956536405e+00 2.7144194488256441e+00 0 0 0
101 1 -3.1731843489752957e-06 5.0643253423187273e+00 1.3016771838719896e+00 2.7251686190799633e+00 0 0 0
102 1 2.6395609582542739e-06 6.3194421312341600e+00 2.5064234964728751e+00 8.7537061263039972e-01 0 0 0
104 1 1.8706151312991276e-06 6.2722866779115485e+00 1.2943138435060766e+00 1.8238165565589122e+00 0 0 0
123 1 1.9417901634928657e-07 3.7517148165220879e+00 6.2652896514774081e+00 1.7391902376780519e+00 0 0 0
124 1 -6.5064862122187215e-06 5.0630859261882177e+00 7.5847479783612357e+00 -1.8419957015495324e-02 0 0 0
127 1 2.7613718187843923e-06 4.9884047999693539e+00 6.3006148583535575e+00 2.6119602613124226e+00 0 0 0
129 1 1.1294172572408402e-06 5.0831667361170396e+00 4.9829565942584990e+00 -2.3029715540972360e-02 0 0 0
130 1 -4.1093455223287118e-06 6.3007081937166074e+00 6.2877497830873263e+00 1.7915369755126629e+00 0 0 0
131 1 -3.9316742231017466e-06 6.3929438503181260e+00 3.7277364721504891e+00 1.7391723008686841e+00 0 0 0
133 1 2.7018786472825415e-06 6.3101196780860915e+00 5.0052421600643040e+00 8.6308667742443124e-01 0 0 0
135 1 -1.4165244417774949e-06 7.6188511255338245e+00 3.7200439934889613e+00 2.6634353454616537e+00 0 0 0
234 1 -1.0097431062199526e-06 2.5382902777090584e+00 5.0469380774614967e+00 3.5390863351078621e+00 0 0 0
239 1 2.0263326310700042e-06 2.5091542991564628e+00 2.5177127170267477e+00 3.5913625624376522e+00 0 0 0
242 1 3.3106596855322752e-06 5.1045829616485250e+00 2.5459707228887054e+00 3.6184839636929649e+00 0 0 0
273 1 -1.9525155551929458e-06 5.1647958295478924e+00 5.0821417582075394e+00 3.5490399680162898e+00 0 0 0
107 1 -2.7649147633014606e-06 7.5283190025780753e+00 1.1941117656216018e+00 2.7196139389852476e+00 0 0 0
134 1 1.2033929318752767e-06 7.5656290237493886e+00 6.2633850301425982e+00 2.6873507394926315e+00 0 0 0
217 1 4.9167434494046575e-07 3.9914190725574152e-02 2.5432663618017255e+00 3.5784589071161261e+00 0 0 0
231 1 -2.5635456825866972e-07 4.8543430283283291e-02 5.0487556488327447e+00 3.6056276148422413e+00 0 0 0
276 1 -1.9442414346054446e-08 7.6261393991975748e+00 4.9900426313366646e+00 3.5470386991302552e+00 0 0 0
281 1 6.7326580418761206e-06 7.5848170933520702e+00 2.4875171084027996e+00 3.6066596301886231e+00 0 0 0
79 1 4.2086307305209906e-06 2.5654960148517749e+00 2.2272887839677138e-02 5.1417409403930477e-02 0 0 0
223 1 -3.3035133514903898e-06 2.5365044610682905e+00 1.5086307172432878e+01 3.6061694818454471e+00 0 -1 0
268 1 -4.3299204872572652e-06 5.0599494081265997e+00 7.5460617489617441e+00 3.5378636897328781e+00 0 0 0
86 1 -2.3091451491962002e-06 1.3136030707410702e+00 7.5976123001715505e+00 9.0167924392352228e-01 0 0 0
227 1 6.8566097392884833e-07 5.5491785562749023e-02 7.5763188592977277e+00 3.6234681857262303e+00 0 0 0
249 1 3.3173920135037533e-07 7.5659503398311836e+00 1.5102257409670202e+01 3.5470557768720901e+00 0 -1 0
1 1 -2.1161436098656178e-06 1.5126654280184683e+01 3.7816641664458950e+00 -9.9136010708451683e-01 -1 0 0
2 1 5.3694168076685202e-06 1.5126654280184738e+01 1.2605547218533892e+00 -9.9136010708445599e-01 -1 0 0
6 1 -4.0364238716846227e-06 1.5126654280184601e+01 6.3027736110384778e+00 -9.9136010708461197e-01 -1 0 0
30 1 2.3948778900693972e-06 7.5633307211496730e+00 3.7816641673321589e+00 -9.9136010708449807e-01 0 0 0
16 1 -1.5342807546509763e-06 7.5633307211495850e+00 1.2605547227395533e+00 -9.9136010708456235e-01 0 0 0
29 1 2.2069052398795057e-06 7.5633307211496374e+00 6.3027736119248328e+00 -9.9136010708462474e-01 0 0 0
73 1 -2.5499287972960051e-07 1.5107666052982387e+01 2.5268810510906636e+00 -3.5657634144268049e-03 -1 0 0
83 1 1.2031721312925419e-06 4.6369868535423464e-02 7.5818958122610569e+00 2.7784043006788946e-02 0 0 0
87 1 9.4307917625070108e-07 1.4851753005901358e-02 5.0162655981799436e+00 2.6226775199467447e-02 0 0 0
132 1 -4.1138020436603513e-06 7.5587425790905156e+00 5.0538379932116895e+00 8.6345959593243232e-03 0 0 0
31 1 -2.1583350980449404e-06 8.8238830560746813e+00 3.7816641668888797e+00 -1.6675622354258390e+00 0 0 0
32 1 2.0875027564553469e-07 8.8238830560747434e+00 1.2605547222963425e+00 -1.6675622354257791e+00 0 0 0
33 1 -1.3668070606234446e-06 1.0084435390999481e+01 3.7816641664457133e+00 -9.9136010708468203e-01 0 0 0
34 1 -1.1592182804650138e-06 1.0084435390999309e+01 1.2605547218532795e+00 -9.9136010708452893e-01 0 0 0
35 1 -7.4427832319374242e-07 1.1344992500666775e+01 1.2605547222962985e+00 -1.6675604903880343e+00 0 0 0
36 1 -2.1466149124372357e-06 1.2605549610335135e+01 1.2605547227396925e+00 -9.9136010708435607e-01 0 0 0
48 1 -6.6583133497365624e-08 8.8238830560745747e+00 6.3027736114816326e+00 -1.6675622354260096e+00 0 0 0
50 1 -1.1235310562244270e-06 1.0084435390999687e+01 6.3027736110384307e+00 -9.9136010708478484e-01 0 0 0
51 1 2.8003778645812032e-06 1.1344992500666901e+01 6.3027736114821282e+00 -1.6675604903876933e+00 0 0 0
52 1 -6.8711947014116382e-07 1.1344992500666917e+01 3.7816641668897630e+00 -1.6675604903878900e+00 0 0 0
53 1 -1.6059795744795068e-06 1.2605549610334981e+01 6.3027736119247164e+00 -9.9136010708460043e-01 0 0 0
54 1 3.4821167633356767e-07 1.2605549610334998e+01 3.7816641673320968e+00 -9.9136010708453026e-01 0 0 0
55 1 -1.8907814666304217e-06 1.3866101945259699e+01 3.7816641668889242e+00 -1.6675622354257897e+00 0 0 0
56 1 -5.5092206564805494e-07 1.3866101945259638e+01 1.2605547222963291e+00 -1.6675622354257229e+00 0 0 0
68 1 -4.2158159661344197e-07 1.3866101945259803e+01 6.3027736114816779e+00 -1.6675622354258659e+00 0 0 0
136 1 5.3163888078918590e-06 8.8205062581495124e+00 5.0085212300598219e+00 9.1162693974761999e-01 0 0 0
137 1 -2.0592463822212412e-06 7.5581660102698978e+00 2.5364651471033386e+00 1.3857015369557843e-02 0 0 0
138 1 -2.1658347000511991e-06 8.8825879165323709e+00 3.7498802058921403e+00 1.7939314454817348e+00 0 0 0
139 1 1.9983063092754563e-06 8.7771168256561189e+00 1.2371189105994911e+00 1.7858663122990814e+00 0 0 0
140 1 3.3873503615514682e-06 1.0076519231561251e+01 2.5600674370348320e+00 -4.2587635495256085e-02 0 0 0
141 1 -1.4506412843053674e-06 8.8459354526337162e+00 2.5355719517663351e+00 8.7302864104319899e-01 0 0 0
142 1 -1.8421640755149125e-06 1.0117021858577184e+01 3.7093337487296627e+00 2.6475943447542112e+00 0 0 0
143 1 -1.8149277805854295e-06 1.0081217286867519e+01 1.2727333700202019e+00 2.6548117732422991e+00 0 0 0
144 1 -1.7199277413270438e-06 1.1402794520896467e+01 2.5251846583281758e+00 8.3408120967916688e-01 0 0 0
146 1 1.4735886820477496e-06 1.1331236831400320e+01 1.2700419996758465e+00 1.7634330247861383e+00 0 0 0
147 1 3.2295412853915938e-06 1.2637609484405452e+01 1.5123478445189509e+01 -2.5508465484135479e-02 0 -1 0
149 1 -2.6809250003818235e-06 1.2556523181548464e+01 1.2712611334789594e+00 2.6743163616559422e+00 0 0 0
171 1 -1.1072907933066538e-06 8.8428827873005886e+00 6.3161076520806931e+00 1.7774219332265586e+00 0 0 0
175 1 8.6285492349419734e-07 1.0113351772781826e+01 6.2885240782594947e+00 2.6398342939197477e+00 0 0 0
177 1 5.2656249943512331e-06 1.0062480893139032e+01 5.0671050042923129e+00 -1.8312055577732918e-02 0 0 0
178 1 -2.3511686499122762e-06 1.1372372862389151e+01 6.2940410206549116e+00 1.8228258095709859e+00 0 0 0
179 1 1.1804211776151939e-06 1.1406400836030766e+01 3.7613698088939764e+00 1.7534919179171011e+00 0 0 0
180 1 -9.6599985595049246e-07 1.2631986816630286e+01 5.0590387485996642e+00 3.4790454000779604e-02 0 0 0
181 1 -2.6639961717914075e-06 1.1348205382729544e+01 5.0674892936630362e+00 8.9267165274810933e-01 0 0 0
182 1 -9.4467602839238812e-07 1.2636370847914639e+01 6.2602750696352656e+00 2.7369064679181139e+00 0 0 0
183 1 1.2700215282237726e-06 1.2659348853074727e+01 3.7664277923152922e+00 2.7135884037439273e+00 0 0 0
184 1 -1.1622137361890815e-07 1.3838788808915144e+01 5.0128712305510383e+00 9.2140921955346344e-01 0 0 0
185 1 -3.0024811395857143e-06 1.2645227162784860e+01 2.5639320343081411e+00 -7.5747410633120252e-03 0 0 0
186 1 2.0022453190059456e-06 1.3896800169510648e+01 3.7481930684283027e+00 1.8087128728841215e+00 0 0 0
187 1 -2.9801693019156051e-06 1.3870056950624239e+01 1.2953821896992859e+00 1.7322739012309216e+00 0 0 0
188 1 9.4179700808585280e-07 1.3948287964221180e+01 2.5238927800454687e+00 8.7870491377302073e-01 0 0 0
209 1 2.9386194872125685e-07 1.3855064739381614e+01 6.2972636708507377e+00 1.8049017905129308e+00 0 0 0
284 1 3.8413166098826858e-06 1.0091833672185318e+01 2.5107810947445439e+00 3.6104807369624425e+00 0 0 0
321 1 2.8743606036166975e-06 1.0091973277192123e+01 5.0037843215157540e+00 3.5838426240333661e+00 0 0 0
324 1 9.8207172297738502e-08 1.2687795608971289e+01 5.0167127874134287e+00 3.6091359730527235e+00 0 0 0
329 1 4.3878767188233461e-06 1.2612445650343139e+01 2.4896217345265277e+00 3.5925314688167900e+00 0 0 0
172 1 -1.6106723204167019e-06 1.0094182730863608e+01 7.5586259590530274e+00 -1.4083806642227064e-02 0 0 0
105 1 3.1725201026800044e-06 7.6067636087763226e+00 1.5099751994227624e+01 2.8376998004080899e-02 0 -1 0
176 1 -1.5444042406599002e-06 1.1366083730040030e+01 7.5480811933981800e+00 8.2730501020070790e-01 0 0 0
291 1 -9.6637158420762833e-07 1.2589220110783359e+01 6.1007977733422425e-04 3.5671035163997455e+00 0 0 0
316 1 5.3520517328639539e-06 1.0119396611278674e+01 7.5292761637749317e+00 3.5815152115100948e+00 0 0 0
80 1 4.7040195864787065e-06 1.2916782254778967e+00 1.5103775139188095e+01 8.9719942807332276e-01 0 -1 0
82 1 -2.0961378353096717e-06 3.8140535163683116e+00 1.4353133417706943e-02 9.0886415304899848e-01 0 0 0
106 1 1.1996226376907935e-06 6.3095515000746829e+00 6.4342236797507724e-03 8.8982330947094723e-01 0 0 0
121 1 4.5959759154482868e-06 2.5558359022770865e+00 7.6119876324925713e+00 -1.8850268375331613e-02 0 0 0
103 1 -2.7437300097339812e-06 5.0362644860594576e+00 1.5110514074327504e+01 -1.8475046591383066e-02 0 -1 0
125 1 -1.8455817826389152e-06 3.8069304523428724e+00 7.5239393333288653e+00 8.2234285392919726e-01 0 0 0
247 1 -2.3645334785525125e-06 5.0989518256017421e+00 4.9796460798416931e-02 3.6099051185847912e+00 0 0 0
19 1 2.3546620712875468e-06 1.2605547222970290e+00 1.1344992500667225e+01 -1.6675604903874752e+00 0 0 0
20 1 8.4383154939880562e-07 1.2605547222970030e+00 8.8238830560744681e+00 -1.6675604903874768e+00 0 0 0
21 1 -1.0521538701824795e-06 2.5211118319639407e+00 1.1344992501110140e+01 -9.9136010708477862e-01 0 0 0
22 1 -4.0183821571958094e-06 2.5211118319637853e+00 8.8238830565175732e+00 -9.9136010708482303e-01 0 0 0
23 1 -1.7600231619412829e-06 3.7816641668890427e+00 8.8238830560745960e+00 -1.6675622354260466e+00 0 0 0
25 1 3.2262900194552364e-06 5.0422165018140674e+00 8.8238830556312902e+00 -9.9136010708466360e-01 0 0 0
37 1 -9.7269205974246071e-07 1.2605547222970708e+00 1.3866101945259620e+01 -1.6675604903874854e+00 0 0 0
38 1 -4.1025635046485720e-07 2.5211118319638390e+00 1.3866101945703083e+01 -9.9136010708486455e-01 0 0 0
39 1 1.1884543559486863e-06 3.7816641668890409e+00 1.3866101945259951e+01 -1.6675622354261614e+00 0 0 0
40 1 2.8740669024511626e-07 3.7816641668890720e+00 1.1344992500667217e+01 -1.6675622354260278e+00 0 0 0
41 1 -2.0666885961359761e-06 5.0422165018141225e+00 1.3866101944816746e+01 -9.9136010708482036e-01 0 0 0
42 1 -2.5499728437550303e-06 5.0422165018140150e+00 1.1344992500223849e+01 -9.9136010708469124e-01 0 0 0
43 1 -1.4670535324831422e-06 6.3027736114814266e+00 1.1344992500667260e+01 -1.6675604903875185e+00 0 0 0
44 1 2.4167358176192301e-06 6.3027736114813910e+00 8.8238830560744397e+00 -1.6675604903873795e+00 0 0 0
57 1 -3.0869653930970124e-06 6.3027736114814275e+00 1.3866101945259636e+01 -1.6675604903875145e+00 0 0 0
84 1 3.1903145940747684e-06 6.6274495994475907e-02 8.8166094331160476e+00 2.6938812979063975e+00 0 0 0
110 1 1.8062127611256364e-06 1.5077353619407598e+01 1.3893493831220400e+01 2.6636921622858885e+00 -1 0 0
111 1 -1.7450019650569982e-06 1.4641040126410635e-02 1.1385996440310429e+01 2.7049255122660045e+00 0 0 0
112 1 -3.8714169896108145e-06 1.2128524895713233e+00 1.2576650101658750e+01 8.3957170899640809e-01 0 0 0
114 1 6.1859602474959090e-06 1.2445223736172959e+00 1.1424249156916778e+01 1.7971998159182685e+00 0 0 0
115 1 2.5784336611250023e-07 1.2908313037598285e+00 8.8620737881104912e+00 1.7598052246565012e+00 0 0 0
116 1 2.4931094494380331e-06 2.5231556029262010e+00 1.0103314674969164e+01 -2.0971467746145236e-02 0 0 0
117 1 -5.8461691258489732e-06 1.2994155743024627e+00 1.0182969193099511e+01 8.8007079603948102e-01 0 0 0
118 1 -1.1671027463741821e-06 2.5494484868498337e+00 1.1379822927054413e+01 2.6647895506244521e+00 0 0 0
119 1 8.2179907279930035e-07 2.5517028178383812e+00 8.8283383883163982e+00 2.6560415757944269e+00 0 0 0
120 1 -8.0589028872323433e-07 3.7552116968794382e+00 1.0116367425360586e+01 8.2724716361939177e-01 0 0 0
122 1 -3.4666815250417346e-06 3.7868092172171748e+00 8.8317648684997749e+00 1.7348810142886086e+00 0 0 0
126 1 2.8252458071854709e-06 5.0767094115249609e+00 8.8462521802146092e+00 2.6861876276014613e+00 0 0 0
128 1 6.0371224224541363e-06 6.2845956676833907e+00 7.5574697165384137e+00 9.1584429557197944e-01 0 0 0
151 1 -7.9453983377721408e-08 1.2334914978262090e+00 1.3882317864152050e+01 1.7659330135270399e+00 0 0 0
152 1 6.8905550085826274e-07 2.5191092289213306e+00 1.3877618841396007e+01 2.6965076921054405e+00 0 0 0
153 1 8.2758442182762970e-08 2.5208255674752720e+00 1.2605495738781794e+01 1.3979856904045500e-02 0 0 0
154 1 4.9524054275559620e-07 3.8260140947356711e+00 1.3878089537011972e+01 1.8453110159127251e+00 0 0 0
155 1 2.1726206318682064e-06 3.8087279820601805e+00 1.1398803641553146e+01 1.8433553667316915e+00 0 0 0
156 1 -1.9331732482746271e-06 5.1314905585454014e+00 1.2614718143815653e+01 2.6473633930335888e-02 0 0 0
157 1 -3.6927048879117804e-06 3.7981470296764082e+00 1.2606366468620546e+01 9.3471474081955586e-01 0 0 0
158 1 4.0222324965615620e-06 5.0800270189262555e+00 1.3894618772033130e+01 2.7006165463522547e+00 0 0 0
159 1 2.5174492006456441e-07 5.0544606973242292e+00 1.1365440489589286e+01 2.7250658994471828e+00 0 0 0
160 1 4.8645036459267711e-06 6.3139169772990824e+00 1.2577700405918330e+01 8.7402697848232269e-01 0 0 0
161 1 7.7545544848560472e-07 5.0313731961401276e+00 1.0054901713992926e+01 -2.0879022573837697e-03 0 0 0
162 1 -1.2041138801913208e-06 6.3385123425700787e+00 1.1355902447939265e+01 1.8209733593033015e+00 0 0 0
163 1 -3.6887237551381119e-06 6.3471187698612539e+00 8.8819231879318163e+00 1.8327484435416534e+00 0 0 0
165 1 -3.3845922882965266e-07 6.3412587484509508e+00 1.0062458748254832e+01 9.1660680109080239e-01 0 0 0
166 1 -9.2612724724288412e-07 7.5653678661193604e+00 1.1382273921043058e+01 2.7250737462495334e+00 0 0 0
167 1 -2.2383569898729617e-06 7.6055365723476012e+00 8.8506060746280983e+00 2.7297612746489621e+00 0 0 0
189 1 -1.6951841449597016e-06 6.2827598491486993e+00 1.3871589169046857e+01 1.8495850969492975e+00 0 0 0
260 1 2.0617763609614037e-06 2.5222690723125725e+00 1.0097324169016460e+01 3.5658179699437218e+00 0 0 0
265 1 -2.3017823443929382e-06 2.5633173577753130e+00 7.6148497730243863e+00 3.5989637630173754e+00 0 0 0
297 1 -2.6664922194637845e-06 2.5521678986166139e+00 1.2659962316337726e+01 3.6390425295472726e+00 0 0 0
300 1 -3.6792577040586473e-06 5.1149274041410759e+00 1.2602013013333528e+01 3.5888381847715172e+00 0 0 0
305 1 -1.2298932243506145e-06 5.1185225073957028e+00 1.0074571216377349e+01 3.6187580080035366e+00 0 0 0
190 1 -1.7548705068160155e-06 7.5881357616967797e+00 1.3811614303644008e+01 2.6274632961635711e+00 0 0 0
221 1 3.3764669895507889e-06 1.5085211015619700e+01 7.6529888727758788e-03 3.5507268492871060e+00 -1 0 0
313 1 -1.0728391601809253e-06 7.5565454685602820e+00 7.4995197452184428e+00 3.5447739720692324e+00 0 0 0
253 1 -1.7140820462991398e-06 1.9582166703467106e-02 1.2706133954634698e+01 3.5690363970879644e+00 0 0 0
257 1 1.0030078977518588e-06 6.1289363398597113e-02 1.0059071565484803e+01 3.5391714836727739e+00 0 0 0
308 1 8.8374530455996692e-06 7.5686934829606578e+00 1.0086065555989425e+01 3.5649380571426597e+00 0 0 0
335 1 -2.5822640351812707e-07 7.6162594801159784e+00 1.2589539071704834e+01 3.6152545851836453e+00 0 0 0
77 1 -5.9311232023384209e-06 5.6298360096107558e-02 7.0161566679391996e-03 -1.3733480154432846e-02 0 0 0
169 1 1.7212386714401799e-06 7.5462030528501094e+00 7.5712351635497424e+00 3.3444212607955826e-02 0 0 0
108 1 -8.9877483395703213e-06 8.8507967851947651e+00 3.6651099956079847e-02 8.8907046365562403e-01 0 0 0
148 1 1.3525668949451178e-06 1.1337292019200026e+01 1.5110085551396292e+01 8.4472966956544615e-01 0 -1 0
150 1 4.1212002024720990e-06 1.3904745851699783e+01 1.5125469099851841e+01 8.6250274340518018e-01 0 -1 0
207 1 3.9358119876281385e-06 1.2622891158321986e+01 7.5708589521763727e+00 2.2841393250694921e-02 0 0 0
5 1 3.4906149757958136e-06 1.5126654280184589e+01 8.8238830556312351e+00 -9.9136010708453448e-01 -1 0 0
17 1 -1.6348012783337252e-06 1.5126654280184656e+01 1.3866101944816831e+01 -9.9136010708453914e-01 -1 0 0
18 1 -1.8234176879327043e-06 1.5126654280184649e+01 1.1344992500223912e+01 -9.9136010708450240e-01 -1 0 0
58 1 -6.6708332466663357e-07 7.5633307211495833e+00 1.3866101945703120e+01 -9.9136010708467048e-01 0 0 0
145 1 4.3194199856052818e-06 1.0073422324606936e+01 1.5107166050021618e+01 6.7928912241512276e-03 0 -1 0
173 1 1.2424771656599607e-06 8.7855202122590956e+00 7.5775851564506906e+00 8.9282743235464201e-01 0 0 0
289 1 1.6007134047833139e-06 1.0096661855609796e+01 5.0694718096291780e-02 3.5042418800980708e+00 0 0 0
45 1 3.2696606182591047e-06 7.5633307211495957e+00 1.1344992501110292e+01 -9.9136010708458211e-01 0 0 0
46 1 -6.7719278356773752e-07 7.5633307211496730e+00 8.8238830565176496e+00 -9.9136010708457478e-01 0 0 0
109 1 4.9350190314197822e-06 1.6057581591315540e-03 1.2606178015592368e+01 -6.4395783965912876e-02 0 0 0
113 1 7.4010601960978816e-07 1.5115816226195911e+01 1.0145699334917358e+01 -9.0476078131087531e-03 -1 0 0
47 1 8.9335738401535032e-09 8.8238830560745534e+00 8.8238830560745569e+00 -1.6675622354259425e+00 0 0 0
49 1 1.5840677002859199e-06 1.0084435390999504e+01 8.8238830556313506e+00 -9.9136010708463751e-01 0 0 0
59 1 5.5508903770042862e-07 8.8238830560748251e+00 1.3866101945259995e+01 -1.6675622354258766e+00 0 0 0
60 1 -5.9276553058986026e-07 8.8238830560746262e+00 1.1344992500667257e+01 -1.6675622354258974e+00 0 0 0
61 1 -2.0674007722916395e-06 1.0084435390999435e+01 1.3866101944816885e+01 -9.9136010708449973e-01 0 0 0
62 1 -3.9866465636147677e-06 1.0084435390999371e+01 1.1344992500224077e+01 -9.9136010708449351e-01 0 0 0
63 1 -1.4682460563512588e-06 1.1344992500666692e+01 1.1344992500666811e+01 -1.6675604903877421e+00 0 0 0
64 1 9.5234792121979187e-07 1.1344992500666777e+01 8.8238830560742141e+00 -1.6675604903876728e+00 0 0 0
65 1 -3.4678990172020470e-07 1.2605549610335126e+01 1.1344992501110301e+01 -9.9136010708430844e-01 0 0 0
66 1 -1.1165581872296885e-06 1.2605549610335109e+01 8.8238830565175430e+00 -9.9136010708445210e-01 0 0 0
67 1 -3.9591607305093125e-07 1.3866101945259844e+01 8.8238830560744947e+00 -1.6675622354258111e+00 0 0 0
69 1 5.5964387561896480e-07 1.1344992500666667e+01 1.3866101945259411e+01 -1.6675604903878793e+00 0 0 0
70 1 -2.3268762836843287e-06 1.2605549610335093e+01 1.3866101945703175e+01 -9.9136010708431466e-01 0 0 0
71 1 -4.5705190651359748e-06 1.3866101945259569e+01 1.3866101945259965e+01 -1.6675622354257598e+00 0 0 0
72 1 5.9866931283926327e-07 1.3866101945259738e+01 1.1344992500667219e+01 -1.6675622354257862e+00 0 0 0
164 1 -2.5258869846222563e-06 7.5986102063594201e+00 1.0087207877318969e+01 3.6586041091604793e-02 0 0 0
168 1 -7.2583472413469246e-06 8.8334566993333503e+00 1.0102184099961965e+01 8.1381688377305539e-01 0 0 0
170 1 1.4674257998582625e-06 8.8661383778610627e+00 8.8618248900447565e+00 1.7954628587789159e+00 0 0 0
174 1 -4.1755114315185177e-06 1.0182901955610472e+01 8.7516786318589848e+00 2.7172947278562569e+00 0 0 0
191 1 2.7327116306585907e-06 7.6102679948160032e+00 1.2624377141943997e+01 1.2091484389018893e-02 0 0 0
192 1 2.7135484291789778e-06 8.8720897764207916e+00 1.3894208970005675e+01 1.7848280626462381e+00 0 0 0
193 1 4.7035225679046915e-06 8.8622513640518772e+00 1.1340578170088982e+01 1.7334101752951778e+00 0 0 0
194 1 4.3388065892963607e-06 1.0127056931629998e+01 1.2555024461915627e+01 -7.8373617494900391e-02 0 0 0
195 1 5.9388805691482335e-07 8.8702475145789759e+00 1.2602135683843974e+01 7.9280877467445443e-01 0 0 0
196 1 1.2032533005182270e-06 1.0175094187276908e+01 1.3868576126560598e+01 2.6798626258897160e+00 0 0 0
197 1 -3.2903902533086795e-06 1.0070168416395671e+01 1.1389334473856641e+01 2.6761114941347319e+00 0 0 0
198 1 -7.0403071517414541e-06 1.1341929587888643e+01 1.2566452918699829e+01 8.9984198065928822e-01 0 0 0
199 1 8.3347285973885885e-06 1.0065596328056174e+01 1.0126245880955006e+01 6.5817040083460641e-03 0 0 0
200 1 1.9180683555325313e-06 1.1342067185299845e+01 1.1353652909047440e+01 1.7646031499204973e+00 0 0 0
201 1 4.8743978251631440e-06 1.1412840731953780e+01 8.8165546663795400e+00 1.8047327732215808e+00 0 0 0
202 1 9.6947942240159409e-07 1.2635400400975877e+01 1.0075310749999558e+01 3.2673381150628109e-02 0 0 0
203 1 -2.6336548502709669e-06 1.1355857676893660e+01 1.0133817625260049e+01 8.9900064888309383e-01 0 0 0
204 1 -4.8452060204226898e-06 1.2660411559132022e+01 1.1355412052313794e+01 2.6848247893559929e+00 0 0 0
205 1 -2.2911185950951631e-06 1.2634322207333236e+01 8.7922724011783355e+00 2.6874157160265311e+00 0 0 0
206 1 -3.0476437990279902e-06 1.3861802768004715e+01 1.0083952301614424e+01 9.0805764824859492e-01 0 0 0
208 1 -2.1801684797610655e-06 1.3943217567415383e+01 8.8492682034229748e+00 1.8184706426165878e+00 0 0 0
210 1 3.6758313430195920e-07 1.3917651292966564e+01 7.5924218459155792e+00 9.3948189548841132e-01 0 0 0
211 1 -1.0000764080708320e-06 1.1396378021583644e+01 1.3815697215833042e+01 1.7908485957567801e+00 0 0 0
212 1 3.2991052996476936e-06 1.2626865219365904e+01 1.3871806841799511e+01 2.6688121513172089e+00 0 0 0
213 1 1.1407331607984221e-06 1.2603788145812402e+01 1.2589473941363574e+01 -2.9943988231510506e-02 0 0 0
214 1 -5.9717269085190759e-06 1.3817137831977000e+01 1.3880883767719222e+01 1.7612822214452859e+00 0 0 0
215 1 3.0598292059211986e-06 1.3818744015054001e+01 1.1360380845898010e+01 1.7580977573286183e+00 0 0 0
216 1 4.2144003835502132e-06 1.3867008744958554e+01 1.2559341568172403e+01 8.6092417085542738e-01 0 0 0
338 1 2.9411925780633181e-06 1.0145364062142066e+01 1.2603269726627127e+01 3.5728372532766595e+00 0 0 0
343 1 4.0429682366681553e-06 1.0141425053098459e+01 1.0060261533651794e+01 3.5451436889011800e+00 0 0 0
346 1 3.5240890887418680e-06 1.2667335879114262e+01 1.0085105403567765e+01 3.5794759272896930e+00 0 0 0
351 1 3.4445394729359861e-06 1.2618533531541011e+01 7.5428573263733396e+00 3.6302798306299007e+00 0 0 0
357 1 -3.2211776593065227e-06 1.2668492532479172e+01 1.2653162000952413e+01 3.5444749097790198e+00 0 0 0
220 1 -3.3069121529251261e-06 1.2660845929998439e+00 2.4974495742206160e+00 4.5425667588086451e+00 0 0 0
222 1 -5.0765909934437003e-07 1.3307548848268140e+00 1.2617892268270197e+00 5.4045462493943921e+00 0 0 0
224 1 1.4146132014132048e-06 1.2838157276494881e+00 1.5088927380645885e+01 4.5317074169280476e+00 0 -1 0
225 1 2.4627777118564389e-06 2.5282235721545905e+00 1.2297923810488889e+00 6.2538717605762004e+00 0 0 0
232 1 -2.8014699425565165e-06 1.3344466102990640e+00 6.2887100078780014e+00 5.4204287470975352e+00 0 0 0
233 1 1.2374975210226645e-06 1.3150704007175826e+00 3.7827094367014813e+00 5.3941953810516683e+00 0 0 0
235 1 -4.5771848363975139e-07 1.2495685873553184e+00 5.0387775275141014e+00 4.4840745655038488e+00 0 0 0
236 1 2.8611295152060488e-06 2.5668274715082040e+00 6.2583443959789218e+00 6.2734996469847060e+00 0 0 0
237 1 4.3098137551387887e-06 2.5768080104341364e+00 3.7489963417938785e+00 6.2271791997827544e+00 0 0 0
238 1 8.3708710532928058e-07 3.8550053662879673e+00 5.0245137864250848e+00 4.4530738773368963e+00 0 0 0
240 1 1.0138254152191273e-06 3.8394888107198253e+00 3.7472253532306592e+00 5.3435465464334841e+00 0 0 0
241 1 -9.9145384338922637e-07 3.8122331103725258e+00 1.3110089032073493e+00 5.3643090029660874e+00 0 0 0
243 1 -2.7474953697019599e-06 3.8215368217381687e+00 2.5388093221033783e+00 4.4266171067130777e+00 0 0 0
244 1 -2.3137189274140739e-06 5.0851801947625486e+00 3.7790817648901607e+00 6.2729869465217654e+00 0 0 0
245 1 1.1398375086657132e-06 5.0382336754246362e+00 1.2545874408431086e+00 6.3119993725892805e+00 0 0 0
246 1 9.4454766109979394e-07 6.3767152166318573e+00 2.4877656736023197e+00 4.5208009902074870e+00 0 0 0
248 1 4.6235491739672407e-06 6.3297296685332594e+00 1.2167153598691638e+00 5.3953919711656990e+00 0 0 0
267 1 -2.8756749715856087e-06 3.8422586184646157e+00 6.2604435107777006e+00 5.3855085936262492e+00 0 0 0
269 1 6.5048235882357407e-06 3.8232162897574322e+00 7.5532880986029758e+00 4.4440101959190752e+00 0 0 0
271 1 2.9790325738467870e-06 5.0868404985448761e+00 6.2727227920517761e+00 6.2773261444917248e+00 0 0 0
274 1 4.1339554762000527e-06 6.3627646722475468e+00 6.2817607434315601e+00 5.3629982504428941e+00 0 0 0
275 1 1.6668516310547569e-06 6.3733082141916739e+00 3.7961225882264569e+00 5.4248812538983566e+00 0 0 0
277 1 -1.8734541971760028e-06 6.3608091717227389e+00 5.0715113209393099e+00 4.4717774003647337e+00 0 0 0
362 1 -9.0465415981843212e-06 5.7622589790584509e-02 3.7607406672669312e+00 9.9416532629155032e+00 0 0 0
363 1 -2.0823900727600072e-06 7.4486801088992624e-02 1.2460471502661488e+00 9.8851919130645829e+00 0 0 0
364 1 -3.4785474707696504e-06 1.2769506918987310e+00 2.4296397202133915e+00 8.0480064364486328e+00 0 0 0
366 1 2.2741047294122404e-06 1.2840897970274410e+00 1.2268061367814342e+00 8.8581289739706737e+00 0 0 0
368 1 7.1250200615167960e-07 1.3141200353501623e+00 1.3968671749103644e-02 7.9990862800475977e+00 0 0 0
369 1 -6.1256477723828656e-07 2.4732637679059604e+00 1.2483270247525304e+00 9.9497658633306258e+00 0 0 0
373 1 -1.2915211530479724e-05 6.0835316062908373e-02 6.2640480618634706e+00 1.0051880798622209e+01 0 0 0
376 1 -8.9402355740737715e-07 1.2279159106017641e+00 6.3320546361799241e+00 8.9063996857245371e+00 0 0 0
377 1 5.5150873919001508e-06 1.2355990313895187e+00 3.7090887631591007e+00 8.9087255295173673e+00 0 0 0
378 1 -7.5039328439654201e-07 2.5507924206495818e+00 4.9707751279064167e+00 7.1681487642002208e+00 0 0 0
379 1 -3.1068392219506860e-06 1.2723771202065108e+00 4.9977138753124475e+00 8.0716865052410753e+00 0 0 0
380 1 1.1556830964294718e-05 2.5331396567643916e+00 6.3027481393020715e+00 9.9273602765213944e+00 0 0 0
381 1 1.8126209324978948e-06 2.4921688637514481e+00 3.7844985852861099e+00 1.0003823057509333e+01 0 0 0
382 1 6.4027384962857021e-06 3.8021774596106344e+00 5.0041931899848207e+00 8.1216625554189399e+00 0 0 0
383 1 4.1820635022207725e-07 2.5545112979049951e+00 2.4742604305386267e+00 7.1789112039158685e+00 0 0 0
384 1 -3.7493852375778715e-06 3.7861953106278792e+00 3.7634769755497599e+00 9.0809095705450744e+00 0 0 0
385 1 -8.0117173345086368e-06 3.7578993630075228e+00 1.2745318055549617e+00 9.0219799818454494e+00 0 0 0
386 1 6.4464859187741942e-07 5.0691651867618619e+00 2.5448982692624416e+00 7.1793684578162686e+00 0 0 0
387 1 3.3558430360653275e-08 3.7959107421142391e+00 2.5486596223167646e+00 8.0556362333229110e+00 0 0 0
388 1 5.5486423650172701e-06 5.1491322252315328e+00 3.7895386430581164e+00 9.9037012889142115e+00 0 0 0
389 1 4.9444361433372529e-06 5.1087862923192802e+00 1.1711261125581096e+00 9.8949226331206503e+00 0 0 0
390 1 3.9227675652774803e-06 6.3615082508779590e+00 2.6041816892513547e+00 8.0253631286810503e+00 0 0 0
392 1 -4.1176588335707812e-06 6.4125389402294175e+00 1.3221731123574783e+00 8.8149771893789932e+00 0 0 0
394 1 5.6304013674935999e-06 6.3521536640861784e+00 1.5086959858426146e+01 7.9825921663731281e+00 0 -1 0
411 1 -6.4758688314010365e-06 3.8278415409841307e+00 6.2374199309619467e+00 9.0388311582781000e+00 0 0 0
415 1 6.1347422494143424e-06 5.1245818693658203e+00 6.2563752745536174e+00 9.9565789763063783e+00 0 0 0
417 1 -4.8968973400955146e-06 5.0716745787690414e+00 5.0452644440190522e+00 7.2175485147735792e+00 0 0 0
418 1 -1.8869629773204814e-06 6.3293305635213120e+00 6.3460925129430272e+00 8.8345326056172890e+00 0 0 0
419 1 2.9060010008636100e-07 6.3011401554641839e+00 3.7655027869986584e+00 8.8861157354443865e+00 0 0 0
421 1 -2.4604051685880550e-06 6.3712660650317678e+00 5.0032601708087672e+00 8.0635805830666900e+00 0 0 0
423 1 -2.3346438686342455e-06 7.5315810063330115e+00 3.8139605239610832e+00 9.8542024014104541e+00 0 0 0
395 1 2.4749405087366643e-06 7.5612006189370140e+00 1.2556590112130139e+00 9.9167890685389111e+00 0 0 0
422 1 -1.3658029488929585e-06 7.5399092179895035e+00 6.3190762529930566e+00 9.9136776365559456e+00 0 0 0
230 1 1.9285480125223728e-06 1.3247632396146849e+00 7.5551447800274003e+00 4.5277948374595427e+00 0 0 0
272 1 -2.8510109274656401e-06 6.3235014477884626e+00 7.5429763083312116e+00 4.4170582021742231e+00 0 0 0
374 1 1.0452029558386047e-06 1.2270472005074369e+00 7.5528252377812537e+00 8.0664498583666209e+00 0 0 0
416 1 5.7205014429733260e-06 6.2906790118449685e+00 7.5114340022576611e+00 8.0313619282091473e+00 0 0 0
250 1 -1.7371009773425493e-06 6.3622244481210499e+00 1.5096687018317215e+01 4.5041898616777267e+00 0 -1 0
391 1 -4.7998152644920140e-06 5.0515618567202161e+00 3.4200377963769686e-02 7.2005946872844824e+00 0 0 0
409 1 -1.4300773270152518e-06 2.5765510027991576e+00 7.5268461363658208e+00 7.1665820726852747e+00 0 0 0
218 1 -1.9195577116696929e-06 5.1858057543368474e-02 3.7871170367946219e+00 6.3378870759614268e+00 0 0 0
219 1 -2.7800370311316949e-07 1.5311934227058899e-02 1.2680561558975014e+00 6.2888335155321693e+00 0 0 0
229 1 -1.7229225588405190e-06 7.1077225672624422e-03 6.3249300890439732e+00 6.3670001758240282e+00 0 0 0
279 1 -3.6819758720859372e-06 7.6714439865862785e+00 3.7999670386584956e+00 6.3330053590531143e+00 0 0 0
361 1 1.3487657900171597e-06 2.2584796847418431e-02 2.4618597321572562e+00 7.2258556246326808e+00 0 0 0
251 1 -6.1660204639491776e-06 7.6036716554303423e+00 1.2397487993803480e+00 6.3400525785083275e+00 0 0 0
278 1 -2.0609116603721604e-07 7.6443359826918273e+00 6.3084546025009818e+00 6.2964820080288870e+00 0 0 0
375 1 2.8747636621858120e-06 1.7104157462693337e-02 5.0167856174447572e+00 7.2382072040047989e+00 0 0 0
420 1 4.3440674622741739e-06 7.6435993815857586e+00 5.0263190268434901e+00 7.2151097280349701e+00 0 0 0
280 1 -7.6177397691622937e-06 8.8650935497612160e+00 5.0096154309842040e+00 4.4464372297288692e+00 0 0 0
282 1 4.6240723764206705e-06 8.8764484747518573e+00 3.7431047844069703e+00 5.3795765673250848e+00 0 0 0
283 1 8.0971078512022871e-07 8.7959407481012235e+00 1.2120246508845594e+00 5.4163307862873795e+00 0 0 0
285 1 -3.3322271691459195e-06 8.8392992323801831e+00 2.4645236223889753e+00 4.5146439634632181e+00 0 0 0
286 1 -3.0876510545503755e-06 1.0123670436095145e+01 3.7530271186231556e+00 6.2636586311256170e+00 0 0 0
287 1 -5.6233075876023960e-06 1.0086011078470797e+01 1.1811691760710394e+00 6.2337779330756504e+00 0 0 0
288 1 -1.8580525679588085e-06 1.1366904157317913e+01 2.4949637659295805e+00 4.5041185516012723e+00 0 0 0
290 1 4.0080495623258341e-07 1.1347607745373704e+01 1.2395027208896794e+00 5.3768686675461472e+00 0 0 0
293 1 -3.8552009087799474e-06 1.2608465877726736e+01 1.1623372527362241e+00 6.2881699318248030e+00 0 0 0
315 1 1.6835482761912069e-06 8.9003288921638237e+00 6.3334792189771552e+00 5.3590962355662359e+00 0 0 0
319 1 -2.7400125276026515e-06 1.0119361669377241e+01 6.3323905122321333e+00 6.2797088556724665e+00 0 0 0
320 1 -3.4175520969441042e-06 1.1413609979978897e+01 7.5365743003225978e+00 4.5180848551811721e+00 0 0 0
322 1 3.4613206590669352e-07 1.1396320820838556e+01 6.3050100675737539e+00 5.4468643532846412e+00 0 0 0
323 1 5.2339662259614942e-06 1.1377758399596193e+01 3.7681950358405421e+00 5.4303489504874687e+00 0 0 0
325 1 -2.5100530379869926e-06 1.1389126856639123e+01 5.0564857193194044e+00 4.4971436559001967e+00 0 0 0
326 1 -2.7539286624525634e-06 1.2651113797934320e+01 6.2877363139942544e+00 6.2676156135054359e+00 0 0 0
327 1 -3.8255935802308854e-06 1.2701855879738218e+01 3.7616140396369668e+00 6.2739758553402938e+00 0 0 0
328 1 -3.0709690416381395e-06 1.3947398509083907e+01 5.0270838145372858e+00 4.5305173540018329e+00 0 0 0
330 1 5.8187852058096395e-06 1.3895981900207747e+01 3.7261921095801753e+00 5.4019954958370615e+00 0 0 0
331 1 2.5585162865535256e-06 1.3863083865243198e+01 1.2054244752526388e+00 5.3360226939942104e+00 0 0 0
332 1 -4.6530665074610080e-06 1.3889150920435656e+01 2.4727420344231739e+00 4.4737626845056315e+00 0 0 0
353 1 2.8596814791370802e-06 1.3886585069187600e+01 6.2659915976707365e+00 5.3959075999038646e+00 0 0 0
424 1 -2.9238982232420995e-06 8.8853855455416966e+00 5.0579193653308661e+00 8.0459051426677792e+00 0 0 0
425 1 1.3081848241069415e-06 7.6276879637268298e+00 2.5376456442059037e+00 7.1930234757590528e+00 0 0 0
426 1 -1.5781615157052803e-06 8.8906295841392371e+00 3.7859886648593717e+00 9.0064403086802010e+00 0 0 0
427 1 -1.1406507647881867e-05 8.8491335791943637e+00 1.2589136359675812e+00 9.1063484668552412e+00 0 0 0
428 1 3.7376205574030182e-06 1.0075639057990520e+01 2.4481729980981175e+00 7.0977721235537876e+00 0 0 0
429 1 3.9583804203378804e-06 8.8850109174424539e+00 2.4552584084767344e+00 8.1312601718928441e+00 0 0 0
430 1 4.4682746921843323e-06 1.0211609577449563e+01 3.8288051606612123e+00 9.8808792301987118e+00 0 0 0
431 1 1.2476350077857887e-05 1.0145784911885869e+01 1.2353886699586869e+00 9.9634985215841265e+00 0 0 0
432 1 6.5192873202418226e-07 1.1382517639202527e+01 2.5052715742580092e+00 7.9858951343610860e+00 0 0 0
434 1 -8.4252187043477294e-06 1.1371251505282009e+01 1.2218300489851956e+00 8.9040519209617415e+00 0 0 0
436 1 5.3736032390868455e-06 1.1349784600394349e+01 4.4273603345918386e-02 8.0057887893681592e+00 0 0 0
437 1 -8.5299606952934430e-07 1.2561793670009305e+01 1.1957114492129670e+00 9.8342346259823721e+00 0 0 0
459 1 -1.8959059877794183e-06 8.8246435039237117e+00 6.3210091674311588e+00 8.9993867474118971e+00 0 0 0
463 1 3.8152325540814105e-06 1.0161228276388556e+01 6.3369011487370086e+00 9.9033245710938083e+00 0 0 0
464 1 5.4308949773958886e-06 1.1415800689536141e+01 7.5791264303558998e+00 8.0162945892361943e+00 0 0 0
465 1 3.3287233426997993e-06 1.0104195411097967e+01 5.1065333863920781e+00 7.1451586438650896e+00 0 0 0
466 1 -1.1426632077774766e-06 1.1435768832483301e+01 6.3504006550991328e+00 8.8488148073620181e+00 0 0 0
467 1 -1.1058170617720375e-06 1.1402177779835432e+01 3.7609609706313933e+00 8.8393137394703061e+00 0 0 0
468 1 2.7812344816792342e-06 1.2657604358499013e+01 5.0267413458463537e+00 7.1736864668527707e+00 0 0 0
469 1 -9.0308392140500149e-07 1.1404298180662227e+01 5.0123236818154604e+00 8.0497253421853223e+00 0 0 0
470 1 -1.5364852207164437e-06 1.2567344440296647e+01 6.3682765369326546e+00 9.9819633537307784e+00 0 0 0
471 1 -8.0200154980454835e-06 1.2582739957588014e+01 3.7837799358976394e+00 9.9298492216987793e+00 0 0 0
472 1 -6.0833197364420846e-06 1.3873977473564652e+01 5.0619618327835374e+00 8.1827294365644505e+00 0 0 0
473 1 1.1418264615065062e-06 1.2689377804285948e+01 2.5197735165497299e+00 7.1255544136672713e+00 0 0 0
474 1 9.1114385092894959e-06 1.3872983152466345e+01 3.7381597495426186e+00 9.0658226159553639e+00 0 0 0
475 1 -2.6151016035627125e-06 1.3903988447471665e+01 1.2330355457994522e+00 9.0177119354325281e+00 0 0 0
476 1 1.8440088043338176e-07 1.3832776813301393e+01 2.4711187586687084e+00 8.1601324524986705e+00 0 0 0
497 1 3.2879085761929631e-06 1.3848974691519029e+01 6.3224882029549931e+00 9.1195097563766865e+00 0 0 0
365 1 -7.7375699688235239e-07 1.9722737648597999e-02 2.3557924120735298e-02 7.1808780897385835e+00 0 0 0
457 1 9.8140397719730342e-08 7.5842282337995028e+00 7.5311225350820532e+00 7.1541270343833405e+00 0 0 0
292 1 -1.9556306467275180e-07 1.1366969199699071e+01 2.1824191430122444e-02 4.4658057249897878e+00 0 0 0
433 1 4.3554525496799707e-06 1.0089696035971231e+01 1.5114792707703863e+01 7.1313513517570648e+00 0 -1 0
495 1 5.1742314455330776e-07 1.2654253779971853e+01 7.5735522972058842e+00 7.2174819378252364e+00 0 0 0
226 1 1.0106002840238026e-06 3.8057152444987499e+00 2.3363740804168032e-02 4.4688756425831855e+00 0 0 0
370 1 4.6147981464162795e-06 3.8329123100241280e+00 1.5105349318616838e+01 8.1140004131644314e+00 0 -1 0
413 1 3.0579967196187286e-06 3.8275860883420854e+00 7.5281073638858462e+00 8.1101176591900739e+00 0 0 0
367 1 -7.4259456329768270e-07 2.5927344148323512e+00 1.5101090642414903e+01 7.2009006793184680e+00 0 -1 0
412 1 -2.2648052953261231e-06 5.0377026754179450e+00 7.4621941772576568e+00 7.1532082597097197e+00 0 0 0
256 1 -1.8691439446613235e-06 1.3314717958762385e+00 1.2611333821640706e+01 4.4893289457251084e+00 0 0 0
258 1 1.7037866575536225e-06 1.2635331771093132e+00 1.1324647578603676e+01 5.3751941388474389e+00 0 0 0
259 1 -1.6192048458784494e-06 1.2997318767294688e+00 8.8351495456534348e+00 5.4366977450170628e+00 0 0 0
261 1 -1.0875141091435776e-06 1.2623940858960199e+00 1.0075334856924263e+01 4.5055322367909634e+00 0 0 0
262 1 4.9432963864006036e-07 2.5567430084991765e+00 1.1355507938358679e+01 6.2838637678083824e+00 0 0 0
263 1 7.8226127221955330e-07 2.5459663271617070e+00 8.7912909335644880e+00 6.3138748026927951e+00 0 0 0
264 1 1.3946705603522434e-06 3.7641942944267837e+00 1.0087575974771374e+01 4.4798511566073325e+00 0 0 0
266 1 -1.2085516039138728e-06 3.8433105642994296e+00 8.8309915543089303e+00 5.3587822300719816e+00 0 0 0
270 1 -1.7829617286303653e-06 5.0831767288959453e+00 8.7657784022140746e+00 6.2933832261032849e+00 0 0 0
295 1 -5.0330032002698466e-06 1.2972453499187488e+00 1.3864873403310337e+01 5.3395303434555270e+00 0 0 0
296 1 7.7653864225294959e-06 2.5734232472021765e+00 1.3906360711467730e+01 6.3017592795231243e+00 0 0 0
298 1 -6.4765449873884751e-06 3.8174947764681559e+00 1.3916283392916508e+01 5.3849685583572100e+00 0 0 0
299 1 -1.5810509670540292e-06 3.7934037915397458e+00 1.1336665357368835e+01 5.3586800831011629e+00 0 0 0
301 1 5.9734365053966003e-06 3.8292944175986001e+00 1.2601196783506824e+01 4.4630510004746755e+00 0 0 0
302 1 5.4389039440545231e-06 5.0526888065964615e+00 1.3850942372490870e+01 6.2470641360188930e+00 0 0 0
303 1 1.8065205434178865e-06 5.0347083872990206e+00 1.1342788421168125e+01 6.2867108103825444e+00 0 0 0
304 1 -8.9174153894908335e-07 6.3643477672181250e+00 1.2534640024976223e+01 4.5242968030315094e+00 0 0 0
306 1 2.0265156575546182e-07 6.4202020413541403e+00 1.1321448417400140e+01 5.4209846005513169e+00 0 0 0
307 1 1.4058007094977855e-06 6.3996791605130303e+00 8.7822326498370433e+00 5.3645767229452375e+00 0 0 0
309 1 2.6835999074842036e-06 6.3517244038874949e+00 1.0050961539357225e+01 4.4749443158291244e+00 0 0 0
333 1 1.2721015568537059e-06 6.3793569186297017e+00 1.3817554077107523e+01 5.3613484040390338e+00 0 0 0
372 1 -2.7236499795805697e-06 4.7467866577342616e-02 8.8218471317603715e+00 9.9506427466468406e+00 0 0 0
398 1 -6.6549756628794868e-06 1.1552076007632582e-01 1.3891164646949720e+01 9.9709467032268169e+00 0 0 0
399 1 -6.3063562394806764e-06 1.3004147866301191e-01 1.1360998055379097e+01 9.8372031519947711e+00 0 0 0
400 1 -6.8220043861972609e-06 1.2707451205313391e+00 1.2629114651096373e+01 7.9590044516880605e+00 0 0 0
402 1 8.6209265209371128e-06 1.2701889678483294e+00 1.1359701310024160e+01 8.8315508795515534e+00 0 0 0
403 1 1.0340997193415261e-07 1.2448615011067310e+00 8.8422980487588561e+00 8.8737304238524661e+00 0 0 0
404 1 5.3991354290921218e-06 2.5972702206668568e+00 1.0077874204308950e+01 7.1709671466205895e+00 0 0 0
405 1 -6.1578434563869668e-06 1.2474190453645846e+00 1.0074406297721682e+01 8.0002841437966694e+00 0 0 0
406 1 7.1975002593725578e-07 2.5381769084102559e+00 1.1319779478279353e+01 9.9362399611667911e+00 0 0 0
407 1 -2.8665936771496941e-06 2.5098898238632015e+00 8.8764954436005450e+00 9.9613345557207733e+00 0 0 0
408 1 2.8328600259976063e-06 3.7938660654739786e+00 1.0057810424550381e+01 8.1573163779233742e+00 0 0 0
410 1 -7.0265390261864373e-06 3.7849390215238667e+00 8.8187476181649416e+00 9.0987476170964054e+00 0 0 0
414 1 6.2832276290111474e-06 5.1023331382116357e+00 8.7946827485951786e+00 9.8916713942613992e+00 0 0 0
439 1 1.7420062902398642e-06 1.2696342342304281e+00 1.3906747179857620e+01 8.8343061435552332e+00 0 0 0
440 1 7.3553079117313123e-06 2.5356655584961958e+00 1.3869704939125276e+01 9.9283493580414302e+00 0 0 0
441 1 -2.3257413332205063e-06 2.5810957396126457e+00 1.2635341533374747e+01 7.1431186394157917e+00 0 0 0
442 1 -9.0672874981799206e-06 3.8358682250083631e+00 1.3891267227291202e+01 9.0273841385000342e+00 0 0 0
443 1 -4.4118406668387691e-06 3.8086424019700393e+00 1.1342484261440919e+01 9.0043516339484420e+00 0 0 0
444 1 -2.7155603466567189e-06 5.0005968402779795e+00 1.2591749621586612e+01 7.1731239610883550e+00 0 0 0
445 1 6.0677231319048926e-06 3.7776912259681064e+00 1.2622063930918531e+01 8.0777366583130625e+00 0 0 0
446 1 3.5193506307043591e-06 5.1064112627386642e+00 1.3885170368160024e+01 9.8802546706701690e+00 0 0 0
447 1 5.8162193222719932e-06 5.1245513335323016e+00 1.1375254732540590e+01 9.8401497459512868e+00 0 0 0
448 1 4.9541946668219640e-06 6.2785657288766590e+00 1.2635741833386017e+01 7.9789746404223498e+00 0 0 0
449 1 -2.9844062392026027e-06 5.0484746800884084e+00 1.0042180759167669e+01 7.1958415256974249e+00 0 0 0
450 1 -7.8377557248212430e-06 6.3112944129743838e+00 1.1353854734417462e+01 8.8040715474715565e+00 0 0 0
451 1 -3.9272748913120208e-06 6.3071006683525628e+00 8.7975970278263649e+00 8.8640288168124695e+00 0 0 0
453 1 6.1056296043724193e-07 6.3160210514335384e+00 1.0105053141762893e+01 7.9666005614148068e+00 0 0 0
454 1 1.1613258449762546e-07 7.4925019916287976e+00 1.1379101863199676e+01 9.8820543559621203e+00 0 0 0
455 1 3.3638560780947887e-06 7.4959553719909504e+00 8.8835857629684636e+00 9.9086593788362354e+00 0 0 0
477 1 -8.2514257502742971e-06 6.2930475937920782e+00 1.3884674253851269e+01 8.7749420243143224e+00 0 0 0
478 1 1.0416358001020542e-05 7.4706293053577415e+00 1.3799087515392976e+01 9.8507777453575933e+00 0 0 0
317 1 -2.7497818212089638e-06 8.8757567445100598e+00 7.5097503317985241e+00 4.4597550852131000e+00 0 0 0
396 1 6.3067894335374140e-06 8.8331556959616293e+00 1.5088946883657027e+01 8.0739046421136109e+00 0 -1 0
438 1 5.7691319167012354e-06 1.3889752394745674e+01 4.8240854258576604e-02 8.1057329201208184e+00 0 0 0
461 1 2.3939976242368314e-06 8.8387074061882274e+00 7.5778748254690944e+00 8.1684802339887064e+00 0 0 0
354 1 7.6158071870861790e-07 1.3943755436568742e+01 7.5623862753183753e+00 4.4982396696356668e+00 0 0 0
498 1 5.7582014220638066e-06 1.3875832695712075e+01 7.5328597723346302e+00 8.1958254306191787e+00 0 0 0
228 1 -3.8490731911207007e-07 1.5117312337580842e+01 8.8096395894756832e+00 6.2575908313639221e+00 -1 0 0
254 1 8.2421706971677004e-07 4.7856499889231685e-03 1.3939337486220175e+01 6.2279753096911943e+00 0 0 0
255 1 -4.4883783437644726e-06 2.8345269619267199e-02 1.1390446605284586e+01 6.2893118566928701e+00 0 0 0
310 1 -4.4815147116867623e-06 7.6361296012292721e+00 1.1356403941857581e+01 6.2608065149613692e+00 0 0 0
311 1 -4.0205742837711694e-06 7.6786216159814593e+00 8.7853401603575403e+00 6.2417226725126262e+00 0 0 0
334 1 7.3545447382826176e-07 7.6266422369468767e+00 1.3770752454729118e+01 6.2229536884879035e+00 0 0 0
371 1 9.0551917312385923e-07 1.5124092515818106e+01 7.5523207122218761e+00 7.2078931582809087e+00 -1 0 0
393 1 9.7062182936894358e-07 7.6475956317603586e+00 1.5063771200925238e+01 7.1427052871817462e+00 0 -1 0
252 1 -6.1314093518950059e-07 8.8773636782770513e+00 1.5076740512483099e+01 4.4440607596633317e+00 0 -1 0
294 1 4.3643478861619571e-06 1.3849075263864824e+01 1.5126477516866006e+01 4.4640113947904485e+00 0 -1 0
435 1 -3.7883338360795196e-06 1.2688651522084015e+01 1.5110547150335584e+01 7.2086606439282770e+00 0 -1 0
397 1 2.3172662014336130e-06 4.4838145976630273e-02 1.2645028190744455e+01 7.1009802225294543e+00 0 0 0
401 1 6.2641534083220805e-06 1.5119205051587432e+01 1.0044206948579053e+01 7.1311568767914784e+00 -1 0 0
312 1 -2.8669660772975325e-06 8.8763390158519577e+00 1.0118201883015606e+01 4.4434420747657724e+00 0 0 0
314 1 2.8261844388033242e-06 8.9381163367067380e+00 8.8061260564889743e+00 5.3637148496879146e+00 0 0 0
318 1 8.7819337950552295e-07 1.0117564125918641e+01 8.8301406127257884e+00 6.2625407221930578e+00 0 0 0
336 1 -1.2761823878645240e-07 8.8898270246053404e+00 1.3843649642605294e+01 5.3486774018319192e+00 0 0 0
337 1 -2.3242916595604375e-06 8.8524034758908350e+00 1.1361819739229931e+01 5.3369626768516687e+00 0 0 0
339 1 -3.4042322417483196e-07 8.8934995656490852e+00 1.2581939838023912e+01 4.4761891595848615e+00 0 0 0
340 1 1.5302620050794313e-06 1.0141961887262164e+01 1.3845356090533343e+01 6.2845056132207286e+00 0 0 0
341 1 -3.6007707976834888e-06 1.0109223831370688e+01 1.1359181310530383e+01 6.2740533478522194e+00 0 0 0
342 1 3.2702547585579663e-06 1.1386713428754659e+01 1.2599044540050082e+01 4.5100937467419318e+00 0 0 0
344 1 1.1232836235423724e-07 1.1390856576047712e+01 1.1243014043251950e+01 5.3646068720501958e+00 0 0 0
345 1 5.6952784936618052e-07 1.1441607188088318e+01 8.7800541924811704e+00 5.3977736475604861e+00 0 0 0
347 1 -2.0134284509186794e-06 1.1381871165706762e+01 1.0045109846802822e+01 4.4449673883868863e+00 0 0 0
348 1 3.5580473778979494e-07 1.2656023066963639e+01 1.1355646187482488e+01 6.2651306019804007e+00 0 0 0
349 1 -2.4089052785605980e-06 1.2656199163104699e+01 8.7892739941048639e+00 6.3351502612049222e+00 0 0 0
350 1 9.3065797581957241e-07 1.3884109419590759e+01 1.0094825190779201e+01 4.5267894689436146e+00 0 0 0
352 1 -2.3728691906579316e-06 1.3899948575065398e+01 8.7868396713111583e+00 5.3632873317522325e+00 0 0 0
355 1 -3.8728536125215771e-06 1.1384687622155921e+01 1.3848334642694011e+01 5.3321897495203254e+00 0 0 0
356 1 -2.4786764722205389e-06 1.2661941589674202e+01 1.3851356425288412e+01 6.2888157746652400e+00 0 0 0
358 1 -1.9493082532742882e-06 1.3892188582491515e+01 1.3852152484389967e+01 5.4099632501500041e+00 0 0 0
359 1 4.2185841439163960e-06 1.3910644067003901e+01 1.1365785330554324e+01 5.3590576287848233e+00 0 0 0
360 1 1.7574741867164826e-06 1.3895289971251191e+01 1.2626691900895317e+01 4.4836289769703646e+00 0 0 0
452 1 1.1763695250982556e-06 7.6629923739650350e+00 1.0063658419657767e+01 7.1470448077452406e+00 0 0 0
456 1 7.0639784295234554e-06 8.8016004589883767e+00 1.0075824365658626e+01 8.1620087392888632e+00 0 0 0
458 1 -9.9900118604587779e-06 8.8006975448591387e+00 8.7928192249808657e+00 9.0597088108068053e+00 0 0 0
460 1 -1.9453047141299020e-06 1.0091613161009358e+01 7.5985837120801856e+00 7.1918147299012949e+00 0 0 0
462 1 7.3483176418908800e-06 1.0104967717879241e+01 8.8470074067436233e+00 9.9312978910703276e+00 0 0 0
479 1 2.2410958369600786e-06 7.6825502993698018e+00 1.2584393547011612e+01 7.1612653682916019e+00 0 0 0
480 1 -1.0400621675790489e-05 8.8396969590160079e+00 1.3829480008933766e+01 8.9867466414592592e+00 0 0 0
481 1 -3.3720272294782370e-06 8.8410370384421277e+00 1.1357627475380568e+01 9.0645278474333040e+00 0 0 0
482 1 -1.0471431969391542e-06 1.0142184069226920e+01 1.2612043828365078e+01 7.1169719532382816e+00 0 0 0
483 1 5.4618058602387462e-07 8.8258652126189414e+00 1.2598474127630299e+01 8.1429345003860263e+00 0 0 0
484 1 6.9614855994922999e-06 1.0151820480805787e+01 1.3889705565769466e+01 9.8916352992205354e+00 0 0 0
485 1 3.5662572527008893e-06 1.0159515581515896e+01 1.1366139585691130e+01 9.9131575784365271e+00 0 0 0
486 1 1.2571082964521996e-07 1.1323414129228560e+01 1.2618117611196729e+01 8.0310768922739459e+00 0 0 0
487 1 5.5194647565136364e-06 1.0099571445177961e+01 1.0081662121714240e+01 7.1970645706812997e+00 0 0 0
488 1 2.7745302680240083e-07 1.1343052397838084e+01 1.1356830969230051e+01 8.8812419423575317e+00 0 0 0
489 1 -1.0564359822641088e-05 1.1317765808698887e+01 8.8305103342165392e+00 8.8917662853093802e+00 0 0 0
490 1 -9.7918288180349072e-07 1.2650506901492314e+01 1.0069670442170912e+01 7.1438585318115679e+00 0 0 0
491 1 3.6909619872267721e-06 1.1354148714007833e+01 1.0057358491871884e+01 8.0309089278261574e+00 0 0 0
492 1 -4.7889993121479278e-06 1.2580224098739151e+01 1.1333631903767806e+01 9.8822009217868221e+00 0 0 0
493 1 -1.6562973383556666e-06 1.2565379910015816e+01 8.8765046331392412e+00 9.9639444020895311e+00 0 0 0
494 1 -5.2252880150849024e-06 1.3927949072140356e+01 1.0081514870915820e+01 8.1301641683883386e+00 0 0 0
496 1 -2.6252329174462112e-06 1.3927854611532471e+01 8.8464550003638376e+00 9.0408112719889075e+00 0 0 0
499 1 -5.6807807612024755e-06 1.1362122025187544e+01 1.3863201914517656e+01 8.8104405651233364e+00 0 0 0
500 1 9.4720313126736525e-07 1.2599293893023827e+01 1.3928193424282881e+01 9.9224156451910268e+00 0 0 0
501 1 -6.0481025574778668e-07 1.2645127573494134e+01 1.2587825593334049e+01 7.1726229360107387e+00 0 0 0
502 1 1.0208889514531032e-06 1.3901643009921568e+01 1.3872843372426082e+01 9.0710524045625860e+00 0 0 0
503 1 5.3923655708100418e-06 1.3882499650071269e+01 1.1307562869552868e+01 9.0137786288905755e+00 0 0 0
504 1 1.9709910781593098e-06 1.3887970917540320e+01 1.2554794694167123e+01 8.1253169692153513e+00 0 0 0
505 1 5.0087009573960853e-06 4.5645309468789225e-01 2.4705209965048001e+00 1.0744335830427955e+01 0 0 0
506 1 1.2327246500875281e-06 4.7854470400518878e-01 5.6805713594000103e-03 1.0692428106009711e+01 0 0 0
509 1 7.6173763233580263e-06 4.9475478124102906e-01 4.9935047079262596e+00 1.0571895912601770e+01 0 0 0
510 1 -4.4756011611832177e-06 2.0349395807090356e+00 5.0668347348428755e+00 1.0607953981593123e+01 0 0 0
511 1 -2.7675638140224449e-06 1.9855180227460041e+00 2.4695635991781026e+00 1.0734600423824441e+01 0 0 0
512 1 -2.1259704605220942e-06 5.5503698348176806e+00 2.4536303708555729e+00 1.0627471447470217e+01 0 0 0
513 1 -1.1139168137969605e-06 5.5484810637739663e+00 1.5100226386705682e+01 1.0537063645752115e+01 0 -1 0
520 1 -9.9849222430130564e-06 5.6630156135129557e+00 5.0225880316206828e+00 1.0535260554431634e+01 0 0 0
521 1 8.2754298859857510e-06 7.1424783176129933e+00 5.0574241452749353e+00 1.0628000457417899e+01 0 0 0
530 1 2.8489715454427125e-06 7.0210124561346445e+00 7.5597543444171915e+00 1.0679150516733820e+01 0 0 0
522 1 -1.7057796226911344e-06 7.0822058395789211e+00 2.5604767340413370e+00 1.0670494315910519e+01 0 0 0
518 1 -2.5876973388852774e-06 2.0482267520227793e+00 7.6037432073550137e+00 1.0641201739993441e+01 0 0 0
523 1 -3.6671542281995125e-06 1.0554386325127803e+01 2.5592815770247457e+00 1.0737124144267618e+01 0 0 0
524 1 -6.5535930502435315e-06 1.0650116534281899e+01 1.5103112354706679e+01 1.0635471443705850e+01 0 -1 0
532 1 -4.6310679627166975e-06 1.0571161727921094e+01 5.1155265560019583e+00 1.0623685471534058e+01 0 0 0
533 1 3.5403733960345150e-06 1.2107917440687338e+01 5.0400084655371122e+00 1.0710790074734408e+01 0 0 0
534 1 5.6901832520575576e-06 1.2169990135457841e+01 2.5124320143574068e+00 1.0718282869000907e+01 0 0 0
539 1 3.4735990539560079e-06 1.2139890457183906e+01 7.6407084585522407e+00 1.0690260138816265e+01 0 0 0
507 1 4.0752548472542649e-06 2.0497668014271286e+00 1.5116325506741763e+01 1.0722998475359759e+01 0 -1 0
508 1 2.8036152390160661e-06 5.2696167155058049e-01 7.5118946813281102e+00 1.0745715564461475e+01 0 0 0
514 1 6.6375287216928381e-07 6.9821883841002119e+00 1.5061046162219654e+01 1.0597919895229213e+01 0 -1 0
519 1 -3.7473526842155349e-06 5.5204593746627051e+00 7.5143921916025196e+00 1.0694746287442625e+01 0 0 0
515 1 8.4975772756350499e-08 5.6846668313880555e-01 1.2612520303676167e+01 1.0672529468781816e+01 0 0 0
516 1 4.7051275897672849e-06 4.9294209222630342e-01 1.0119235299383536e+01 1.0611281047557924e+01 0 0 0
517 1 3.0584663009514850e-06 2.0324539746855761e+00 1.0078741479916314e+01 1.0659252272087413e+01 0 0 0
526 1 -3.8380974917523406e-06 2.0713575591647473e+00 1.2577898316782903e+01 1.0672180690008622e+01 0 0 0
527 1 -3.2428408926620856e-06 5.5870102607378600e+00 1.2624627186210009e+01 1.0653795100244229e+01 0 0 0
528 1 -5.3694017552964593e-07 5.5344024151991187e+00 1.0121288201574915e+01 1.0576991622655413e+01 0 0 0
529 1 -6.5777612061789101e-07 7.0587734479387603e+00 1.0124692702398477e+01 1.0627157661520551e+01 0 0 0
535 1 -4.2724756342244837e-06 7.0254968135438167e+00 1.2629907617175240e+01 1.0592895621873557e+01 0 0 0
525 1 5.1293394452948018e-07 1.2111564302498108e+01 4.4431561234130612e-03 1.0655959081052957e+01 0 0 0
531 1 -3.2813963785352950e-06 1.0600969382467531e+01 7.6059414443283853e+00 1.0693279095733498e+01 0 0 0
536 1 -2.0766035899767962e-06 1.0607434692214468e+01 1.2608069917887031e+01 1.0700134519735725e+01 0 0 0
537 1 1.3092893936476969e-06 1.0501508188221340e+01 1.0071982244263969e+01 1.0736476306784843e+01 0 0 0
538 1 1.3056992659424836e-06 1.2119709963117403e+01 1.0063229673237899e+01 1.0752843294541620e+01 0 0 0
540 1 -2.1683589869414788e-06 1.2152733875073482e+01 1.2657228759154211e+01 1.0708472838678986e+01 0 0 0

Velocities

3 0.0000000000000000e+00 0.0000000000000000e+00 0.0000000000000000e+00
4 0.0000000000000000e+00 0.0000000000000000e+00 0.0000000000000000e+00
7 0.0000000000000000e+00 0.0000000000000000e+00 0.0000000000000000e+00
8 0.0000000000000000e+00 0.0000000000000000e+00 0.0000000000000000e+00
9 0.0000000000000000e+00 0.0000000000000000e+00 0.0000000000000000e+00
10 0.0000000000000000e+00 0.0000000000000000e+00 0.0000000000000000e+00
11 0.0000000000000000e+00 0.0000000000000000e+00 0.0000000000000000e+00
12 0.0000000000000000e+00 0.0000000000000000e+00 0.0000000000000000e+00
13 0.0000000000000000e+00 0.0000000000000000e+00 0.0000000000000000e+00
14 0.0000000000000000e+00 0.0000000000000000e+00 0.0000000000000000e+00
15 0.0000000000000000e+00 0.0000000000000000e+00 0.0000000000000000e+00
24 0.0000000000000000e+00 0.0000000000000000e+00 0.0000000000000000e+00
26 0.0000000000000000e+00 0.0000000000000000e+00 0.0000000000000000e+00
27 0.0000000000000000e+00 0.0000000000000000e+00 0.0000000000000000e+00
28 0.0000000000000000e+00 0.0000000000000000e+00 0.0000000000000000e+00
74 -1.4816736107649603e-02 1.4596654590532398e-03 -4.6377528316665509e-03
75 1.3341693824129670e-03 6.3251759997774272e-03 2.0371606220646204e-03
76 3.8175044471304514e-03 -3.3007968687768468e-03 6.0657499884487036e-03
78 -3.7932058401675610e-03 2.0524221644925883e-03 6.2338755908397936e-03
81 -6.1105309233147435e-03 -8.5062503450229580e-03 -6.4285340202351327e-03
85 -7.2626478204117478e-03 3.7590501103695678e-04 1.6388743797754422e-03
88 4.4561139577274682e-04 -6.3265047979312104e-04 -5.4076556106857996e-03
89 -5.3244067937403532e-03 -2.2502159683093214e-04 4.0911458265248347e-03
90 -7.5038585882738530e-04 1.9098819159974606e-03 1.0891341524626277e-03
91 -1.2679196886447787e-03 -7.2482641973534538e-03 -3.9100200973011404e-03
92 7.8654970821708942e-03 -6.1194070755321859e-03 7.4264731404787981e-03
93 1.3497721575814318e-03 8.8138276810571757e-03 -5.5631361134443743e-04
94 -1.0985801885290002e-03 -3.0090629098116148e-03 2.0104810127574610e-03
95 4.9397352500071953e-03 -6.1452511202807567e-03 -4.3846551782020793e-03
96 -5.7284325846266651e-03 3.6651056414058691e-03 -7.5905486086636973e-04
97 6.4691546231975732e-04 8.0045683444977325e-03 -3.1407424147217762e-03
98 1.5830618968634908e-04 -1.9745539489848521e-03 -3.0398731833605709e-03
99 5.5540175052882189e-04 6.7225870165850523e-03 5.8640171840149504e-04
100 1.2198519077056106e-02 -3.6121993098014364e-04 4.1353562195679001e-03
101 1.0064054059006683e-03 5.7312540575794792e-03 6.6950286443176856e-03
102 4.6772661362500462e-03 2.9099026380700033e-03 -5.7730601027715812e-04
104 -7.7406292062388816e-04 -3.7352579206965842e-03 1.2240831254504096e-03
123 -4.5803478497414831e-03 -1.1134180583453933e-02 -7.1791789658713131e-03
124 -1.4765057290819642e-03 1.0426367582538054e-03 -2.3038113057439746e-03
127 -3.0394570738073111e-03 1.9845003823997427e-03 -1.1171421312497870e-02
129 -4.9894289042961195e-03 -9.1834602067642455e-03 1.4735268100224633e-03
130 -7.8008260366966798e-03 1.1651588838250354e-03 -6.7959103884007218e-03
131 -5.4811829020476616e-03 1.0872621220075495e-02 -4.8945079706436551e-03
133 1.9835131353046986e-03 5.1255835674023625e-03 -3.6511199879104188e-03
135 -4.7713780303039336e-03 -3.8387592596027306e-03 -9.4546778537814794e-03
234 -6.7176043267269591e-03 -1.4711981164330960e-03 -4.2473943386818272e-03
239 -1.9438648417916123e-03 -6.2715418819138131e-03 -1.5372326931138948e-03
242 -1.4697667139738160e-03 3.3922931759961692e-03 2.1654406456444353e-03
273 -2.8499350286161577e-03 4.0065885908431680e-03 5.2607008891986107e-03
107 -1.9424718813784269e-03 -4.3057085202848708e-03 -3.3616248550006104e-03
134 1.0724630045758606e-03 -6.0904339828721406e-03 -5.4287881967886621e-03
217 1.0187076522634633e-03 -5.5267556238109521e-03 1.9366761277426244e-03
231 -9.3303367235992836e-04 -2.6520737044398164e-03 4.5818428811930743e-03
276 -2.0831961453846456e-03 9.4012593855430143e-04 1.5192089802293751e-02
281 -4.1684883362111576e-03 -2.2282884516561679e-03 4.1561842033777446e-03
79 -1.4376714341600390e-03 8.5385392208646316e-03 4.8686633181466373e-06
223 -1.5797703101232592e-03 -6.1030358143399138e-03 -8.7995687318249906e-04
268 -3.1096940565185183e-03 -2.7245926120622482e-03 -1.1973537383803893e-03
86 -2.0449863029246983e-03 3.0233225213419793e-03 -2.5349848154648637e-03
227 -4.1160624733892603e-03 5.2930599018393438e-03 1.0855632233375797e-02
249 -1.2004691172289620e-02 -2.1126893355853911e-03 -3.5480663923046405e-03
1 0.0000000000000000e+00 0.0000000000000000e+00 0.0000000000000000e+00
2 0.0000000000000000e+00 0.0000000000000000e+00 0.0000000000000000e+00
6 0.0000000000000000e+00 0.0000000000000000e+00 0.0000000000000000e+00
30 0.0000000000000000e+00 0.0000000000000000e+00 0.0000000000000000e+00
16 0.0000000000000000e+00 0.0000000000000000e+00 0.0000000000000000e+00
29 0.0000000000000000e+00 0.0000000000000000e+00 0.0000000000000000e+00
73 -4.4098137375941007e-03 -1.4973523925256413e-03 -4.0292047213860011e-04
83 2.2730853885035139e-03 1.0571559901837301e-03 6.7986280054329910e-03
87 -7.0076941910673032e-05 8.0394562156354699e-03 5.5347443850718324e-03
132 2.7474809067038093e-03 -4.2592504695549774e-03 6.8599174145368431e-04
31 0.0000000000000000e+00 0.0000000000000000e+00 0.0000000000000000e+00
32 0.0000000000000000e+00 0.0000000000000000e+00 0.0000000000000000e+00
33 0.0000000000000000e+00 0.0000000000000000e+00 0.0000000000000000e+00
34 0.0000000000000000e+00 0.0000000000000000e+00 0.0000000000000000e+00
35 0.0000000000000000e+00 0.0000000000000000e+00 0.0000000000000000e+00
36 0.0000000000000000e+00 0.0000000000000000e+00 0.0000000000000000e+00
48 0.0000000000000000e+00 0.0000000000000000e+00 0.0000000000000000e+00
50 0.0000000000000000e+00 0.0000000000000000e+00 0.0000000000000000e+00
51 0.0000000000000000e+00 0.0000000000000000e+00 0.0000000000000000e+00
52 0.0000000000000000e+00 0.0000000000000000e+00 0.0000000000000000e+00
53 0.0000000000000000e+00 0.0000000000000000e+00 0.0000000000000000e+00
54 0.0000000000000000e+00 0.0000000000000000e+00 0.0000000000000000e+00
55 0.0000000000000000e+00 0.0000000000000000e+00 0.0000000000000000e+00
56 0.0000000000000000e+00 0.0000000000000000e+00 0.0000000000000000e+00
68 0.0000000000000000e+00 0.0000000000000000e+00 0.0000000000000000e+00
136 -4.0302941979771819e-04 1.3667403043443019e-03 1.3565890599005507e-03
137 3.0571144192598110e-03 -1.0407572468520599e-02 4.7258668176192549e-03
138 2.8836921682727236e-03 -4.5906859773435634e-03 8.1300319170023450e-03
139 3.2197474941815700e-03 3.2350136839951918e-03 -3.1532748051804052e-03
140 -3.1697651567849749e-03 -6.8369969082854561e-03 -5.0737673445661715e-03
141 -2.2244466930389996e-03 3.5836721602602989e-03 -5.8525673115197565e-03
142 5.6017088109662086e-03 -6.2086352415211587e-03 -3.7713545143101272e-03
143 8.7597772810135525e-03 -9.4496228513160120e-04 2.0264889712466759e-03
144 1.7556390759022253e-03 -4.8426318867954749e-04 2.0573020471351695e-03
146 8.0123477247626036e-03 7.8231201242686408e-04 -3.1742010993100036e-03
147 -1.2048099191513914e-02 -8.1175515225917518e-03 6.9193025068968158e-03
149 3.1277187291349263e-03 -6.3039471817173086e-03 3.0084674677972032e-03
171 -9.2796179985667002e-03 2.0599938135343679e-03 1.4414165630030646e-03
175 -1.0622740354806846e-03 7.6135686406236290e-03 5.9134773467125383e-03
177 1.2273123647393051e-02 1.1555135839873764e-03 -5.5067262853252114e-03
178 -3.1678638616694749e-03 -6.5948186585638177e-03 1.1210631899432829e-02
179 -3.1781988505493884e-03 5.4397325772790042e-03 -6.7793830246389696e-03
180 -5.5857097675970808e-03 7.3716593581074413e-03 2.8406807648616800e-03
181 -3.1491590187605724e-03 1.4673681541924213e-03 2.0282201091821796e-03
182 6.2063475060830245e-03 -5.7277930954025263e-03 2.4350292145071907e-03
183 -1.2232524510826561e-02 -1.7488660356237539e-03 3.8637701504971983e-03
184 -7.2609621430876738e-03 2.2875101628101959e-03 -1.5431176382949914e-03
185 4.1481465398378126e-03 -3.6118244074295354e-03 -2.2221048213948002e-03
186 -5.7928208711841176e-03 1.3580783833571750e-03 1.3477678029902142e-03
187 3.2017179788459884e-03 2.3325687951787823e-03 6.8676853112946915e-03
188 -9.6686199649471754e-04 1.1629908934071879e-03 3.8129897209832906e-03
209 1.0621750459903918e-04 5.0005406203038332e-04 -8.6563283066874858e-03
284 -1.4341984907002947e-03 5.8588735826479099e-04 -6.3267170462839592e-03
321 -4.7943399769097882e-03 4.8539634428791589e-03 4.5792649543903484e-03
324 1.4557772579333692e-03 5.6206261788732835e-03 -2.9818926482964589e-03
329 -5.0598005023777895e-04 -4.2609106266215512e-03 3.0951402272089726e-04
172 -1.4368072873250518e-03 -2.9303390083747043e-03 -7.7431138537087212e-03
105 -4.7344526548091974e-03 -3.9505620684685896e-03 5.5000860809014049e-03
176 2.1329866055799151e-03 -3.0013256485992412e-03 6.4360641312582079e-04
291 1.0215147948290247e-04 9.4904150447289379e-03 4.3345676423281847e-03
316 5.8382422817110221e-03 -1.0301687090010776e-03 3.7112796158702993e-03
80 -5.2044706144223699e-04 -3.2351696854449642e-03 1.4000949719694844e-03
82 -1.5426759066882554e-03 5.8615012392505151e-03 3.9266780175688156e-03
106 -1.1024769909766087e-03 -8.1201858044355237e-03 -2.5709148598899887e-03
121 -7.8756338835107441e-04 -1.8409349201653129e-03 3.1462368111705007e-03
103 -4.3548733923871943e-03 -4.0983839586313641e-03 6.0980041840793453e-03
125 -6.3793886745093698e-05 4.3724300321354567e-03 5.5716277115765009e-03
247 9.6703911687173716e-04 -4.8565211376667377e-05 -1.5852680221305170e-03
19 0.0000000000000000e+00 0.0000000000000000e+00 0.0000000000000000e+00
20 0.0000000000000000e+00 0.0000000000000000e+00 0.0000000000000000e+00
21 0.0000000000000000e+00 0.0000000000000000e+00 0.0000000000000000e+00
22 0.0000000000000000e+00 0.0000000000000000e+00 0.0000000000000000e+00
23 0.0000000000000000e+00 0.0000000000000000e+00 0.0000000000000000e+00
25 0.0000000000000000e+00 0.0000000000000000e+00 0.0000000000000000e+00
37 0.0000000000000000e+00 0.0000000000000000e+00 0.0000000000000000e+00
38 0.0000000000000000e+00 0.0000000000000000e+00 0.0000000000000000e+00
39 0.0000000000000000e+00 0.0000000000000000e+00 0.0000000000000000e+00
40 0.0000000000000000e+00 0.0000000000000000e+00 0.0000000000000000e+00
41 0.0000000000000000e+00 0.0000000000000000e+00 0.0000000000000000e+00
42 0.0000000000000000e+00 0.0000000000000000e+00 0.0000000000000000e+00
43 0.0000000000000000e+00 0.0000000000000000e+00 0.0000000000000000e+00
44 0.0000000000000000e+00 0.0000000000000000e+00 0.0000000000000000e+00
57 0.0000000000000000e+00 0.0000000000000000e+00 0.0000000000000000e+00
84 7.4781324041691419e-03 -4.1022841164185739e-03 1.9571823019427152e-03
110 5.3797018621180165e-04 7.7238285970177194e-03 -4.1659393465842591e-03
111 -7.1309278885615876e-03 5.4211419031914591e-03 1.7462872008029485e-03
112 -4.4424131283596711e-03 -2.3817908052561386e-03 -6.5809458457193300e-03
114 5.5705881241934734e-05 -3.2395453340499500e-03 -9.9163077552986961e-03
115 5.7789808898630005e-03 -3.6699147811395244e-03 -9.3499321509660071e-03
116 6.3125244081713230e-03 2.8646335405761491e-03 -6.4859111023361088e-03
117 -3.4614511894331366e-03 -9.3015365554166649e-03 -1.2228405986938867e-02
118 9.0346545269916374e-04 8.5977432121009945e-03 2.4159515531335767e-03
119 1.0869907773896518e-02 8.4540318522277474e-03 1.7898735121483760e-03
120 2.6913857198563205e-03 -6.0966367848985367e-03 -4.3907019197759753e-03
122 -1.8865066019647715e-03 9.5283750330493299e-04 1.0893018998392771e-03
126 5.1653588610577200e-03 -6.5004777068323983e-04 1.2555167557386114e-03
128 4.5033717297694445e-03 -1.3916093046344334e-04 3.2247649284477542e-03
151 9.8306843012724507e-03 -4.2263964517102398e-03 -7.3394404116090273e-03
152 1.9266604312743016e-03 2.9714220632195352e-04 5.8041506493077891e-03
153 3.3956762266757349e-03 -9.3164981518062840e-03 4.5359017067068512e-03
154 3.4943835471119055e-03 2.7345584646424506e-03 8.1532956940664288e-04
155 -7.3617328025177425e-03 -3.4578132554992473e-03 3.7018752350255770e-03
156 -5.2704345447272052e-03 -2.2959516967361185e-03 -4.9841077513156987e-03
157 -7.9613270009817828e-04 2.0006274004515591e-03 3.7489139792043526e-03
158 5.5545274555990494e-04 1.0482139339869402e-03 -4.2040813999914576e-03
159 2.7858175771027669e-03 4.5252880952765520e-03 5.8386336552167222e-03
160 8.1827459003384786e-04 1.2744154470009060e-02 8.8297735602378569e-03
161 -3.5459608753954765e-03 3.2558645292050043e-03 5.6415617307881598e-03
162 7.6543941249616488e-03 3.8283420665830318e-03 -3.8407277943653247e-04
163 6.1958021147044675e-03 6.3906750795496466e-04 -1.9911164447406920e-03
165 6.5846626918928466e-03 -9.7560248387807867e-04 2.8526556974247780e-03
166 5.7346339992712641e-03 -3.1272501127836655e-03 -4.2527428592900674e-03
167 -6.9121142695928138e-03 7.9604602061255202e-03 -3.6312299381326307e-03
189 2.2438143271498435e-03 2.8498101550749511e-03 -2.1309961514030919e-03
260 -9.2850132730425724e-04 -3.5867699959438609e-03 -4.1640192651083065e-03
265 -7.1134477061991505e-03 -9.3667608197457383e-04 -2.5107374516784714e-03
297 -7.0211560452488452e-03 5.9549085104912858e-04 -1.8466460898592895e-03
300 5.2335556418953979e-03 -1.8020541376417527e-02 -2.6334499268263166e-03
305 -5.8263357509612485e-04 -1.4671850254406120e-03 1.6312531899593606e-03
190 2.0376221470122251e-03 -3.9361928610784983e-03 -3.4755900048275669e-03
221 2.6953812675706546e-03 -1.4323792011313118e-03 -1.0513238409475066e-03
313 -3.6136321080229767e-03 1.8353394463267224e-03 5.3887194843086957e-03
253 -1.1813057443449520e-02 -1.7493184049483257e-03 3.0107693648689249e-03
257 1.3339143767533986e-02 -8.8953905846796382e-04 -7.5714863313205713e-03
308 -8.6858286528318203e-04 4.2110159543896778e-03 1.0220337160400806e-03
335 -8.4933108500504610e-03 1.8974493536144091e-03 1.3237272709499173e-03
77 -4.8258885112967059e-03 6.4066227643766122e-03 1.2124733568851370e-03
169 3.2790849591977306e-03 -4.6259068338445879e-03 -3.0645413397191955e-03
108 -1.4731212761023593e-03 -6.0190055406996129e-04 3.8498012801719997e-03
148 6.1819702655515115e-03 -1.0933188896130762e-03 -4.2353998029658136e-03
150 2.4519387347206626e-03 -5.4995314261153143e-03 -1.6923765160455722e-03
207 -1.2982479667305194e-03 -5.3059142671794731e-03 1.9322514620880070e-03
5 0.0000000000000000e+00 0.0000000000000000e+00 0.0000000000000000e+00
17 0.0000000000000000e+00 0.0000000000000000e+00 0.0000000000000000e+00
18 0.0000000000000000e+00 0.0000000000000000e+00 0.0000000000000000e+00
58 0.0000000000000000e+00 0.0000000000000000e+00 0.0000000000000000e+00
145 -4.8227691063525676e-03 2.6873177129307832e-03 1.2185563213579886e-03
173 -4.4865605870830225e-03 -7.9602623133111193e-03 5.8697468443587360e-03
289 -4.1126564509523520e-03 6.3376351815512566e-05 -2.2686875134089509e-03
45 0.0000000000000000e+00 0.0000000000000000e+00 0.0000000000000000e+00
46 0.0000000000000000e+00 0.0000000000000000e+00 0.0000000000000000e+00
109 2.2143961879154636e-03 2.9476122961754514e-03 -1.2084013447620318e-04
113 -2.8929897958880689e-03 4.4973708595388590e-03 3.0579307468205853e-03
47 0.0000000000000000e+00 0.0000000000000000e+00 0.0000000000000000e+00
49 0.0000000000000000e+00 0.0000000000000000e+00 0.0000000000000000e+00
59 0.0000000000000000e+00 0.0000000000000000e+00 0.0000000000000000e+00
60 0.0000000000000000e+00 0.0000000000000000e+00 0.0000000000000000e+00
61 0.0000000000000000e+00 0.0000000000000000e+00 0.0000000000000000e+00
62 0.0000000000000000e+00 0.0000000000000000e+00 0.0000000000000000e+00
63 0.0000000000000000e+00 0.0000000000000000e+00 0.0000000000000000e+00
64 0.0000000000000000e+00 0.0000000000000000e+00 0.0000000000000000e+00
65 0.0000000000000000e+00 0.0000000000000000e+00 0.0000000000000000e+00
66 0.0000000000000000e+00 0.0000000000000000e+00 0.0000000000000000e+00
67 0.0000000000000000e+00 0.0000000000000000e+00 0.0000000000000000e+00
69 0.0000000000000000e+00 0.0000000000000000e+00 0.0000000000000000e+00
70 0.0000000000000000e+00 0.0000000000000000e+00 0.0000000000000000e+00
71 0.0000000000000000e+00 0.0000000000000000e+00 0.0000000000000000e+00
72 0.0000000000000000e+00 0.0000000000000000e+00 0.0000000000000000e+00
164 3.3079368041050942e-03 -4.6165082603560042e-03 4.1162600789805400e-03
168 -1.9607650380839502e-03 -6.0315228646071551e-03 2.7120425626025232e-03
170 -2.3727331563474958e-03 2.7205711541959405e-03 9.9329216345168448e-04
174 5.0353090454445066e-03 2.3230993191614195e-04 5.8394141588278643e-03
191 5.8731114390240830e-03 6.8876657353064696e-03 5.8190227773376015e-03
192 1.1443452953109347e-03 3.7665576083372389e-03 7.3226916639653637e-03
193 2.1834948962317822e-03 2.2409072155283919e-03 3.4026967539110020e-03
194 -1.3508954578543093e-03 3.5600585783855175e-03 6.8738372184173344e-03
195 -1.8662617453139962e-03 -4.7189638320274847e-03 -1.2273066853335898e-02
196 2.5934719885113586e-04 -3.8711406329642105e-03 -6.8949342772239089e-03
197 3.4135308992210688e-03 -5.7124384648083899e-03 -2.1339073550835112e-03
198 -4.5702194095527306e-03 1.1225991694766161e-03 3.1943766501913193e-03
199 -8.5662407293033635e-03 1.4137907220621877e-03 -9.3024011454950816e-04
200 -1.6551145830151332e-06 1.0881036887689156e-05 -1.2318428599301739e-03
201 5.9868459599570194e-03 5.4517417028167123e-03 -3.1405552898565686e-03
202 -2.5018256089031697e-03 -8.5283008594953143e-03 7.8155609917229330e-04
203 8.4800358688831637e-03 6.1965128235987200e-03 -1.8588485493681720e-03
204 -3.8349266239872735e-03 -7.6168963036080577e-03 5.9487873256230108e-03
205 3.7125771709727536e-03 -1.8489880027172548e-04 2.2391554970072453e-03
206 4.7573716619988419e-03 -8.0487814038754345e-03 9.5500851291325586e-03
208 -9.6925874580099120e-03 1.4825038232971696e-03 2.0619940798814946e-04
210 -4.4072209208022789e-03 -9.2827827825873522e-04 3.3036168721637107e-03
211 -4.5721011140974783e-03 1.9232845711604351e-03 -6.2190337235794270e-03
212 2.9278437671617068e-03 -9.0317287244388007e-05 -7.7507076387469129e-03
213 4.9543987662724132e-03 3.2419068147082869e-04 5.2129574049692698e-04
214 -7.7682528567189404e-03 -9.4556438472093302e-03 4.0128955788968938e-03
215 6.1094886281225641e-03 5.2290406891601577e-03 6.2786566032496270e-03
216 -8.7504673943541722e-03 8.5927547161472571e-03 5.0300860103580447e-03
338 -1.8519097817380730e-03 -1.7107263434822266e-04 -1.3258246035625252e-03
343 3.9946125832529197e-03 -8.8370339543138426e-03 6.6509409394568605e-03
346 -8.4338658641716861e-03 6.0940369270647563e-03 -6.3278010787153462e-04
351 -4.5004725577499566e-03 -3.1626383808181023e-04 3.3710285995016539e-03
357 -4.5472304290344298e-04 -3.8900236118520190e-03 -5.5677935280305253e-03
220 2.5387321222535694e-03 1.8428227724820415e-03 -2.6924030325544434e-03
222 8.4534286675276831e-03 -7.5163006885475454e-03 5.7869487427406104e-03
224 2.1566818513897275e-03 -2.6152153439408846e-03 7.6801304746876896e-03
225 -3.7686973053725264e-03 -2.8756688688202827e-03 -3.9133014302704583e-03
232 -6.4175888579034706e-03 -1.8236658368174148e-03 7.3771856339909956e-04
233 4.0057498237612713e-03 4.5023063128131471e-03 -4.2766088297619626e-03
235 2.5005193433265795e-03 3.5158667574812863e-03 -1.2590289430442917e-03
236 1.0316890552918375e-04 1.6484769722794918e-03 2.5132138062760436e-03
237 -4.0737051993504142e-03 1.3147604185026972e-03 9.0454580668297008e-03
238 5.2441714285775222e-03 -3.9913066682342917e-03 3.6793755805887918e-03
240 9.2834981467423833e-03 -1.3370932494475034e-02 -6.4017799384693454e-03
241 5.5550058139763499e-03 6.8465028184421690e-03 9.1750967605103910e-04
243 -2.5101185381031679e-03 -2.4554041385958514e-03 -6.8323061157642886e-03
244 -3.1175863605506205e-03 -3.6721140525186897e-03 -3.4662659068063740e-03
245 5.5095216402211225e-03 -2.1624074509837320e-03 3.1625505995510283e-03
246 1.7123499260425757e-03 1.7793226739091122e-03 2.7966375074676155e-03
248 -1.2064058041504422e-03 -4.0828802511671614e-03 -3.2512379554542228e-03
267 -9.6123370393666613e-03 -1.7777228783002995e-03 3.0432284625245875e-03
269 -1.5389229778320346e-02 -1.3629565499553757e-03 -7.8495615476076015e-04
271 1.8852396878770688e-03 -1.0274400799716086e-02 -6.2333509253089487e-03
274 1.2389790773802282e-03 1.0179458200023485e-03 2.0976690620125690e-03
275 -1.5514485788191423e-04 -6.1652757127539769e-03 -4.5020779074660270e-03
277 7.6780770023628072e-03 1.2765767927060837e-03 -2.9581433971087832e-03
362 2.9679868346570637e-03 -2.1035981072822950e-03 -1.2627528286026648e-03
363 -2.6094726190716584e-03 -4.1667794705629929e-03 -2.9586658545153045e-03
364 -1.4029970973831931e-03 -3.2438084783854332e-03 2.5949580380229226e-03
366 -3.7072502981207196e-03 -1.5775507036122464e-03 -3.1578765111872197e-03
368 4.7275225199784315e-03 -5.4602628012037930e-03 -9.4194041068510967e-03
369 5.9556785989564240e-04 -6.4014634426536052e-03 6.0191316502250600e-03
373 -5.0758658158638692e-03 -2.8426157805502565e-03 -6.7728860721863538e-03
376 -1.9280876839288192e-03 7.0917513012063484e-03 4.0406035476285365e-03
377 -3.2911930521843658e-03 -1.5148843399144850e-03 2.7736384593248318e-03
378 -1.1418319019374133e-03 1.4808120679874216e-04 1.6296987000177434e-03
379 3.2525737134430420e-03 1.8507513614152355e-03 6.4402680979755078e-03
380 6.0135931428540708e-03 -6.3828914488903467e-03 7.7244117547101291e-03
381 -2.3082264988811493e-06 2.5163041182081920e-03 1.0764854973289392e-03
382 2.4123102574655935e-03 4.4488388494723499e-04 4.9703659309484165e-03
383 5.6605952638797245e-03 3.3591833258794558e-03 1.9883613646184176e-03
384 3.6635248315850973e-03 3.1463908397613548e-03 1.4302346358175606e-02
385 -6.6312138791297329e-03 5.2098199971243875e-03 6.5903262606675879e-03
386 8.7901121652105112e-03 -1.4969058578663023e-03 2.1433278668324205e-03
387 -2.5599916823275160e-04 -1.5989202012988923e-03 5.7561656627487642e-04
388 -5.0260803609625422e-04 -3.0851281799186853e-03 8.4681500635500687e-03
389 5.2856816264248681e-03 -6.2921523882500680e-03 3.7729513586651415e-03
390 1.0089862625198363e-02 -8.3588988938651243e-03 -1.7071238051453090e-03
392 -1.4875823590956344e-03 1.3520456288511977e-03 -5.7726634409291410e-04
394 -3.4170908613977537e-03 4.9985966738516387e-03 5.1893132260082304e-03
411 5.1678159448326957e-03 4.5288518372050461e-04 -1.0362855002263984e-03
415 -1.9187300823504514e-04 -2.1777693209495881e-03 -4.6899989973982611e-03
417 3.1901953989722999e-03 -2.5558106179412612e-05 -3.8897556529816349e-03
418 5.3894089135472717e-03 -5.2971451691307854e-03 7.3704948692408503e-03
419 -1.2012816702413331e-03 3.9955368671239309e-03 -7.2043242421119345e-03
421 5.1552865222445291e-03 1.1633546041863920e-03 -1.0910964759906817e-03
423 -6.1601559988604939e-03 -3.3531683680604624e-03 6.4207903238286488e-03
395 1.0469203542613984e-03 -1.0711479036592587e-03 -6.3802964098288312e-03
422 -6.1811657140499344e-03 4.0881116701890410e-04 6.0009620064531387e-03
230 5.9299732611174021e-04 -1.1240290001363867e-03 4.1726104119103283e-04
272 -4.5054886203662386e-03 -6.3016848475630806e-03 -1.5264112160432257e-03
374 -4.7826926963330215e-03 4.4857917510626602e-03 -2.8808150895860184e-03
416 -9.8020396008829366e-05 -1.7215274351893531e-03 2.7456184598789687e-03
250 -2.2484975569560316e-03 5.1104512622236731e-04 -6.4544264327923281e-03
391 8.3671739347116539e-03 -3.4853087822453257e-03 5.6002325358158519e-03
409 3.7942014351097942e-03 1.0725405921489439e-03 9.6468235563396620e-04
218 6.1424357469607865e-03 -1.8109354608679090e-03 5.2055096260072240e-03
219 -6.5040426140787998e-03 1.6318296942170612e-03 4.2812357367326519e-03
229 4.8307602746231098e-03 4.0171092530011474e-03 1.0449365266962075e-03
279 -5.4134908727260138e-03 -7.9843550803944691e-03 6.1325410467984480e-03
361 -8.9918925122817130e-04 6.7800196086837006e-03 8.9879508859394830e-03
251 -2.8987906672566055e-03 -6.6838762024948296e-04 -6.7714266143340607e-03
278 1.7324956114424591e-03 -3.6221050845326840e-07 5.0169527819879985e-03
375 -5.2385164381207113e-04 5.0989257030382889e-03 -5.3923930237597143e-03
420 4.0668781226078947e-03 -5.2253842949285135e-03 -2.2192190730967341e-03
280 1.3891787645379261e-03 -9.8737818094984746e-04 3.0695520311898989e-03
282 1.0694924939326398e-03 5.5771595597246372e-03 -3.2140035001504198e-03
283 -2.8089903052213152e-04 2.7557816362489321e-03 3.5492951887335020e-03
285 -1.4266411626315907e-04 -2.8052373048695583e-03 2.7232826467307220e-03
286 4.3463848468412178e-03 -2.1882764808437991e-03 -2.0158943211722536e-03
287 2.8012452554361336e-03 -3.3468468373668045e-03 1.6566841541998164e-03
288 -1.1530152520307460e-03 -7.6436132733639038e-04 -3.9536587704493299e-03
290 -3.2778164719119078e-03 1.1082791238390998e-02 -1.0798825636059357e-03
293 2.9023167603881759e-03 2.2419504386703864e-03 6.0269040772008330e-03
315 -1.5363488197856492e-03 -4.7854078824614748e-03 -2.6892009771998303e-03
319 -3.1348287084491584e-04 2.4161890537553340e-03 -1.2068801469808763e-03
320 7.4800291923969040e-03 1.0163064158617942e-03 3.8811400715208709e-04
322 2.7783470190506877e-03 -3.0607572302669825e-04 -4.6089193568015288e-03
323 5.7735668840799732e-03 2.7453763703112195e-03 6.4099426581666515e-03
325 4.0802142223296464e-03 7.4881091452028052e-03 -4.4654071279523477e-03
326 -5.7474637785245707e-03 7.3121596539127273e-06 2.2410598590723407e-03
327 -3.1592364317722678e-03 -2.3834880116938413e-04 -3.8505841737537837e-05
328 5.5357583408438705e-03 -1.5676702216850635e-03 2.2239354384202556e-03
330 -3.6851633020378304e-04 -1.8044588790580994e-04 -6.9454578194480939e-03
331 -2.7599615387322533e-03 -9.4234734455709169e-04 2.7673131817867094e-03
332 -2.1452588238118049e-03 8.7589232316769722e-04 2.7903962291379479e-03
353 9.3254516056838800e-03 -3.0857494793548232e-03 9.5279681398762750e-03
424 1.1669262789925086e-03 -1.0152979818839935e-03 8.0396515023688289e-03
425 2.2849773585971278e-03 -5.5800573337424688e-03 -4.2888023608743213e-03
426 2.5128857842573226e-03 1.9800865032609106e-03 -2.8918066257795729e-03
427 -7.0268177377567095e-04 6.2380127875111345e-04 -2.0097328436003716e-03
428 6.5698384717650102e-04 -9.8552609132660490e-03 4.8609388359623588e-03
429 -6.3039273979745630e-03 4.5465940793953212e-03 7.3957056694451406e-03
430 3.1931821610072515e-03 -5.4238409624330734e-03 -6.3380353369493015e-03
431 1.0131684160045167e-03 1.1401684324739141e-03 7.9807491876042920e-03
432 -3.6866731179950188e-03 -3.4545229899106220e-03 -1.2361536325160766e-02
434 -5.4324620477059779e-03 4.8276689941022157e-03 -4.8270308166565084e-03
436 -1.9384933393892727e-04 5.5882100761099280e-03 1.1866530556735493e-03
437 3.0524748345879121e-03 6.5401158390672540e-04 -5.3752648652452993e-03
459 -2.3457793775170850e-03 2.7097129318916753e-03 -4.6464784704732193e-03
463 -1.4834549746051097e-03 -1.0838390447092699e-02 1.8644784422514828e-03
464 2.1152354066070553e-03 2.5879602342275634e-03 -9.8342625489909082e-03
465 -5.8219670446088348e-03 -3.7964350847831578e-03 4.8780324580899211e-03
466 -2.7891462443517712e-03 9.2145216091977047e-04 3.5040889566227860e-03
467 3.5827493410974773e-04 -6.8412976025125022e-03 5.6282754853291270e-03
468 3.8821913779360159e-03 5.2155482533398911e-03 -2.6815710273621909e-03
469 -1.3099333436282000e-03 -3.8144437437351904e-03 9.5993277536079026e-05
470 -2.7089726214074897e-04 7.7571612190722279e-04 8.6378459438786054e-03
471 -3.1731567225463655e-03 -3.1139810188242278e-03 6.6181438315669725e-05
472 -7.8109284414992270e-05 -9.7662941161190935e-03 6.1222760872720744e-03
473 -9.5066023892255598e-04 3.5672636963149399e-03 -3.9320580597419054e-03
474 6.4648068278153788e-03 -5.1869054199797215e-03 9.7804774698786578e-04
475 -1.2655337894844207e-02 -2.5419463074375661e-03 -6.1695141391434390e-03
476 -4.7142670749637464e-03 -1.6247990975742747e-03 -9.2409195894080920e-05
497 2.6065452387475873e-03 6.1581794451342998e-03 8.8262505230067845e-03
365 -1.8798848567053625e-03 -4.1890543091879281e-03 -8.0553174247089245e-04
457 -2.0481605640837192e-03 -7.9301225811509550e-03 -1.1128185876390624e-03
292 4.7869879937729740e-03 -5.6841249265170085e-03 -9.1491086560111200e-03
433 3.3626588813290060e-03 5.0606159090116429e-03 -7.6766830495541716e-03
495 -1.1124086794714993e-03 -5.6797164484519570e-05 5.3444049874295834e-05
226 -1.3164950186573862e-03 -1.0012381312355037e-02 8.8955960228054177e-03
370 4.4171731892818800e-03 2.4790261648502962e-03 2.7934232506486561e-03
413 -5.3451747873131828e-03 -5.8844620924174106e-03 9.5914440550633336e-04
367 6.4160534349996877e-04 4.6188352509433745e-03 -4.7985160472565562e-04
412 -3.8796475696685402e-03 4.1459943453959914e-03 1.4418795889142577e-03
256 7.4957209180958120e-03 3.9860864298310612e-03 -6.4648497974083051e-03
258 1.0759341998886594e-03 3.6587598719758137e-04 -2.1635244923653252e-03
259 -1.0088350894958716e-02 -4.3685275537515044e-03 6.2424211509575379e-03
261 -3.1129452445478891e-03 2.3678184592113732e-03 -1.4404251107571181e-03
262 -9.2444378679958788e-04 1.3395072010750231e-03 5.4986300426072561e-04
263 4.9881285326794002e-03 7.0049777872524578e-05 -1.3887750923083661e-03
264 3.5516932923262542e-03 -2.3661242543470009e-04 -8.6785119531303037e-03
266 -9.4658403689586688e-03 -6.9672591388233503e-03 -7.0514665207167008e-03
270 4.0331731592485199e-03 -7.7275457565187007e-03 -6.2342572442930545e-03
295 2.3411773397939372e-03 1.4927275149105887e-03 -5.6777998124753221e-03
296 1.3080411338982429e-05 -6.1447060807167536e-04 -8.2003158204322201e-03
298 3.0640636027290547e-03 -1.3043293337403554e-03 4.4667179921365589e-03
299 -9.2200535040292842e-03 5.9836505077836563e-03 -6.0309221563887346e-04
301 -4.9156831935266742e-04 -2.2697019453409781e-03 4.9863239790737266e-03
302 -7.2930208605507555e-03 5.8578787151013154e-03 1.6781371063089884e-03
303 -4.0052278475802061e-04 1.7535225987694535e-03 5.0928499783416872e-03
304 3.6006661299200992e-03 7.0075369157392440e-03 1.2312107526036577e-03
306 5.7771109910700143e-04 -3.2109881877072791e-03 -1.3812672555666942e-03
307 -2.7035877830083525e-03 3.3207961805581786e-03 -3.2262089889808776e-03
309 -1.1149922190297871e-02 1.1830298571643668e-03 4.2521798393003966e-03
333 -4.8831267712565731e-03 2.0124636947000053e-03 6.4656326847160415e-03
372 5.5299323393534000e-03 4.4026480786051626e-03 2.7256571566386012e-03
398 -2.7526498220241597e-04 -6.9298556766385667e-03 4.8745884242860299e-03
399 6.7007563572672483e-03 -2.5219019268514378e-04 -1.8528169948687637e-03
400 -1.7096861916055996e-03 4.9411008082488939e-04 7.7599916410692410e-03
402 -3.9756281740321925e-03 -4.4112659527461754e-04 -4.6970290586437922e-03
403 -4.9277952379601147e-03 -1.3116390060933491e-02 6.6120055749185305e-04
404 -1.0769463593947449e-03 3.8849938300271453e-03 -4.2540720247205158e-03
405 5.6808062261708399e-03 1.1085479795947947e-03 7.9128624289916908e-03
406 6.4498562281200683e-03 3.8206211687704232e-03 3.0602726313836039e-04
407 1.8035947785448305e-03 -2.9939163729188712e-03 -2.5985027136426241e-03
408 2.5138386493762611e-03 -3.6143387603990093e-03 -2.9237289449518506e-04
410 4.5550686799459466e-03 -1.8354397562702843e-04 3.6346509506460659e-03
414 2.7955478350965212e-03 3.4898061759822685e-03 -1.0042606443465520e-02
439 4.6747406148738344e-04 1.6890974600102605e-04 -5.9401283393785420e-03
440 6.5414150498362459e-04 2.4416549450112092e-03 1.8003330108983973e-03
441 -1.0431928752763088e-03 -4.2461186856807822e-04 2.5300084816030325e-04
442 6.8410083250871560e-03 2.8594746678516970e-04 -2.2406787790329682e-03
443 -1.1320585995315143e-03 -7.7779506391191825e-04 9.1492217158312789e-04
444 -1.8956803544538700e-03 4.7047663113074078e-03 -1.8801325750809512e-03
445 -1.5400057056043896e-04 -5.9292808934204399e-05 5.4805673062482494e-03
446 6.6163144482371808e-03 -2.2168754445942816e-03 -6.9973479730616748e-03
447 -5.3192639600272550e-03 -9.7223471345102297e-04 -3.7060200650380036e-03
448 2.9951477345271900e-03 -3.9085441634698877e-03 5.3967478907642813e-03
449 -6.3944206613831493e-03 4.9995229337183250e-03 -8.4585420656082353e-03
450 4.5773618767215871e-03 -3.5538122221412155e-03 -4.2493266363394814e-03
451 -1.9366342471920571e-05 1.6391410124437129e-03 -9.6689595669829306e-03
453 -5.4550531863423275e-03 -1.5664210745810505e-03 1.0200058085639619e-03
454 -5.8481847959944554e-03 -1.0564358872909737e-03 -3.2602227855161470e-03
455 -1.6618707368034496e-03 -7.8393155651187074e-04 -4.7824690143285532e-03
477 8.6347419396692656e-03 1.8901783456903259e-03 1.4795022315499421e-03
478 1.0637710716570161e-02 1.3453242618628742e-03 3.5899314763186501e-03
317 1.1354049753133891e-03 -1.8418555341616764e-03 5.3831669532268403e-03
396 -2.1313908104907886e-03 -1.0835014503135852e-03 5.2843615759318808e-03
438 -1.1281858663038052e-03 1.3817866703673509e-03 -1.5545763758669263e-03
461 5.9513578259799416e-03 4.8198185354739751e-03 -7.3647138609760432e-03
354 1.5769112121712403e-03 9.9622012101638381e-03 1.3119486231601954e-04
498 4.5702215963494197e-03 2.3981509793819713e-03 1.4985922764657342e-03
228 -3.3136457388093189e-03 -4.3216941492097488e-03 -4.6423096539511370e-03
254 4.5342420225564410e-03 -1.9126646788845863e-03 5.7194034182694543e-03
255 -6.8813920679983613e-03 -4.6998525916559471e-04 -2.1200677751932987e-03
310 -3.4845202090181328e-04 4.6140109440206351e-03 -8.1715234487229269e-03
311 2.5910470817185755e-03 1.1503265879346371e-03 -1.3623356944003574e-03
334 -6.4320830716126098e-03 -4.7834777848177606e-03 -4.5649649582227263e-03
371 3.7418351527065585e-03 -2.3122178192791928e-03 -1.2961470643439434e-04
393 2.7097749377927214e-03 -4.0175132589782992e-03 2.0595021158992966e-03
252 4.4199487639289122e-03 7.8558473732371036e-03 4.6244297508254767e-03
294 -2.5987075171652026e-03 -1.2424129901896560e-02 -3.8259949112703561e-03
435 -4.0857432131174327e-03 7.6482207620272944e-03 6.8983719401358723e-03
397 -8.5347269872409880e-03 -2.7991581271127912e-03 -3.1010161181457252e-03
401 2.0736006432314478e-03 1.7300978468111575e-02 -1.5614492100255687e-03
312 8.5071996512638675e-03 -2.4137191037824001e-03 6.4986982025252212e-04
314 -5.2055246680076982e-03 8.9677500077548749e-03 4.4603383658087543e-03
318 2.3008606935748612e-03 -3.9557929866480251e-03 -8.3950435040496191e-04
336 -1.5575632507903638e-03 5.6376573306982291e-03 4.0092064246964937e-03
337 -1.0677287522380078e-03 1.1662273163298459e-03 2.7875791713344463e-03
339 -6.0950438701056348e-03 4.1422304092848580e-03 3.5585147770879566e-04
340 3.6541148511311707e-03 2.2501367500128064e-03 -6.7197125828167203e-03
341 6.8356115088212682e-03 2.1228467705031257e-05 -3.6383297707974559e-04
342 -9.8634951347894586e-04 -2.5893044651889270e-03 -6.6649211816091338e-03
344 -4.1840403768609721e-03 5.4961721659936274e-03 -7.8191141580818170e-03
345 -3.9678993352729019e-03 1.8273948723980251e-03 9.9853010777316165e-03
347 4.5032316558113574e-03 5.7825229916350484e-03 8.0198360942727084e-03
348 -4.8014666062707418e-03 -2.9466454728305604e-04 1.0545910020430560e-03
349 -3.3126414508814566e-04 3.6572378290289256e-04 5.4649358284920837e-03
350 1.9917893032936115e-03 6.5477946717359655e-04 6.2470638576377115e-03
352 -3.3008397307544681e-03 1.1170289158566883e-02 -4.8184441268196996e-03
355 -6.6915634710409903e-03 -6.1113548697393095e-03 5.9085221172557835e-03
356 2.6687579921082860e-03 -1.9817609372649891e-03 -1.3236752048683543e-03
358 1.0318669757936622e-02 3.4267790201934797e-03 2.0497613325236609e-04
359 4.7989356254356684e-03 2.1348963953710569e-03 2.0325171422092472e-03
360 6.0329835716180311e-04 5.6252561547045742e-03 3.0886810167077990e-03
452 -2.4489119828142577e-03 1.9870365820803609e-04 3.7375272220351559e-03
456 5.1153488845584088e-03 -1.2018801253191346e-03 -2.6042260036091640e-03
458 -2.7945186421745858e-03 9.5675591188020548e-03 -9.6511334308975218e-03
460 5.6622137097107929e-03 4.6392439119452098e-03 -2.7384978619523362e-03
462 -3.4469789062576121e-05 -1.3875701003996678e-03 -3.4225203387729638e-03
479 -1.8803842895510224e-03 3.6440016640287036e-03 9.2085658569186577e-03
480 -2.9332235866382349e-03 5.4117261531775197e-03 5.0486725079783076e-03
481 -1.2955760571968611e-03 2.6392322382296344e-03 -8.6334249639149260e-03
482 8.6679579236626850e-03 4.8212486657951340e-04 4.6435631477408160e-03
483 -7.8397857071812981e-03 -3.4276055890820395e-03 -4.1938404939290659e-03
484 -5.5612701244353178e-04 -3.1559638195722195e-03 -7.9496069209472034e-04
485 5.6003174602887061e-03 5.7085733502207188e-05 -5.8546042909997801e-03
486 -4.5697379008318552e-03 7.1718020319138150e-03 1.4917734571533478e-03
487 -1.5464437561253552e-04 -3.1106818180868510e-03 -2.3827390038710142e-03
488 1.3000579716141090e-04 -1.4754865392381826e-03 -6.2577544344533380e-04
489 1.0724581731716679e-02 4.7073828236330979e-03 6.7906417533558129e-04
490 -2.0986743859767337e-03 3.6561233498853319e-03 1.6782057218952722e-03
491 3.8957663111292887e-03 2.5515862960765493e-03 5.7371951211625129e-05
492 -2.8133952263988964e-03 7.8724964231352348e-03 2.4395317159619646e-03
493 7.2352305778522622e-03 -1.4598451873769360e-03 5.2803475712468613e-05
494 2.2959699653436259e-03 6.8887203456939380e-03 -6.4498315929244080e-03
496 1.9144534317800061e-03 6.3411365246584493e-03 -1.0357600098040163e-03
499 1.3901487434437637e-03 7.0673291635331122e-04 1.1846500741616978e-03
500 2.4783863242265679e-03 -8.2327898875224400e-03 -5.5256749343492563e-03
501 5.3259252306425060e-05 -1.5262857567342740e-03 5.6559478269359370e-03
502 4.8729937865878392e-04 -2.8143832655406808e-03 7.9393402958955368e-03
503 9.3613251208827710e-03 5.3790753056216891e-03 -4.3199234374272305e-03
504 1.0667977814587993e-02 1.2014750145408775e-02 1.2856831524876867e-03
505 -5.3029552155193288e-03 2.7030225256629675e-04 -5.4472302308208069e-03
506 -1.9863903425138166e-03 -5.9242369867924527e-03 3.5594964634975972e-03
509 -9.9243460977267326e-04 4.5126390643598600e-03 7.5062470953355664e-03
510 3.7755121489127904e-04 6.7077308299750742e-03 7.2464997263918150e-04
511 4.1646835117706950e-03 -6.4797133428450542e-03 -3.2698726821286180e-03
512 -1.7671854145160609e-03 1.8767425739028001e-03 -2.0772934268318672e-03
513 2.9768474158804281e-03 -9.4623065120441711e-03 2.0354140692783644e-03
520 4.7790292776056127e-03 5.0261298695185785e-03 6.9916712493278341e-03
521 2.4797014370434478e-03 9.9257435652883239e-03 2.8708828979059158e-03
530 8.2670675809648105e-03 9.0500387219371072e-03 8.5187640191374970e-03
522 -2.5824691476291212e-03 5.1339313553642107e-03 -3.0325426647398032e-03
518 -3.0196447205439380e-03 3.9658096872483865e-03 1.7132784356025962e-03
523 1.6414341887570660e-03 -2.3771230704757083e-03 1.0522946846044591e-03
524 3.5866882747191270e-03 -5.6102864946978360e-04 -4.4109506716789497e-03
532 1.2703498356901690e-03 2.3656836701644855e-03 -1.2953727636914353e-02
533 -6.7853274472978080e-04 3.7298308736427250e-03 1.0368770739271421e-02
534 -3.4258856789391533e-04 9.5533975515318063e-03 7.4920319206423971e-03
539 1.4114523730404840e-03 9.7168204584254167e-03 1.0984332526163102e-02
507 -4.9637703943224663e-03 -8.2959426972404431e-03 -1.9199075254144897e-03
508 5.8315910566283154e-04 1.4046683382418347e-03 3.7082612501578844e-03
514 -7.1609386733892584e-04 3.2221477601021469e-03 -9.7631649236156273e-04
519 7.2862534699924290e-03 3.8162697288519933e-03 4.9278534375183872e-03
515 6.5137723016355160e-04 -7.4969280071528616e-03 7.1987528223273894e-04
516 -4.6042773290185766e-03 1.7813973811653147e-03 -5.3637701443641503e-03
517 -3.0659789099227549e-04 4.7548355078732502e-03 4.3611163188017679e-03
526 1.2837068455719071e-03 4.8275645745155600e-04 -3.3150069251866704e-03
527 7.1608361768259292e-03 3.2439507796281084e-03 -2.9119855278558018e-03
528 -2.4683360753980288e-03 -2.2406231547186582e-03 -8.2481013413536006e-03
529 -7.8860425001048718e-03 1.1140033502633854e-02 -1.5602144195014296e-03
535 -8.6083066157620130e-04 -2.9607576319761585e-03 2.6144600094981665e-03
525 -3.1079260164210919e-03 8.1657595362135127e-03 6.2072104855642084e-05
531 5.1159848330112291e-03 -7.7102362646283467e-03 6.6673894462244785e-03
536 6.0018562972733534e-03 -6.0136812002618226e-03 -1.9990672654026619e-03
537 2.4757786511211532e-03 3.6307062203931664e-03 -4.3546067146035964e-03
538 -4.2569718450975007e-03 2.6963287053617565e-04 1.4866390003608800e-03
540 3.5654131003397317e-03 -5.5889010743708086e-04 -1.1144829945457051e-03
