LAMMPS data file via write_data, version 23 Jun 2022, timestep = 0

540 atoms
3 atom types

0 15.126656667556212 xlo xhi
0 15.126656667556212 ylo yhi
-2.2283669804811876 28.5230973501592 zlo zhi

Masses

1 12.011
2 1.00784
3 16

Atoms # charge/kk

3 1 -5.4357446498935215e-06 1.2605547222973403e+00 1.2605547222970876e+00 -1.6675604903863439e+00 0 0 0
4 1 -1.7356816687563061e-06 2.5211118319639678e+00 1.2605547227392118e+00 -9.9136010708322919e-01 0 0 0
7 1 -4.1531437122926722e-06 1.2605547222976761e+00 6.3027736114806352e+00 -1.6675604903862551e+00 0 0 0
8 1 -4.7067030283644069e-06 1.2605547222974842e+00 3.7816641668889344e+00 -1.6675604903861345e+00 0 0 0
9 1 -6.5022527394164719e-07 2.5211118319634900e+00 6.3027736119251285e+00 -9.9136010708340738e-01 0 0 0
10 1 -1.1133761913544675e-06 2.5211118319635601e+00 3.7816641673321025e+00 -9.9136010708347655e-01 0 0 0
11 1 6.9041573096164460e-06 3.7816641668888620e+00 3.7816641668895281e+00 -1.6675622354248276e+00 0 0 0
12 1 7.0160872415480323e-06 3.7816641668887825e+00 1.2605547222957263e+00 -1.6675622354245669e+00 0 0 0
13 1 -1.9574379112333907e-06 5.0422165018139440e+00 3.7816641664459372e+00 -9.9136010708331812e-01 0 0 0
14 1 -1.2617087368752998e-06 5.0422165018139857e+00 1.2605547218530686e+00 -9.9136010708323563e-01 0 0 0
15 1 -4.9377186146651666e-06 6.3027736114813848e+00 1.2605547222968678e+00 -1.6675604903857042e+00 0 0 0
24 1 7.0573925472103544e-06 3.7816641668887834e+00 6.3027736114827659e+00 -1.6675622354248074e+00 0 0 0
26 1 -1.9454704307580127e-06 5.0422165018139733e+00 6.3027736110386838e+00 -9.9136010708323896e-01 0 0 0
27 1 -5.6727183276000576e-06 6.3027736114814683e+00 6.3027736114808635e+00 -1.6675604903854349e+00 0 0 0
28 1 -5.7016532690213679e-06 6.3027736114814941e+00 3.7816641668890503e+00 -1.6675604903853192e+00 0 0 0
74 1 3.7918096023034955e-06 7.4299342379134377e-04 3.7816624412761075e+00 2.6626121290039757e+00 0 0 0
75 1 4.2322739625662723e-06 7.4299342381539592e-04 1.2605529966832518e+00 2.6626121290041307e+00 0 0 0
76 1 3.0935880966748989e-07 1.2605547222959601e+00 2.5211094445924442e+00 8.6589580593078541e-01 0 0 0
78 1 1.3992393552021866e-06 1.2605547222958746e+00 1.2605547222959936e+00 1.7734514866761524e+00 0 0 0
79 1 -7.8026828713019152e-08 2.5211387711399125e+00 2.0449766889755584e-08 -5.5308216430132815e-03 0 0 0
81 1 4.2225341138093817e-06 2.5203664511696666e+00 1.2605564479102109e+00 2.6626121290035494e+00 0 0 0
85 1 3.7813786369816069e-06 7.4299342397967890e-04 6.3027718858683075e+00 2.6626121290044558e+00 0 0 0
88 1 1.3904333008944225e-06 1.2605547222959521e+00 6.3027736114819168e+00 1.7734514866759112e+00 0 0 0
89 1 1.2831532382456358e-06 1.2605547222958748e+00 3.7816641668887470e+00 1.7734514866764490e+00 0 0 0
90 1 9.2316703030338576e-07 2.5211387711397668e+00 5.0422189096358121e+00 -5.5308216430780995e-03 0 0 0
91 1 7.2281371988401365e-07 1.2605547222957736e+00 5.0422188891855457e+00 8.6589580593037152e-01 0 0 0
92 1 4.0809795673923335e-06 2.5203664511691923e+00 6.3027753370951309e+00 2.6626121290031355e+00 0 0 0
93 1 4.0735013362342688e-06 2.5203664511696031e+00 3.7816658925029243e+00 2.6626121290030853e+00 0 0 0
94 1 -2.5600305253764317e-06 3.7816641668891200e+00 5.0422188891855431e+00 8.6599930693762761e-01 0 0 0
95 1 3.1108034140864016e-07 2.5211387711398809e+00 2.5211094650424317e+00 -5.5308216429788958e-03 0 0 0
96 1 -3.3161796622198769e-06 3.7816641668888771e+00 3.7816641668891093e+00 1.7736051957204959e+00 0 0 0
97 1 -3.5365784614475928e-06 3.7816641668889388e+00 1.2605547222962779e+00 1.7736051957201975e+00 0 0 0
98 1 1.5425084148356682e-07 5.0421895626377244e+00 2.5211094241424030e+00 -5.5308216431182730e-03 0 0 0
99 1 -2.8269563955668185e-06 3.7816641668891839e+00 2.5211094445927831e+00 8.6599930693757932e-01 0 0 0
100 1 4.4000216647950633e-06 5.0429618826096201e+00 3.7816624412758619e+00 2.6626121290026759e+00 0 0 0
101 1 3.9812721310413252e-06 5.0429618826095650e+00 1.2605529966832716e+00 2.6626121290028424e+00 0 0 0
102 1 3.1131539580452998e-07 6.3027736114817161e+00 2.5211094445922990e+00 8.6589580593083004e-01 0 0 0
104 1 1.2608846373285735e-06 6.3027736114814950e+00 1.2605547222960576e+00 1.7734514866766056e+00 0 0 0
123 1 -3.1300558942492900e-06 3.7816641668889823e+00 6.3027736114819213e+00 1.7736051957205499e+00 0 0 0
124 1 2.6459549599053694e-07 5.0421895626377946e+00 7.5633283133281859e+00 -5.5308216430309644e-03 0 0 0
127 1 4.7408904835190966e-06 5.0429618826098022e+00 6.3027718858679309e+00 2.6626121290025586e+00 0 0 0
129 1 1.2362770270555832e-08 5.0421895626378355e+00 5.0422188687355751e+00 -5.5308216431782008e-03 0 0 0
130 1 1.8992277298341179e-06 6.3027736114813839e+00 6.3027736114820367e+00 1.7734514866766746e+00 0 0 0
131 1 1.6210691801825733e-06 6.3027736114813431e+00 3.7816641668887594e+00 1.7734514866769884e+00 0 0 0
133 1 5.4632922069122629e-07 6.3027736114817534e+00 5.0422188891855715e+00 8.6589580593041593e-01 0 0 0
135 1 4.2895488339721522e-06 7.5625853403548096e+00 3.7816658925030491e+00 2.6626121290027212e+00 0 0 0
227 1 -3.7135002863008984e-06 1.6568039593081146e-03 7.5633278368812231e+00 3.5485214593992720e+00 0 0 0
234 1 -3.4181205377744069e-06 2.5194526406337312e+00 5.0422193860822739e+00 3.5485214593998116e+00 0 0 0
239 1 -3.3418634907466249e-06 2.5194526406337165e+00 2.5211099414898812e+00 3.5485214593999448e+00 0 0 0
242 1 -3.3469813209034787e-06 5.0438756931442699e+00 2.5211089476960038e+00 3.5485214593997441e+00 0 0 0
249 1 -3.2689806846110409e-06 7.5616715298189705e+00 4.9689667955428405e-07 3.5485214594000785e+00 0 0 0
268 1 -2.8399830505290988e-06 5.0438756931443907e+00 7.5633278368812675e+00 3.5485214593995980e+00 0 0 0
273 1 -2.7905287456180285e-06 5.0438756931442752e+00 5.0422183922885520e+00 3.5485214593995780e+00 0 0 0
107 1 3.9930683997091785e-06 7.5625853403546879e+00 1.2605564479104916e+00 2.6626121290025448e+00 0 0 0
134 1 4.4805928256363018e-06 7.5625853403546159e+00 6.3027753370949906e+00 2.6626121290030129e+00 0 0 0
217 1 -3.4669970197034180e-06 1.6568039593494177e-03 2.5211089476960540e+00 3.5485214594004844e+00 0 0 0
231 1 -3.5766975238236684e-06 1.6568039593938266e-03 5.0422183922883921e+00 3.5485214593999785e+00 0 0 0
276 1 -3.3919570178376484e-06 7.5616715298187440e+00 5.0422193860824418e+00 3.5485214593996441e+00 0 0 0
281 1 -3.4886941002840058e-06 7.5616715298188444e+00 2.5211099414899132e+00 3.5485214593998831e+00 0 0 0
223 1 -2.8575451365263666e-06 2.5194526406337103e+00 4.9689676551167850e-07 3.5485214593999612e+00 0 0 0
1 1 -1.1442879024786350e-06 1.5126654280184900e+01 3.7816641664458426e+00 -9.9136010708333555e-01 -1 0 0
2 1 -1.4815259753035724e-06 1.5126654280184853e+01 1.2605547218530528e+00 -9.9136010708334243e-01 -1 0 0
6 1 -7.1461684775684969e-07 1.5126654280184798e+01 6.3027736110383890e+00 -9.9136010708289679e-01 -1 0 0
30 1 -1.5311277271000870e-06 7.5633307211492475e+00 3.7816641673322873e+00 -9.9136010708363886e-01 0 0 0
16 1 -1.3567417046389112e-06 7.5633307211493026e+00 1.2605547227394414e+00 -9.9136010708347622e-01 0 0 0
29 1 -1.3501151298165314e-06 7.5633307211495460e+00 6.3027736119248017e+00 -9.9136010708297317e-01 0 0 0
73 1 3.5028247551547954e-07 1.5126627341008472e+01 2.5211094241424146e+00 -5.5308216431576053e-03 -1 0 0
83 1 8.9821019533389887e-07 1.5126627341008822e+01 7.5633283133278280e+00 -5.5308216427254423e-03 -1 0 0
87 1 6.9874970435511292e-07 1.5126627341008618e+01 5.0422188687353788e+00 -5.5308216431142485e-03 -1 0 0
105 1 4.9280093270378714e-07 7.5633576603256740e+00 2.0450009697807134e-08 -5.5308216431918331e-03 0 0 0
132 1 6.8437029599311383e-07 7.5633576603255293e+00 5.0422189096357748e+00 -5.5308216433406238e-03 0 0 0
31 1 7.3796924153788219e-06 8.8238830560747896e+00 3.7816641668889739e+00 -1.6675622354248496e+00 0 0 0
32 1 7.1740104347330458e-06 8.8238830560747754e+00 1.2605547222959270e+00 -1.6675622354245399e+00 0 0 0
33 1 -5.6767546438421470e-07 1.0084435390999730e+01 3.7816641664461312e+00 -9.9136010708341271e-01 0 0 0
34 1 -1.0344721829440835e-06 1.0084435390999316e+01 1.2605547218529545e+00 -9.9136010708306332e-01 0 0 0
35 1 -4.4809025283472052e-06 1.1344992500666294e+01 1.2605547222962810e+00 -1.6675604903855845e+00 0 0 0
36 1 -6.8525637240837381e-07 1.2605549610335023e+01 1.2605547227393368e+00 -9.9136010708298017e-01 0 0 0
48 1 7.4396300196917901e-06 8.8238830560743189e+00 6.3027736114818236e+00 -1.6675622354247497e+00 0 0 0
50 1 -6.9934424737728988e-07 1.0084435390999690e+01 6.3027736110390045e+00 -9.9136010708348299e-01 0 0 0
51 1 -4.8517867313391038e-06 1.1344992500666207e+01 6.3027736114820598e+00 -1.6675604903859835e+00 0 0 0
52 1 -4.4812382706640566e-06 1.1344992500666013e+01 3.7816641668899074e+00 -1.6675604903853924e+00 0 0 0
53 1 -1.3591122970003721e-06 1.2605549610335162e+01 6.3027736119251925e+00 -9.9136010708308919e-01 0 0 0
54 1 -1.0249033563584423e-06 1.2605549610335132e+01 3.7816641673325195e+00 -9.9136010708297506e-01 0 0 0
55 1 7.2616528010543563e-06 1.3866101945259771e+01 3.7816641668892204e+00 -1.6675622354242254e+00 0 0 0
56 1 7.3906305492415609e-06 1.3866101945259757e+01 1.2605547222962550e+00 -1.6675622354241411e+00 0 0 0
68 1 7.2604274323607288e-06 1.3866101945260095e+01 6.3027736114816113e+00 -1.6675622354243163e+00 0 0 0
136 1 -1.7919822538270841e-06 8.8238830560743313e+00 5.0422188891856488e+00 8.6599930693794913e-01 0 0 0
137 1 3.5566523785950460e-07 7.5633576603256722e+00 2.5211094650425316e+00 -5.5308216434096173e-03 0 0 0
138 1 -3.0304469161112444e-06 8.8238830560744077e+00 3.7816641668890849e+00 1.7736051957203693e+00 0 0 0
139 1 -3.6360816966217543e-06 8.8238830560743935e+00 1.2605547222961935e+00 1.7736051957199448e+00 0 0 0
140 1 9.7259409413860866e-07 1.0084408451823695e+01 2.5211094241423186e+00 -5.5308216435897587e-03 0 0 0
141 1 -2.4838905469657457e-06 8.8238830560743615e+00 2.5211094445927342e+00 8.6599930693807115e-01 0 0 0
142 1 3.8330155855196002e-06 1.0085180771793848e+01 3.7816624412755457e+00 2.6626121290032514e+00 0 0 0
143 1 3.7604558634592747e-06 1.0085180771794093e+01 1.2605529966834730e+00 2.6626121290033495e+00 0 0 0
144 1 7.3572635882768513e-07 1.1344992500667656e+01 2.5211094445925020e+00 8.6589580593053583e-01 0 0 0
146 1 1.2728028225588914e-06 1.1344992500668141e+01 1.2605547222959539e+00 1.7734514866758571e+00 0 0 0
149 1 3.7583773170877256e-06 1.2604804229538924e+01 1.2605564479104390e+00 2.6626121290040059e+00 0 0 0
171 1 -2.7618416774330188e-06 8.8238830560744379e+00 6.3027736114820412e+00 1.7736051957205881e+00 0 0 0
175 1 4.1306545164574883e-06 1.0085180771793521e+01 6.3027718858673021e+00 2.6626121290027265e+00 0 0 0
177 1 1.4299448133549442e-06 1.0084408451823597e+01 5.0422188687355192e+00 -5.5308216434221437e-03 0 0 0
178 1 1.6381611097192177e-06 1.1344992500667923e+01 6.3027736114818707e+00 1.7734514866767597e+00 0 0 0
179 1 1.3912078060859811e-06 1.1344992500668278e+01 3.7816641668887518e+00 1.7734514866760616e+00 0 0 0
180 1 5.3350165033436012e-07 1.2605576549511296e+01 5.0422189096356274e+00 -5.5308216431713252e-03 0 0 0
181 1 9.1229015601818962e-07 1.1344992500667830e+01 5.0422188891855946e+00 8.6589580593031878e-01 0 0 0
182 1 4.0913771317498999e-06 1.2604804229539409e+01 6.3027753370944968e+00 2.6626121290036955e+00 0 0 0
183 1 3.6617846103104699e-06 1.2604804229539083e+01 3.7816658925026001e+00 2.6626121290039060e+00 0 0 0
184 1 -2.8989010041676208e-06 1.3866101945259860e+01 5.0422188891855013e+00 8.6599930693780824e-01 0 0 0
185 1 8.1039085272789105e-07 1.2605576549511149e+01 2.5211094650427532e+00 -5.5308216433572520e-03 0 0 0
186 1 -3.8026854248621157e-06 1.3866101945260059e+01 3.7816641668891138e+00 1.7736051957198435e+00 0 0 0
187 1 -3.3392228064290943e-06 1.3866101945260016e+01 1.2605547222962812e+00 1.7736051957197776e+00 0 0 0
188 1 -2.7651166120499666e-06 1.3866101945259858e+01 2.5211094445929354e+00 8.6599930693782878e-01 0 0 0
209 1 -3.6250213799298903e-06 1.3866101945259963e+01 6.3027736114818085e+00 1.7736051957202601e+00 0 0 0
284 1 -4.0119947162795842e-06 1.0086094582330150e+01 2.5211089476958377e+00 3.5485214593998595e+00 0 0 0
321 1 -3.9498670239604977e-06 1.0086094582330157e+01 5.0422183922886035e+00 3.5485214593998271e+00 0 0 0
324 1 -3.5070032457124164e-06 1.2603890419004259e+01 5.0422193860823725e+00 3.5485214593999999e+00 0 0 0
329 1 -3.9954398649359169e-06 1.2603890419004331e+01 2.5211099414897218e+00 3.5485214593998959e+00 0 0 0
172 1 9.0953795190128102e-07 1.0084408451823263e+01 7.5633283133280909e+00 -5.5308216428693541e-03 0 0 0
316 1 -3.6584137719332322e-06 1.0086094582329956e+01 7.5633278368812888e+00 3.5485214594001482e+00 0 0 0
147 1 1.1595331613601933e-06 1.2605576549511357e+01 2.0449949289513825e-08 -5.5308216431628676e-03 0 0 0
173 1 -2.0656497073465768e-06 8.8238830560744184e+00 7.5633283337780890e+00 8.6599930693758387e-01 0 0 0
176 1 6.3706313763515317e-07 1.1344992500667622e+01 7.5633283337780375e+00 8.6589580592994131e-01 0 0 0
291 1 -3.6432162313865340e-06 1.2603890419004268e+01 4.9689668024655020e-07 3.5485214594001762e+00 0 0 0
210 1 -2.6933201900970525e-06 1.3866101945259535e+01 7.5633283337779291e+00 8.6599930693772065e-01 0 0 0
80 1 2.5164562934889799e-07 1.2605547222962019e+00 1.5126656667556086e+01 8.6589580593049897e-01 0 -1 0
103 1 8.0934471190234781e-07 5.0421895626376418e+00 1.5126656647105891e+01 -5.5308216430426452e-03 0 -1 0
247 1 -3.4492101521796785e-06 5.0438756931442628e+00 1.5126656170659109e+01 3.5485214593999368e+00 0 -1 0
121 1 9.4463565659334699e-07 2.5211387711397992e+00 7.5633283542285898e+00 -5.5308216430761921e-03 0 0 0
265 1 -3.5705765118128753e-06 2.5194526406336801e+00 7.5633288306750570e+00 3.5485214593997978e+00 0 0 0
313 1 -3.5020448442939989e-06 7.5616715298188160e+00 7.5633288306751156e+00 3.5485214593994510e+00 0 0 0
82 1 -2.8207483205635559e-06 3.7816641668892510e+00 1.5126656667556066e+01 8.6599930693751637e-01 0 -1 0
106 1 5.3247961335791561e-07 6.3027736114818396e+00 1.5126656667556198e+01 8.6589580593055371e-01 0 -1 0
125 1 -2.5859997479085245e-06 3.7816641668891111e+00 7.5633283337782231e+00 8.6599930693761107e-01 0 0 0
19 1 -5.4166770504049577e-06 1.2605547222978148e+00 1.1344992500667503e+01 -1.6675604903868972e+00 0 0 0
20 1 -4.5471975367347729e-06 1.2605547222978999e+00 8.8238830560734645e+00 -1.6675604903866654e+00 0 0 0
21 1 -1.6364143887282717e-06 2.5211118319642427e+00 1.1344992501110427e+01 -9.9136010708293254e-01 0 0 0
22 1 -9.7175986866721448e-07 2.5211118319638999e+00 8.8238830565176993e+00 -9.9136010708301436e-01 0 0 0
23 1 7.2922661515173450e-06 3.7816641668885449e+00 8.8238830560748323e+00 -1.6675622354245683e+00 0 0 0
25 1 -1.2100487752374793e-06 5.0422165018141181e+00 8.8238830556313168e+00 -9.9136010708305933e-01 0 0 0
37 1 -5.7516648469718416e-06 1.2605547222974436e+00 1.3866101945260903e+01 -1.6675604903867669e+00 0 0 0
38 1 -1.9371852722624500e-06 2.5211118319642765e+00 1.3866101945703008e+01 -9.9136010708310318e-01 0 0 0
39 1 7.3554909428186384e-06 3.7816641668885445e+00 1.3866101945259024e+01 -1.6675622354245583e+00 0 0 0
40 1 7.4784346150035848e-06 3.7816641668883473e+00 1.1344992500666812e+01 -1.6675622354245592e+00 0 0 0
41 1 -3.3784755815272804e-07 5.0422165018141865e+00 1.3866101944816670e+01 -9.9136010708330491e-01 0 0 0
42 1 -2.9815507611276787e-07 5.0422165018142620e+00 1.1344992500224027e+01 -9.9136010708323985e-01 0 0 0
43 1 -3.7743036588223169e-06 6.3027736114813315e+00 1.1344992500667486e+01 -1.6675604903856733e+00 0 0 0
44 1 -4.8015766464750560e-06 6.3027736114813031e+00 8.8238830560740276e+00 -1.6675604903856585e+00 0 0 0
57 1 -3.8815106854211894e-06 6.3027736114813599e+00 1.3866101945260352e+01 -1.6675604903858994e+00 0 0 0
84 1 3.9581914216754399e-06 7.4299342403795834e-04 8.8238813304608996e+00 2.6626121290048510e+00 0 0 0
86 1 7.9563269895977756e-07 1.2605547222959386e+00 7.5633283337781894e+00 8.6589580592983528e-01 0 0 0
110 1 4.8792747115410561e-06 7.4299342388710213e-04 1.3866100219645743e+01 2.6626121290048976e+00 0 0 0
111 1 4.6156231373237418e-06 7.4299342391997948e-04 1.1344990775053235e+01 2.6626121290050753e+00 0 0 0
112 1 2.9977231559579606e-07 1.2605547222961893e+00 1.2605547222963574e+01 8.6589580592995607e-01 0 0 0
114 1 1.5224705584463145e-06 1.2605547222958409e+00 1.1344992500667392e+01 1.7734514866752369e+00 0 0 0
115 1 1.3165082487308224e-06 1.2605547222959452e+00 8.8238830560747008e+00 1.7734514866752560e+00 0 0 0
116 1 3.4310002256804975e-07 2.5211387711398245e+00 1.0084437798821053e+01 -5.5308216429644699e-03 0 0 0
117 1 4.3030447550407345e-07 1.2605547222961013e+00 1.0084437778370837e+01 8.6589580592967963e-01 0 0 0
118 1 4.1932358296159998e-06 2.5203664511694068e+00 1.1344994226280443e+01 2.6626121290042102e+00 0 0 0
119 1 3.9014998262763748e-06 2.5203664511690298e+00 8.8238847816880366e+00 2.6626121290037186e+00 0 0 0
120 1 -2.7722787972542134e-06 3.7816641668891400e+00 1.0084437778370873e+01 8.6599930693759397e-01 0 0 0
122 1 -3.4552505685634806e-06 3.7816641668889761e+00 8.8238830560745853e+00 1.7736051957206362e+00 0 0 0
126 1 4.2439808020785064e-06 5.0429618826099665e+00 8.8238813304611945e+00 2.6626121290028011e+00 0 0 0
128 1 6.5469068675659063e-07 6.3027736114818902e+00 7.5633283337781387e+00 8.6589580592990556e-01 0 0 0
151 1 1.7124817271304981e-06 1.2605547222958382e+00 1.3866101945259894e+01 1.7734514866756634e+00 0 0 0
152 1 4.5217483483615466e-06 2.5203664511696133e+00 1.3866103670872874e+01 2.6626121290041542e+00 0 0 0
153 1 -6.7475773069593298e-08 2.5211387711398472e+00 1.2605547243413577e+01 -5.5308216429726760e-03 0 0 0
154 1 -3.4732246045476233e-06 3.7816641668888953e+00 1.3866101945259640e+01 1.7736051957203947e+00 0 0 0
155 1 -3.5780204810358612e-06 3.7816641668888158e+00 1.1344992500667118e+01 1.7736051957206636e+00 0 0 0
156 1 1.2760179822829174e-06 5.0421895626375877e+00 1.2605547202513405e+01 -5.5308216431225639e-03 0 0 0
157 1 -2.7401014992540987e-06 3.7816641668892137e+00 1.2605547222963358e+01 8.6599930693756821e-01 0 0 0
158 1 3.9322778934137652e-06 5.0429618826097355e+00 1.3866100219645762e+01 2.6626121290031808e+00 0 0 0
159 1 3.8541177453519443e-06 5.0429618826099318e+00 1.1344990775053596e+01 2.6626121290031266e+00 0 0 0
160 1 8.6350311075832597e-07 6.3027736114819426e+00 1.2605547222963798e+01 8.6589580592976623e-01 0 0 0
161 1 8.7315683743690137e-07 5.0421895626376623e+00 1.0084437757920682e+01 -5.5308216430778150e-03 0 0 0
162 1 1.2769570972979664e-06 6.3027736114813147e+00 1.1344992500667276e+01 1.7734514866761821e+00 0 0 0
163 1 1.5320065824265906e-06 6.3027736114813928e+00 8.8238830560743331e+00 1.7734514866763227e+00 0 0 0
165 1 7.5070035954429575e-07 6.3027736114819630e+00 1.0084437778370718e+01 8.6589580592947901e-01 0 0 0
166 1 3.6285336700758806e-06 7.5625853403544694e+00 1.1344994226280534e+01 2.6626121290033944e+00 0 0 0
167 1 3.9472762975854312e-06 7.5625853403544232e+00 8.8238847816881645e+00 2.6626121290033185e+00 0 0 0
189 1 1.2839937014666828e-06 6.3027736114814639e+00 1.3866101945260242e+01 1.7734514866764086e+00 0 0 0
260 1 -3.4686349595352892e-06 2.5194526406336415e+00 1.0084438275267859e+01 3.5485214593995109e+00 0 0 0
297 1 -2.8318606310950942e-06 2.5194526406336379e+00 1.2605547719860121e+01 3.5485214593994994e+00 0 0 0
300 1 -3.5324390507934757e-06 5.0438756931443871e+00 1.2605546726066251e+01 3.5485214593996330e+00 0 0 0
305 1 -3.4796645251092176e-06 5.0438756931444315e+00 1.0084437281474068e+01 3.5485214593995349e+00 0 0 0
190 1 3.8653697623798287e-06 7.5625853403545023e+00 1.3866103670872601e+01 2.6626121290032776e+00 0 0 0
221 1 -2.9494849595580105e-06 1.6568039592854689e-03 1.5126656170659020e+01 3.5485214594004342e+00 0 -1 0
253 1 -2.7725342987831000e-06 1.6568039592641526e-03 1.2605546726066423e+01 3.5485214593992143e+00 0 0 0
257 1 -3.4268491203410475e-06 1.6568039592446127e-03 1.0084437281474054e+01 3.5485214593985166e+00 0 0 0
308 1 -3.8356349911334701e-06 7.5616715298186907e+00 1.0084438275267635e+01 3.5485214593990122e+00 0 0 0
335 1 -3.5058337495035347e-06 7.5616715298187298e+00 1.2605547719860414e+01 3.5485214593993915e+00 0 0 0
77 1 4.1872201058697268e-07 1.5126627341008687e+01 1.5126656647105959e+01 -5.5308216430539616e-03 -1 -1 0
169 1 8.1473253561735136e-07 7.5633576603255115e+00 7.5633283542281040e+00 -5.5308216427664538e-03 0 0 0
145 1 3.4621460697200870e-07 1.0084408451823437e+01 1.5126656647105905e+01 -5.5308216432518936e-03 0 -1 0
289 1 -3.3710078358638234e-06 1.0086094582330112e+01 1.5126656170659073e+01 3.5485214594000811e+00 0 -1 0
207 1 3.1296704779612157e-07 1.2605576549511555e+01 7.5633283542281546e+00 -5.5308216427995029e-03 0 0 0
351 1 -3.1392362656872305e-06 1.2603890419004287e+01 7.5633288306752036e+00 3.5485214594005789e+00 0 0 0
45 1 -4.5546254267987887e-07 7.5633307211495833e+00 1.1344992501110450e+01 -9.9136010708238675e-01 0 0 0
46 1 -9.4948565304388310e-07 7.5633307211497254e+00 8.8238830565174418e+00 -9.9136010708228883e-01 0 0 0
58 1 -6.8170599643114974e-07 7.5633307211494811e+00 1.3866101945703164e+01 -9.9136010708299827e-01 0 0 0
108 1 -3.0691697229615872e-06 8.8238830560742727e+00 1.5126656667556047e+01 8.6599930693786054e-01 0 -1 0
148 1 6.4919370992843971e-07 1.1344992500667386e+01 1.5126656667556187e+01 8.6589580593037574e-01 0 -1 0
150 1 -2.1090905225428744e-06 1.3866101945259780e+01 1.5126656667556110e+01 8.6599930693778304e-01 0 -1 0
5 1 -9.5535412302850850e-07 1.5126654280184457e+01 8.8238830556310504e+00 -9.9136010708245648e-01 -1 0 0
17 1 -1.5840013780961138e-06 1.5126654280184603e+01 1.3866101944816940e+01 -9.9136010708302447e-01 -1 0 0
18 1 -1.4875005813572516e-06 1.5126654280184324e+01 1.1344992500224258e+01 -9.9136010708251110e-01 -1 0 0
109 1 4.7504546172101166e-07 1.5126627341008803e+01 1.2605547202513582e+01 -5.5308216426899221e-03 -1 0 0
113 1 6.0606641836487294e-07 1.5126627341008788e+01 1.0084437757920732e+01 -5.5308216424036103e-03 -1 0 0
47 1 7.2911004018481218e-06 8.8238830560740116e+00 8.8238830560743651e+00 -1.6675622354244124e+00 0 0 0
49 1 -1.4250239125379070e-06 1.0084435390999413e+01 8.8238830556314074e+00 -9.9136010708297684e-01 0 0 0
59 1 7.2649882082089803e-06 8.8238830560745019e+00 1.3866101945260105e+01 -1.6675622354245285e+00 0 0 0
60 1 7.3221405705258213e-06 8.8238830560741519e+00 1.1344992500667585e+01 -1.6675622354244197e+00 0 0 0
61 1 -1.4673111399511547e-06 1.0084435390999246e+01 1.3866101944816402e+01 -9.9136010708307643e-01 0 0 0
62 1 -1.7261940869848829e-06 1.0084435390999344e+01 1.1344992500224009e+01 -9.9136010708289746e-01 0 0 0
63 1 -5.3898842571586160e-06 1.1344992500666651e+01 1.1344992500667063e+01 -1.6675604903860295e+00 0 0 0
64 1 -5.4130778213215030e-06 1.1344992500666535e+01 8.8238830560743313e+00 -1.6675604903860584e+00 0 0 0
65 1 -1.4199787859781890e-06 1.2605549610335245e+01 1.1344992501110273e+01 -9.9136010708289857e-01 0 0 0
66 1 -1.6691958181567067e-06 1.2605549610335299e+01 8.8238830565176283e+00 -9.9136010708282363e-01 0 0 0
67 1 7.0898748508958861e-06 1.3866101945260493e+01 8.8238830560742265e+00 -1.6675622354241462e+00 0 0 0
69 1 -4.8282574248766178e-06 1.1344992500666581e+01 1.3866101945259212e+01 -1.6675604903861139e+00 0 0 0
70 1 -7.7024828117609557e-07 1.2605549610334936e+01 1.3866101945702734e+01 -9.9136010708314837e-01 0 0 0
71 1 7.3531838328808931e-06 1.3866101945260176e+01 1.3866101945259944e+01 -1.6675622354241593e+00 0 0 0
72 1 7.0536535028582333e-06 1.3866101945260590e+01 1.1344992500667402e+01 -1.6675622354240462e+00 0 0 0
164 1 9.2039428233230957e-07 7.5633576603255426e+00 1.0084437798820939e+01 -5.5308216425798522e-03 0 0 0
168 1 -2.8270670732485096e-06 8.8238830560745232e+00 1.0084437778370878e+01 8.6599930693751725e-01 0 0 0
170 1 -3.3896206886433531e-06 8.8238830560744947e+00 8.8238830560745924e+00 1.7736051957207875e+00 0 0 0
174 1 4.0031374192418128e-06 1.0085180771793256e+01 8.8238813304609600e+00 2.6626121290025906e+00 0 0 0
191 1 9.2716773724042909e-07 7.5633576603255861e+00 1.2605547243413753e+01 -5.5308216429014118e-03 0 0 0
192 1 -3.8730643880117062e-06 8.8238830560744628e+00 1.3866101945259613e+01 1.7736051957203351e+00 0 0 0
193 1 -3.8952086183888043e-06 8.8238830560745889e+00 1.1344992500667088e+01 1.7736051957207568e+00 0 0 0
194 1 -4.6202505274720427e-09 1.0084408451823283e+01 1.2605547202513590e+01 -5.5308216429334825e-03 0 0 0
195 1 -3.1386787967612894e-06 8.8238830560743473e+00 1.2605547222963311e+01 8.6599930693768978e-01 0 0 0
196 1 4.0305294651649989e-06 1.0085180771793802e+01 1.3866100219646270e+01 2.6626121290033309e+00 0 0 0
197 1 3.9755720899486087e-06 1.0085180771793352e+01 1.1344990775053827e+01 2.6626121290029583e+00 0 0 0
198 1 4.4872792588015052e-07 1.1344992500667479e+01 1.2605547222963731e+01 8.6589580592976734e-01 0 0 0
199 1 1.0135237454045373e-07 1.0084408451823224e+01 1.0084437757920790e+01 -5.5308216427257476e-03 0 0 0
200 1 1.4474155083485704e-06 1.1344992500668177e+01 1.1344992500667329e+01 1.7734514866771651e+00 0 0 0
201 1 1.4705461288580043e-06 1.1344992500667814e+01 8.8238830560743651e+00 1.7734514866772348e+00 0 0 0
202 1 3.1707370029553360e-07 1.2605576549511840e+01 1.0084437798820931e+01 -5.5308216426403090e-03 0 0 0
203 1 2.6003355568168345e-07 1.1344992500667560e+01 1.0084437778370626e+01 8.6589580592958537e-01 0 0 0
204 1 4.6235397119200087e-06 1.2604804229539415e+01 1.1344994226280821e+01 2.6626121290036648e+00 0 0 0
205 1 4.3565755738815285e-06 1.2604804229539647e+01 8.8238847816878785e+00 2.6626121290035414e+00 0 0 0
206 1 -2.3919837777853728e-06 1.3866101945259274e+01 1.0084437778370749e+01 8.6599930693762261e-01 0 0 0
208 1 -3.2808844821713141e-06 1.3866101945259844e+01 8.8238830560745978e+00 1.7736051957206471e+00 0 0 0
211 1 1.4966255062583052e-06 1.1344992500668170e+01 1.3866101945260194e+01 1.7734514866764568e+00 0 0 0
212 1 4.4549339768327375e-06 1.2604804229539097e+01 1.3866103670873429e+01 2.6626121290039211e+00 0 0 0
213 1 8.8675061199541461e-07 1.2605576549511770e+01 1.2605547243413751e+01 -5.5308216428288075e-03 0 0 0
214 1 -2.6054930016783512e-06 1.3866101945259945e+01 1.3866101945259601e+01 1.7736051957203101e+00 0 0 0
215 1 -2.7248187215455839e-06 1.3866101945259837e+01 1.1344992500667100e+01 1.7736051957207455e+00 0 0 0
216 1 -1.9415385027570595e-06 1.3866101945259530e+01 1.2605547222963322e+01 8.6599930693766947e-01 0 0 0
338 1 -3.0806958646174013e-06 1.0086094582330354e+01 1.2605546726066276e+01 3.5485214593999297e+00 0 0 0
343 1 -3.4302294934225559e-06 1.0086094582330258e+01 1.0084437281474001e+01 3.5485214594000509e+00 0 0 0
346 1 -3.0324465758954049e-06 1.2603890419004223e+01 1.0084438275268065e+01 3.5485214594004373e+00 0 0 0
357 1 -3.0479899215416603e-06 1.2603890419004191e+01 1.2605547719860093e+01 3.5485214594001575e+00 0 0 0
220 1 -9.6122666817128422e-07 1.2605547222959113e+00 2.5211094445923266e+00 4.4584076688043597e+00 0 0 0
222 1 9.1764614745164317e-07 1.2605547222965054e+00 1.2605547222963713e+00 5.3555570285595593e+00 0 0 0
224 1 -4.9513269989661599e-07 1.2605547222960112e+00 8.7138631774911126e-14 4.4584076688042744e+00 0 0 0
225 1 -6.2847384935175807e-07 2.5278054362449169e+00 1.2600237611397265e+00 6.2364179375468831e+00 0 0 0
226 1 6.6785262980517925e-07 3.7816641668895854e+00 2.3563988452276052e-13 4.4457811593295462e+00 0 0 0
232 1 6.3093681484443011e-07 1.2605547222962425e+00 6.3027736114816948e+00 5.3555570285594651e+00 0 0 0
233 1 8.2564583752941171e-07 1.2605547222964426e+00 3.7816641668891373e+00 5.3555570285592422e+00 0 0 0
235 1 -1.1723017338010522e-06 1.2605547222961397e+00 5.0422188891857216e+00 4.4584076688045959e+00 0 0 0
236 1 -6.0097150968791996e-07 2.5278054362449009e+00 6.3022426503253479e+00 6.2364179375461957e+00 0 0 0
237 1 -6.3035681381135790e-07 2.5278054362449978e+00 3.7811332057326261e+00 6.2364179375467765e+00 0 0 0
238 1 7.2601535873848634e-07 3.7816641668892697e+00 5.0422188891864277e+00 4.4457811593308936e+00 0 0 0
240 1 2.3828154835220876e-06 3.7816641668889157e+00 3.7816641668889530e+00 5.3500528699016963e+00 0 0 0
241 1 2.3541436637222681e-06 3.7816641668887701e+00 1.2605547222965388e+00 5.3500528699017975e+00 0 0 0
243 1 4.1722631286687824e-07 3.7816641668893842e+00 2.5211094445918389e+00 4.4457811593300809e+00 0 0 0
244 1 -6.8661326979997209e-07 5.0355228975332373e+00 3.7821951280455846e+00 6.2364179375469018e+00 0 0 0
245 1 -7.4323225198128707e-07 5.0355228975331912e+00 1.2610856834528077e+00 6.2364179375468511e+00 0 0 0
246 1 -1.1249130749008278e-06 6.3027736114822011e+00 2.5211094445920001e+00 4.4584076688053971e+00 0 0 0
248 1 7.1067909195534506e-07 6.3027736114812818e+00 1.2605547222964553e+00 5.3555570285584722e+00 0 0 0
267 1 2.6353750977385492e-06 3.7816641668887039e+00 6.3027736114812063e+00 5.3500528699014218e+00 0 0 0
271 1 -4.1134310443701353e-07 5.0355228975329895e+00 6.3033045726381536e+00 6.2364179375460376e+00 0 0 0
274 1 9.1143401016761902e-07 6.3027736114817339e+00 6.3027736114816610e+00 5.3555570285584961e+00 0 0 0
275 1 6.2381978405875322e-07 6.3027736114814621e+00 3.7816641668892070e+00 5.3555570285583878e+00 0 0 0
277 1 -8.2626811786864552e-07 6.3027736114818707e+00 5.0422188891858362e+00 4.4584076688059504e+00 0 0 0
362 1 -1.8031518714478074e-06 5.9122848117607714e-02 3.8365225641804579e+00 9.8756003185382202e+00 0 0 0
363 1 -1.4924034038692947e-06 5.9122848117893381e-02 1.3154131195876611e+00 9.8756003185382983e+00 0 0 0
364 1 -5.0571973500917220e-07 1.2605547222966849e+00 2.5211094445927018e+00 8.0035664832474236e+00 0 0 0
366 1 2.2185819930151176e-07 1.2605547222963329e+00 1.2605547222962368e+00 8.8477706090074850e+00 0 0 0
368 1 -4.3245126941993705e-07 1.2605547222966833e+00 1.6958196588292755e-13 8.0035664832477558e+00 0 0 0
369 1 -1.4329369431534021e-06 2.4619865964749916e+00 1.2056963250050245e+00 9.8756003185379964e+00 0 0 0
373 1 -1.2716607928175646e-06 5.9122848117598645e-02 6.3576320087728089e+00 9.8756003185376731e+00 0 0 0
376 1 8.4373164126501974e-07 1.2605547222964153e+00 6.3027736114818431e+00 8.8477706090073767e+00 0 0 0
377 1 2.9032125501002026e-07 1.2605547222963767e+00 3.7816641668892337e+00 8.8477706090076715e+00 0 0 0
378 1 2.6618504762936529e-07 2.5386531746454621e+00 5.0413654138248480e+00 7.1323851001779150e+00 0 0 0
379 1 -1.0550071503482793e-07 1.2605547222965925e+00 5.0422188891863415e+00 8.0035664832478037e+00 0 0 0
380 1 -1.0012856394328962e-06 2.4619865964748886e+00 6.2479152141906402e+00 9.8756003185383268e+00 0 0 0
381 1 -1.4327463102670785e-06 2.4619865964751582e+00 3.7268057695978318e+00 9.8756003185382522e+00 0 0 0
382 1 3.5567713767584527e-07 3.7816641668884445e+00 5.0422188891848627e+00 8.0621734112921981e+00 0 0 0
383 1 4.0392977661002422e-08 2.5386531746453080e+00 2.5202559692321569e+00 7.1323851001775829e+00 0 0 0
384 1 -3.5115234994603608e-07 3.7816641668901454e+00 3.7816641668895530e+00 8.9785025628974910e+00 0 0 0
385 1 -2.3931008335260364e-07 3.7816641668897337e+00 1.2605547222962019e+00 8.9785025628974946e+00 0 0 0
386 1 -1.1568563945146270e-09 5.0246751591322392e+00 2.5219629199532321e+00 7.1323851001775829e+00 0 0 0
387 1 2.7265547138312062e-07 3.7816641668884534e+00 2.5211094445927404e+00 8.0621734112924486e+00 0 0 0
388 1 -1.4384362199369132e-06 5.1013417373033505e+00 3.8365225641803793e+00 9.8756003185379129e+00 0 0 0
389 1 -1.1670862776463555e-06 5.1013417373032910e+00 1.3154131195875811e+00 9.8756003185378578e+00 0 0 0
390 1 -4.2384557746886368e-07 6.3027736114820518e+00 2.5211094445925899e+00 8.0035664832479476e+00 0 0 0
392 1 4.0397888291366481e-07 6.3027736114816184e+00 1.2605547222962639e+00 8.8477706090074388e+00 0 0 0
394 1 -2.7191250241767457e-07 6.3027736114824675e+00 2.3836584152484497e-13 8.0035664832477860e+00 0 0 0
411 1 -3.7351772646633349e-07 3.7816641668902244e+00 6.3027736114826887e+00 8.9785025628978055e+00 0 0 0
413 1 1.5894072499356073e-07 3.7816641668882758e+00 7.5633283337779531e+00 8.0621734112918464e+00 0 0 0
415 1 -1.6683589465623589e-06 5.1013417373033496e+00 6.3576320087729670e+00 9.8756003185378773e+00 0 0 0
417 1 1.8859723974227165e-07 5.0246751591321850e+00 5.0430723645457149e+00 7.1323851001778067e+00 0 0 0
418 1 4.8810963079032751e-07 6.3027736114814141e+00 6.3027736114817055e+00 8.8477706090069752e+00 0 0 0
419 1 4.7460103297663107e-07 6.3027736114815678e+00 3.7816641668892559e+00 8.8477706090074619e+00 0 0 0
421 1 -2.0010351272407511e-07 6.3027736114819612e+00 5.0422188891864126e+00 8.0035664832482887e+00 0 0 0
423 1 -1.1576527310801334e-06 7.5042054856602958e+00 3.7268057695977888e+00 9.8756003185380390e+00 0 0 0
395 1 -1.5432288412527345e-06 7.5042054856603091e+00 1.2056963250051347e+00 9.8756003185379519e+00 0 0 0
422 1 -9.9570169128686607e-07 7.5042054856606315e+00 6.2479152141901029e+00 9.8756003185376944e+00 0 0 0
416 1 -3.1000806817157535e-07 6.3027736114822206e+00 7.5633283337780748e+00 8.0035664832480293e+00 0 0 0
250 1 -9.5143208723990180e-07 6.3027736114820581e+00 5.5067062021407764e-14 4.4584076688051901e+00 0 0 0
391 1 1.9811197796972754e-07 5.0246751591322232e+00 8.5347536039570571e-04 7.1323851001779213e+00 0 0 0
230 1 -1.5269349481814246e-06 1.2605547222966640e+00 7.5633283337780650e+00 4.4584076688047203e+00 0 0 0
409 1 6.0569468664231863e-08 2.5386531746454528e+00 7.5624748584176178e+00 7.1323851001783760e+00 0 0 0
361 1 6.8501938176147318e-08 1.5109112937503353e+01 2.5219629199530114e+00 7.1323851001777880e+00 -1 0 0
375 1 4.4511831839355569e-07 1.5109112937503346e+01 5.0430723645457407e+00 7.1323851001778023e+00 -1 0 0
420 1 2.3253438703401667e-07 7.5808720638310474e+00 5.0413654138246597e+00 7.1323851001776184e+00 0 0 0
425 1 -9.0828772764006241e-08 7.5808720638309568e+00 2.5202559692322417e+00 7.1323851001775864e+00 0 0 0
218 1 -3.8386075190612887e-07 1.5119960675903867e+01 3.7821951280456547e+00 6.2364179375468840e+00 -1 0 0
219 1 -7.8781830952619257e-07 1.5119960675903927e+01 1.2610856834527662e+00 6.2364179375470119e+00 -1 0 0
229 1 -3.6310628297331205e-07 1.5119960675903956e+01 6.3033045726383898e+00 6.2364179375462960e+00 -1 0 0
279 1 -1.0048179974107717e-06 7.5700243254305546e+00 3.7811332057325737e+00 6.2364179375468840e+00 0 0 0
251 1 -6.9562457079827480e-07 7.5700243254303601e+00 1.2600237611399112e+00 6.2364179375468103e+00 0 0 0
278 1 -7.8420334536847469e-07 7.5700243254305741e+00 6.3022426503251676e+00 6.2364179375461930e+00 0 0 0
280 1 -3.7401305156819156e-07 8.8238830560744024e+00 5.0422188891856097e+00 4.4457811593317489e+00 0 0 0
282 1 1.6106928944765676e-06 8.8238830560747701e+00 3.7816641668891142e+00 5.3500528699014271e+00 0 0 0
283 1 2.3645478167446087e-06 8.8238830560749992e+00 1.2605547222964670e+00 5.3500528699012868e+00 0 0 0
285 1 -5.8168986283485581e-08 8.8238830560737860e+00 2.5211094445913602e+00 4.4457811593312346e+00 0 0 0
286 1 -9.0078588063814906e-07 1.0077741786718470e+01 3.7821951280455623e+00 6.2364179375471318e+00 0 0 0
287 1 -6.8969505182075236e-07 1.0077741786718734e+01 1.2610856834530635e+00 6.2364179375470776e+00 0 0 0
288 1 -1.7691569283245527e-06 1.1344992500667191e+01 2.5211094445921209e+00 4.4584076688049157e+00 0 0 0
290 1 3.4905711700677187e-07 1.1344992500667388e+01 1.2605547222964621e+00 5.3555570285592475e+00 0 0 0
293 1 -8.9654882487607738e-07 1.2612243214615640e+01 1.2600237611400285e+00 6.2364179375471007e+00 0 0 0
294 1 1.6019949090470704e-07 1.3866101945259928e+01 5.9779656416695732e-13 4.4457811593282903e+00 0 0 0
315 1 1.7087452715130420e-06 8.8238830560745232e+00 6.3027736114815482e+00 5.3500528699016421e+00 0 0 0
317 1 -1.8967398762067574e-07 8.8238830560752017e+00 7.5633283337778998e+00 4.4457811593315348e+00 0 0 0
319 1 -5.8004382077038545e-07 1.0077741786718381e+01 6.3033045726379484e+00 6.2364179375463555e+00 0 0 0
322 1 9.2710960103197971e-07 1.1344992500667388e+01 6.3027736114814470e+00 5.3555570285592085e+00 0 0 0
323 1 4.1786235251166636e-07 1.1344992500667329e+01 3.7816641668890503e+00 5.3555570285590983e+00 0 0 0
325 1 -1.3786277716957489e-06 1.1344992500667232e+01 5.0422188891860982e+00 4.4584076688049947e+00 0 0 0
326 1 3.0820562888695515e-08 1.2612243214615853e+01 6.3022426503250513e+00 6.2364179375464310e+00 0 0 0
327 1 -3.3643528620518252e-07 1.2612243214615571e+01 3.7811332057326186e+00 6.2364179375471762e+00 0 0 0
328 1 6.7701878919890251e-07 1.3866101945259681e+01 5.0422188891853850e+00 4.4457811593287389e+00 0 0 0
330 1 2.6139759757063379e-06 1.3866101945259668e+01 3.7816641668890969e+00 5.3500528699021999e+00 0 0 0
331 1 1.9956672201205115e-06 1.3866101945259722e+01 1.2605547222965341e+00 5.3500528699022576e+00 0 0 0
332 1 1.9108959891124257e-07 1.3866101945260217e+01 2.5211094445916511e+00 4.4457811593286287e+00 0 0 0
353 1 2.8664661323341134e-06 1.3866101945259860e+01 6.3027736114815793e+00 5.3500528699024690e+00 0 0 0
396 1 1.0474048228238580e-07 8.8238830560751005e+00 1.3177191308427072e-13 8.0621734112929957e+00 0 0 0
424 1 1.0227121150201613e-06 8.8238830560752390e+00 5.0422188891846575e+00 8.0621734112922621e+00 0 0 0
426 1 1.9382814021071537e-07 8.8238830560733952e+00 3.7816641668894344e+00 8.9785025628971091e+00 0 0 0
427 1 -5.3092361824221996e-07 8.8238830560738855e+00 1.2605547222960323e+00 8.9785025628971447e+00 0 0 0
428 1 1.8139982536535914e-07 1.0066894048318312e+01 2.5219629199531570e+00 7.1323851001775536e+00 0 0 0
429 1 3.5814912779076171e-07 8.8238830560750330e+00 2.5211094445930309e+00 8.0621734112927861e+00 0 0 0
430 1 -9.0305487593671582e-07 1.0143560626488181e+01 3.8365225641806147e+00 9.8756003185382095e+00 0 0 0
431 1 -1.2238484969062875e-06 1.0143560626488291e+01 1.3154131195878187e+00 9.8756003185379715e+00 0 0 0
432 1 8.9112884792339634e-08 1.1344992500666452e+01 2.5211094445924367e+00 8.0035664832473454e+00 0 0 0
434 1 8.9444934060852552e-07 1.1344992500667251e+01 1.2605547222960869e+00 8.8477706090078367e+00 0 0 0
436 1 2.6931029954583835e-08 1.1344992500665956e+01 2.6266051606794165e-13 8.0035664832468481e+00 0 0 0
437 1 -8.7469946980512297e-07 1.2546424374845778e+01 1.2056963250048827e+00 9.8756003185380532e+00 0 0 0
459 1 5.2369352263712830e-07 8.8238830560733454e+00 6.3027736114825466e+00 8.9785025628974733e+00 0 0 0
461 1 9.3615735807275180e-07 8.8238830560758306e+00 7.5633283337775197e+00 8.0621734112917949e+00 0 0 0
463 1 -1.0084836608745914e-06 1.0143560626488126e+01 6.3576320087730984e+00 9.8756003185379591e+00 0 0 0
464 1 -4.8057365480868696e-08 1.1344992500666326e+01 7.5633283337778767e+00 8.0035664832462565e+00 0 0 0
465 1 5.7339933826914453e-07 1.0066894048318179e+01 5.0430723645456057e+00 7.1323851001777818e+00 0 0 0
466 1 6.7553337828683414e-07 1.1344992500667056e+01 6.3027736114820874e+00 8.8477706090077319e+00 0 0 0
467 1 8.7255472444652115e-07 1.1344992500667173e+01 3.7816641668892781e+00 8.8477706090079984e+00 0 0 0
468 1 7.0791691745899560e-07 1.2623090953016554e+01 5.0413654138246748e+00 7.1323851001778689e+00 0 0 0
469 1 3.0435375467740518e-07 1.1344992500666677e+01 5.0422188891862216e+00 8.0035664832471927e+00 0 0 0
470 1 -1.9486490403779756e-06 1.2546424374845843e+01 6.2479152141902929e+00 9.8756003185379431e+00 0 0 0
471 1 -1.5628166804688637e-06 1.2546424374845845e+01 3.7268057695976351e+00 9.8756003185380408e+00 0 0 0
472 1 3.9628529248595575e-07 1.3866101945259889e+01 5.0422188891847926e+00 8.0621734112924237e+00 0 0 0
473 1 2.9863954278681633e-07 1.2623090953016554e+01 2.5202559692321582e+00 7.1323851001776974e+00 0 0 0
474 1 -6.3472970121920302e-07 1.3866101945259798e+01 3.7816641668892621e+00 8.9785025628973738e+00 0 0 0
475 1 -1.5379259099416202e-07 1.3866101945259899e+01 1.2605547222961029e+00 8.9785025628973223e+00 0 0 0
476 1 2.9310779859009881e-07 1.3866101945259869e+01 2.5211094445927236e+00 8.0621734112928642e+00 0 0 0
497 1 -5.8702646540913610e-07 1.3866101945259995e+01 6.3027736114822268e+00 8.9785025628976864e+00 0 0 0
498 1 2.6954858169072431e-07 1.3866101945259810e+01 7.5633283337779584e+00 8.0621734112917682e+00 0 0 0
365 1 -7.8420885729951280e-08 1.5109112937503250e+01 8.5347536039037664e-04 7.1323851001781424e+00 -1 0 0
457 1 2.8894353695747599e-07 7.5808720638311549e+00 7.5624748584174935e+00 7.1323851001777419e+00 0 0 0
252 1 8.7293516689733910e-07 8.8238830560738908e+00 8.8995477653952548e-13 4.4457811593307675e+00 0 0 0
433 1 2.9498507221460230e-07 1.0066894048318675e+01 8.5347536047386541e-04 7.1323851001781717e+00 0 0 0
354 1 5.7960448559217745e-07 1.3866101945258539e+01 7.5633283337779069e+00 4.4457811593283720e+00 0 0 0
495 1 4.3471557216332457e-07 1.2623090953016606e+01 7.5624748584174499e+00 7.1323851001785448e+00 0 0 0
269 1 7.0121081885789076e-07 3.7816641668894548e+00 7.5633283337784318e+00 4.4457811593309788e+00 0 0 0
370 1 4.2534603330348554e-07 3.7816641668885200e+00 1.5126656667556043e+01 8.0621734112924415e+00 0 -1 0
272 1 -8.4881960610617505e-07 6.3027736114814603e+00 7.5633283337784603e+00 4.4584076688060890e+00 0 0 0
374 1 -4.4678881613004352e-08 1.2605547222965388e+00 7.5633283337781174e+00 8.0035664832482336e+00 0 0 0
367 1 1.1874366641932166e-07 2.5386531746452383e+00 1.5125803192195608e+01 7.1323851001778369e+00 0 -1 0
412 1 5.5756841519710372e-08 5.0246751591319088e+00 7.5641818091385353e+00 7.1323851001782232e+00 0 0 0
256 1 -5.6136857616201228e-07 1.2605547222963411e+00 1.2605547222964072e+01 4.4584076688040364e+00 0 0 0
258 1 4.9939746735694536e-07 1.2605547222962559e+00 1.1344992500667148e+01 5.3555570285599945e+00 0 0 0
259 1 1.5852407346050542e-07 1.2605547222961766e+00 8.8238830560745800e+00 5.3555570285599030e+00 0 0 0
261 1 -1.3820957581341204e-06 1.2605547222968074e+00 1.0084437778370093e+01 4.4584076688042993e+00 0 0 0
262 1 -9.2923397695408239e-07 2.5278054362451687e+00 1.1344461539510625e+01 6.2364179375460154e+00 0 0 0
263 1 -1.0432193051138396e-06 2.5278054362448752e+00 8.8233520949181052e+00 6.2364179375457436e+00 0 0 0
264 1 4.2653502069968166e-07 3.7816641668894464e+00 1.0084437778369725e+01 4.4457811593304868e+00 0 0 0
266 1 2.3154578941144990e-06 3.7816641668884672e+00 8.8238830560748394e+00 5.3500528699015231e+00 0 0 0
270 1 -7.3952358109986980e-07 5.0355228975329425e+00 8.8244140172312928e+00 6.2364179375453848e+00 0 0 0
295 1 1.0638105181405259e-06 1.2605547222963429e+00 1.3866101945259494e+01 5.3555570285598808e+00 0 0 0
296 1 -4.8510321634563469e-07 2.5278054362450191e+00 1.3865570984103222e+01 6.2364179375464737e+00 0 0 0
298 1 2.6336143541886976e-06 3.7816641668886430e+00 1.3866101945259814e+01 5.3500528699020338e+00 0 0 0
299 1 2.3423689691630130e-06 3.7816641668886115e+00 1.1344992500667471e+01 5.3500528699020640e+00 0 0 0
301 1 7.0196587899855402e-07 3.7816641668894255e+00 1.2605547222963967e+01 4.4457811593297372e+00 0 0 0
302 1 -5.1297284179255206e-07 5.0355228975330615e+00 1.3866632906416255e+01 6.2364179375463298e+00 0 0 0
303 1 -7.8453433630843223e-07 5.0355228975329691e+00 1.1345523461823754e+01 6.2364179375457800e+00 0 0 0
304 1 -1.1148746094485594e-06 6.3027736114815012e+00 1.2605547222964088e+01 4.4584076688054788e+00 0 0 0
306 1 6.2885855660091242e-07 6.3027736114818076e+00 1.1344992500667242e+01 5.3555570285593914e+00 0 0 0
307 1 6.5292462001092458e-07 6.3027736114819080e+00 8.8238830560748927e+00 5.3555570285589145e+00 0 0 0
309 1 -1.3109070845770053e-06 6.3027736114811272e+00 1.0084437778370182e+01 4.4584076688059353e+00 0 0 0
333 1 9.7422725460810729e-07 6.3027736114816140e+00 1.3866101945259251e+01 5.3555570285589535e+00 0 0 0
372 1 -8.4917083019613113e-07 5.9122848117595148e-02 8.8787414533656435e+00 9.8756003185372627e+00 0 0 0
398 1 -8.4390705032225499e-07 5.9122848117995563e-02 1.3920960342551231e+01 9.8756003185379466e+00 0 0 0
399 1 -7.3216555647490210e-07 5.9122848117752140e-02 1.1399850897958581e+01 9.8756003185374386e+00 0 0 0
400 1 -4.3856674633663566e-07 1.2605547222965161e+00 1.2605547222963470e+01 8.0035664832484077e+00 0 0 0
402 1 6.4980932661763764e-07 1.2605547222963809e+00 1.1344992500667175e+01 8.8477706090070463e+00 0 0 0
403 1 8.7162640617267975e-07 1.2605547222964699e+00 8.8238830560745019e+00 8.8477706090068899e+00 0 0 0
404 1 -3.2589964294521682e-07 2.5386531746457393e+00 1.0083584303010506e+01 7.1323851001783751e+00 0 0 0
405 1 -4.5101337832735704e-07 1.2605547222964766e+00 1.0084437778369855e+01 8.0035664832485374e+00 0 0 0
406 1 -9.8468295896589653e-07 2.4619865964746284e+00 1.1290134103375852e+01 9.8756003185383303e+00 0 0 0
407 1 -8.7074784872831049e-07 2.4619865964746483e+00 8.7690246587831151e+00 9.8756003185382291e+00 0 0 0
408 1 -4.6661298710413904e-08 3.7816641668886222e+00 1.0084437778371338e+01 8.0621734112914538e+00 0 0 0
410 1 -5.3663380018473712e-07 3.7816641668899416e+00 8.8238830560737842e+00 8.9785025628980062e+00 0 0 0
414 1 -1.6667128890031924e-06 5.1013417373035326e+00 8.8787414533655280e+00 9.8756003185381953e+00 0 0 0
439 1 5.5345150713994206e-07 1.2605547222962914e+00 1.3866101945259715e+01 8.8477706090072843e+00 0 0 0
440 1 -1.1154113821736838e-06 2.4619865964747696e+00 1.3811243547968635e+01 9.8756003185381314e+00 0 0 0
441 1 -4.1933375854408254e-08 2.5386531746456393e+00 1.2604693747603097e+01 7.1323851001781211e+00 0 0 0
442 1 -7.5080669728940526e-08 3.7816641668894642e+00 1.3866101945259889e+01 8.9785025628980222e+00 0 0 0
443 1 -3.5003900907221579e-07 3.7816641668895103e+00 1.1344992500666171e+01 8.9785025628983526e+00 0 0 0
444 1 1.5734489321120869e-07 5.0246751591321503e+00 1.2606400698324109e+01 7.1323851001782756e+00 0 0 0
445 1 3.0276567632482500e-07 3.7816641668887807e+00 1.2605547222963647e+01 8.0621734112917771e+00 0 0 0
446 1 -8.8454163848951010e-07 5.1013417373034509e+00 1.3920960342551204e+01 9.8756003185382539e+00 0 0 0
447 1 -1.1542455239318414e-06 5.1013417373037262e+00 1.1399850897958220e+01 9.8756003185386927e+00 0 0 0
448 1 -1.7146957756694473e-07 6.3027736114829382e+00 1.2605547222963621e+01 8.0035664832480702e+00 0 0 0
449 1 -1.7476433986773128e-07 5.0246751591319345e+00 1.0085291253731555e+01 7.1323851001784648e+00 0 0 0
450 1 5.2398873164427854e-07 6.3027736114816930e+00 1.1344992500667139e+01 8.8477706090073553e+00 0 0 0
451 1 3.0207325431779072e-07 6.3027736114813147e+00 8.8238830560748127e+00 8.8477706090067851e+00 0 0 0
453 1 -4.3330720785032037e-07 6.3027736114827091e+00 1.0084437778369635e+01 8.0035664832481039e+00 0 0 0
454 1 -1.3656302103464593e-06 7.5042054856603251e+00 1.1290134103376190e+01 9.8756003185375647e+00 0 0 0
455 1 -1.2763274274633675e-06 7.5042054856607132e+00 8.7690246587832608e+00 9.8756003185374936e+00 0 0 0
477 1 6.3940295694834560e-07 6.3027736114817055e+00 1.3866101945259635e+01 8.8477706090074353e+00 0 0 0
478 1 -1.4705805829644372e-06 7.5042054856602682e+00 1.3811243547968783e+01 9.8756003185378098e+00 0 0 0
292 1 -1.2564811964556039e-06 1.1344992500667193e+01 1.5126656667556023e+01 4.4584076688048118e+00 0 -1 0
320 1 -9.4000490214280541e-07 1.1344992500667175e+01 7.5633283337786708e+00 4.4584076688049450e+00 0 0 0
438 1 5.0978086096986585e-07 1.3866101945259881e+01 1.5126656667556182e+01 8.0621734112927115e+00 0 -1 0
371 1 1.6603318233467716e-07 1.5109112937503209e+01 7.5641818091386179e+00 7.1323851001780483e+00 -1 0 0
393 1 1.5613820589926637e-07 7.5808720638308120e+00 1.5125803192195541e+01 7.1323851001779435e+00 0 -1 0
397 1 -2.9866977806014548e-07 1.5109112937502911e+01 1.2606400698324171e+01 7.1323851001782970e+00 -1 0 0
401 1 -4.3083208957132061e-07 1.5109112937502886e+01 1.0085291253731485e+01 7.1323851001783138e+00 -1 0 0
479 1 2.9442666010087398e-07 7.5808720638311415e+00 1.2604693747603111e+01 7.1323851001781398e+00 0 0 0
435 1 1.3991102330749055e-07 1.2623090953016566e+01 1.5125803192195836e+01 7.1323851001783201e+00 0 -1 0
228 1 -1.1202496193599557e-06 1.5119960675903975e+01 8.8244140172308700e+00 6.2364179375459745e+00 -1 0 0
254 1 -9.6958032164379298e-07 1.5119960675903892e+01 1.3866632906416259e+01 6.2364179375464559e+00 -1 0 0
255 1 -1.3227660995690103e-06 1.5119960675903837e+01 1.1345523461823600e+01 6.2364179375461282e+00 -1 0 0
310 1 -5.5268972402731005e-07 7.5700243254303645e+00 1.1344461539510643e+01 6.2364179375460900e+00 0 0 0
311 1 -8.1192393248791163e-07 7.5700243254304409e+00 8.8233520949180200e+00 6.2364179375456503e+00 0 0 0
312 1 1.8477841149152006e-07 8.8238830560756796e+00 1.0084437778369349e+01 4.4457811593310215e+00 0 0 0
314 1 1.9894920113855581e-06 8.8238830560744415e+00 8.8238830560745445e+00 5.3500528699022816e+00 0 0 0
318 1 -5.3895126624807084e-07 1.0077741786718393e+01 8.8244140172309855e+00 6.2364179375455278e+00 0 0 0
334 1 -2.1577571082005806e-07 7.5700243254303512e+00 1.3865570984103176e+01 6.2364179375462543e+00 0 0 0
336 1 3.1113683243965121e-06 8.8238830560747132e+00 1.3866101945259572e+01 5.3500528699020089e+00 0 0 0
337 1 2.6382601431150742e-06 8.8238830560745694e+00 1.1344992500667242e+01 5.3500528699029406e+00 0 0 0
339 1 9.3154349942851982e-07 8.8238830560748802e+00 1.2605547222965344e+01 4.4457811593306751e+00 0 0 0
340 1 -1.4788930846847567e-07 1.0077741786718546e+01 1.3866632906416360e+01 6.2364179375463271e+00 0 0 0
341 1 -3.1788758361981368e-07 1.0077741786718382e+01 1.1345523461823694e+01 6.2364179375456654e+00 0 0 0
342 1 -7.0411056620261447e-07 1.1344992500667400e+01 1.2605547222963420e+01 4.4584076688048118e+00 0 0 0
344 1 1.0066460044368319e-06 1.1344992500667262e+01 1.1344992500667360e+01 5.3555570285598684e+00 0 0 0
345 1 9.7309890229606394e-07 1.1344992500667420e+01 8.8238830560750099e+00 5.3555570285596064e+00 0 0 0
347 1 -7.7816342993910831e-07 1.1344992500667308e+01 1.0084437778370503e+01 4.4584076688048926e+00 0 0 0
348 1 -9.4350160380329560e-07 1.2612243214615916e+01 1.1344461539510725e+01 6.2364179375456841e+00 0 0 0
349 1 -5.4319540366009859e-07 1.2612243214616020e+01 8.8233520949179542e+00 6.2364179375456796e+00 0 0 0
350 1 3.2459150677025956e-07 1.3866101945258190e+01 1.0084437778370139e+01 4.4457811593276633e+00 0 0 0
352 1 2.2186450927306526e-06 1.3866101945260011e+01 8.8238830560745214e+00 5.3500528699028473e+00 0 0 0
355 1 8.9185146843280738e-07 1.1344992500667319e+01 1.3866101945259455e+01 5.3555570285596579e+00 0 0 0
356 1 -9.2959917559722476e-07 1.2612243214615876e+01 1.3865570984103446e+01 6.2364179375463804e+00 0 0 0
358 1 1.9197188854186746e-06 1.3866101945260004e+01 1.3866101945259684e+01 5.3500528699026102e+00 0 0 0
359 1 1.8902066018107984e-06 1.3866101945260027e+01 1.1344992500667306e+01 5.3500528699028918e+00 0 0 0
360 1 3.9111570169748631e-07 1.3866101945259084e+01 1.2605547222964944e+01 4.4457811593276491e+00 0 0 0
452 1 1.0386883190523459e-07 7.5808720638312383e+00 1.0083584303010738e+01 7.1323851001781122e+00 0 0 0
456 1 3.3763669774164842e-07 8.8238830560755570e+00 1.0084437778371667e+01 8.0621734112913117e+00 0 0 0
458 1 -1.0067348245122381e-07 8.8238830560737096e+00 8.8238830560742709e+00 8.9785025628976065e+00 0 0 0
460 1 5.6141723477612081e-07 1.0066894048318519e+01 7.5641818091383142e+00 7.1323851001785110e+00 0 0 0
462 1 -1.6855931831388261e-06 1.0143560626488034e+01 8.8787414533654747e+00 9.8756003185379893e+00 0 0 0
480 1 -7.1248630463448341e-07 8.8238830560739370e+00 1.3866101945259858e+01 8.9785025628975106e+00 0 0 0
481 1 -6.1210155199938077e-07 8.8238830560736954e+00 1.1344992500666791e+01 8.9785025628976260e+00 0 0 0
482 1 3.3753621319687022e-07 1.0066894048318225e+01 1.2606400698324196e+01 7.1323851001785927e+00 0 0 0
483 1 1.7078280819432155e-07 8.8238830560751182e+00 1.2605547222963594e+01 8.0621734112918535e+00 0 0 0
484 1 -1.5267358705413142e-06 1.0143560626488133e+01 1.3920960342551444e+01 9.8756003185379129e+00 0 0 0
485 1 -1.8830517713142358e-06 1.0143560626487835e+01 1.1399850897958567e+01 9.8756003185381065e+00 0 0 0
486 1 -2.8072479387150692e-07 1.1344992500665601e+01 1.2605547222963983e+01 8.0035664832459865e+00 0 0 0
487 1 2.1196886297282063e-07 1.0066894048318231e+01 1.0085291253731617e+01 7.1323851001787890e+00 0 0 0
488 1 1.2253561765774927e-07 1.1344992500666811e+01 1.1344992500666976e+01 8.8477706090077017e+00 0 0 0
489 1 7.3999784245321796e-08 1.1344992500666960e+01 8.8238830560743295e+00 8.8477706090075667e+00 0 0 0
490 1 -1.7123494120396980e-07 1.2623090953016790e+01 1.0083584303010547e+01 7.1323851001788716e+00 0 0 0
491 1 -5.7095406018239046e-07 1.1344992500665789e+01 1.0084437778369676e+01 8.0035664832455762e+00 0 0 0
492 1 -1.4544896365316494e-06 1.2546424374846328e+01 1.1290134103375628e+01 9.8756003185386056e+00 0 0 0
493 1 -2.0495821190412432e-06 1.2546424374846096e+01 8.7690246587826959e+00 9.8756003185381811e+00 0 0 0
494 1 -2.7856134854577543e-09 1.3866101945259699e+01 1.0084437778371493e+01 8.0621734112913970e+00 0 0 0
496 1 -5.4020616542250623e-07 1.3866101945260414e+01 8.8238830560742940e+00 8.9785025628977841e+00 0 0 0
499 1 7.4596382829945654e-07 1.1344992500667052e+01 1.3866101945259681e+01 8.8477706090077231e+00 0 0 0
500 1 -6.6543934782978939e-07 1.2546424374845964e+01 1.3811243547968711e+01 9.8756003185384138e+00 0 0 0
501 1 -5.6762114597587348e-08 1.2623090953016742e+01 1.2604693747603378e+01 7.1323851001787073e+00 0 0 0
502 1 2.4521076892642523e-07 1.3866101945260468e+01 1.3866101945259960e+01 8.9785025628976207e+00 0 0 0
503 1 -1.8890604078421590e-07 1.3866101945260857e+01 1.1344992500666788e+01 8.9785025628978197e+00 0 0 0
504 1 3.4062415977449224e-07 1.3866101945259794e+01 1.2605547222963684e+01 8.0621734112918393e+00 0 0 0
505 1 6.5188401331596223e-07 4.6303238346182712e-01 2.5779565091072825e+00 1.0669542967248306e+01 0 0 0
506 1 1.1908964133838551e-06 4.6303238346169345e-01 5.6847064514729498e-02 1.0669542967248152e+01 0 0 0
509 1 8.9958523288430413e-07 4.6303238346167985e-01 5.0990659536996779e+00 1.0669542967248256e+01 0 0 0
510 1 1.1374483496530464e-06 2.0580770611306960e+00 4.9853718246706391e+00 1.0669542967248534e+01 0 0 0
511 1 8.2637428522120142e-07 2.0580770611306844e+00 2.4642623800780878e+00 1.0669542967248397e+01 0 0 0
512 1 1.0553043140410945e-06 5.5052512726469409e+00 2.5779565091072447e+00 1.0669542967248461e+01 0 0 0
513 1 1.3646237769751624e-06 5.5052512726469747e+00 5.6847064514437481e-02 1.0669542967248518e+01 0 0 0
520 1 8.2028162988396048e-07 5.5052512726467508e+00 5.0990659536997045e+00 1.0669542967248567e+01 0 0 0
521 1 1.1309690965663832e-06 7.1002959503165153e+00 4.9853718246703318e+00 1.0669542967248516e+01 0 0 0
530 1 1.0180532471994461e-06 7.1002959503168084e+00 7.5064812692631655e+00 1.0669542967248885e+01 0 0 0
522 1 1.0046267746373313e-06 7.1002959503162906e+00 2.4642623800780994e+00 1.0669542967248434e+01 0 0 0
518 1 1.6344828246335528e-06 2.0580770611309114e+00 7.5064812692632570e+00 1.0669542967248407e+01 0 0 0
523 1 1.2451097802381542e-06 1.0547470161832960e+01 2.5779565091074179e+00 1.0669542967248265e+01 0 0 0
524 1 1.1745478894264310e-06 1.0547470161832974e+01 5.6847064514379181e-02 1.0669542967248429e+01 0 0 0
532 1 1.1424539886832784e-06 1.0547470161832953e+01 5.0990659537002836e+00 1.0669542967248644e+01 0 0 0
533 1 5.8780248431586252e-07 1.2142514839501731e+01 4.9853718246708567e+00 1.0669542967248432e+01 0 0 0
534 1 1.1429424566522494e-06 1.2142514839501803e+01 2.4642623800778667e+00 1.0669542967248157e+01 0 0 0
539 1 2.7568172413903612e-07 1.2142514839501684e+01 7.5064812692634613e+00 1.0669542967248695e+01 0 0 0
507 1 1.1182381596977163e-06 2.0580770611308328e+00 1.5069809603041652e+01 1.0669542967248217e+01 0 -1 0
508 1 1.5494203588493097e-06 4.6303238346136505e-01 7.6201753982923037e+00 1.0669542967248208e+01 0 0 0
514 1 1.0210280753489896e-06 7.1002959503163030e+00 1.5069809603041609e+01 1.0669542967248553e+01 0 -1 0
519 1 6.8759074526118450e-07 5.5052512726464826e+00 7.6201753982926448e+00 1.0669542967248594e+01 0 0 0
515 1 1.6584903290401185e-06 4.6303238346136155e-01 1.2662394287478470e+01 1.0669542967247814e+01 0 0 0
516 1 1.7693130550218814e-06 4.6303238346116499e-01 1.0141284842885787e+01 1.0669542967247898e+01 0 0 0
517 1 1.6769829521316844e-06 2.0580770611311108e+00 1.0027590713856442e+01 1.0669542967248066e+01 0 0 0
526 1 1.4718123522494109e-06 2.0580770611310411e+00 1.2548700158449110e+01 1.0669542967247986e+01 0 0 0
527 1 1.4721774974689048e-06 5.5052512726470324e+00 1.2662394287478168e+01 1.0669542967248534e+01 0 0 0
528 1 1.0301671489384455e-06 5.5052512726467810e+00 1.0141284842885788e+01 1.0669542967248443e+01 0 0 0
529 1 1.0487414800021535e-06 7.1002959503165410e+00 1.0027590713856885e+01 1.0669542967248642e+01 0 0 0
535 1 1.1780586308280535e-06 7.1002959503163146e+00 1.2548700158449163e+01 1.0669542967248482e+01 0 0 0
525 1 1.6237989945489322e-06 1.2142514839501732e+01 1.5069809603041136e+01 1.0669542967248494e+01 0 -1 0
531 1 6.9121078232554249e-07 1.0547470161832882e+01 7.6201753982927460e+00 1.0669542967248789e+01 0 0 0
536 1 7.9290348264848323e-07 1.0547470161832850e+01 1.2662394287478136e+01 1.0669542967248635e+01 0 0 0
537 1 4.1222216703763944e-07 1.0547470161832765e+01 1.0141284842885453e+01 1.0669542967248706e+01 0 0 0
538 1 4.5908170934270298e-07 1.2142514839501697e+01 1.0027590713856101e+01 1.0669542967248786e+01 0 0 0
540 1 1.2520590069476833e-06 1.2142514839501642e+01 1.2548700158448812e+01 1.0669542967248844e+01 0 0 0

Velocities

3 0.0000000000000000e+00 0.0000000000000000e+00 0.0000000000000000e+00
4 0.0000000000000000e+00 0.0000000000000000e+00 0.0000000000000000e+00
7 0.0000000000000000e+00 0.0000000000000000e+00 0.0000000000000000e+00
8 0.0000000000000000e+00 0.0000000000000000e+00 0.0000000000000000e+00
9 0.0000000000000000e+00 0.0000000000000000e+00 0.0000000000000000e+00
10 0.0000000000000000e+00 0.0000000000000000e+00 0.0000000000000000e+00
11 0.0000000000000000e+00 0.0000000000000000e+00 0.0000000000000000e+00
12 0.0000000000000000e+00 0.0000000000000000e+00 0.0000000000000000e+00
13 0.0000000000000000e+00 0.0000000000000000e+00 0.0000000000000000e+00
14 0.0000000000000000e+00 0.0000000000000000e+00 0.0000000000000000e+00
15 0.0000000000000000e+00 0.0000000000000000e+00 0.0000000000000000e+00
24 0.0000000000000000e+00 0.0000000000000000e+00 0.0000000000000000e+00
26 0.0000000000000000e+00 0.0000000000000000e+00 0.0000000000000000e+00
27 0.0000000000000000e+00 0.0000000000000000e+00 0.0000000000000000e+00
28 0.0000000000000000e+00 0.0000000000000000e+00 0.0000000000000000e+00
74 0.0000000000000000e+00 0.0000000000000000e+00 0.0000000000000000e+00
75 0.0000000000000000e+00 0.0000000000000000e+00 0.0000000000000000e+00
76 0.0000000000000000e+00 0.0000000000000000e+00 0.0000000000000000e+00
78 0.0000000000000000e+00 0.0000000000000000e+00 0.0000000000000000e+00
79 0.0000000000000000e+00 0.0000000000000000e+00 0.0000000000000000e+00
81 0.0000000000000000e+00 0.0000000000000000e+00 0.0000000000000000e+00
85 0.0000000000000000e+00 0.0000000000000000e+00 0.0000000000000000e+00
88 0.0000000000000000e+00 0.0000000000000000e+00 0.0000000000000000e+00
89 0.0000000000000000e+00 0.0000000000000000e+00 0.0000000000000000e+00
90 0.0000000000000000e+00 0.0000000000000000e+00 0.0000000000000000e+00
91 0.0000000000000000e+00 0.0000000000000000e+00 0.0000000000000000e+00
92 0.0000000000000000e+00 0.0000000000000000e+00 0.0000000000000000e+00
93 0.0000000000000000e+00 0.0000000000000000e+00 0.0000000000000000e+00
94 0.0000000000000000e+00 0.0000000000000000e+00 0.0000000000000000e+00
95 0.0000000000000000e+00 0.0000000000000000e+00 0.0000000000000000e+00
96 0.0000000000000000e+00 0.0000000000000000e+00 0.0000000000000000e+00
97 0.0000000000000000e+00 0.0000000000000000e+00 0.0000000000000000e+00
98 0.0000000000000000e+00 0.0000000000000000e+00 0.0000000000000000e+00
99 0.0000000000000000e+00 0.0000000000000000e+00 0.0000000000000000e+00
100 0.0000000000000000e+00 0.0000000000000000e+00 0.0000000000000000e+00
101 0.0000000000000000e+00 0.0000000000000000e+00 0.0000000000000000e+00
102 0.0000000000000000e+00 0.0000000000000000e+00 0.0000000000000000e+00
104 0.0000000000000000e+00 0.0000000000000000e+00 0.0000000000000000e+00
123 0.0000000000000000e+00 0.0000000000000000e+00 0.0000000000000000e+00
124 0.0000000000000000e+00 0.0000000000000000e+00 0.0000000000000000e+00
127 0.0000000000000000e+00 0.0000000000000000e+00 0.0000000000000000e+00
129 0.0000000000000000e+00 0.0000000000000000e+00 0.0000000000000000e+00
130 0.0000000000000000e+00 0.0000000000000000e+00 0.0000000000000000e+00
131 0.0000000000000000e+00 0.0000000000000000e+00 0.0000000000000000e+00
133 0.0000000000000000e+00 0.0000000000000000e+00 0.0000000000000000e+00
135 0.0000000000000000e+00 0.0000000000000000e+00 0.0000000000000000e+00
227 0.0000000000000000e+00 0.0000000000000000e+00 0.0000000000000000e+00
234 0.0000000000000000e+00 0.0000000000000000e+00 0.0000000000000000e+00
239 0.0000000000000000e+00 0.0000000000000000e+00 0.0000000000000000e+00
242 0.0000000000000000e+00 0.0000000000000000e+00 0.0000000000000000e+00
249 0.0000000000000000e+00 0.0000000000000000e+00 0.0000000000000000e+00
268 0.0000000000000000e+00 0.0000000000000000e+00 0.0000000000000000e+00
273 0.0000000000000000e+00 0.0000000000000000e+00 0.0000000000000000e+00
107 0.0000000000000000e+00 0.0000000000000000e+00 0.0000000000000000e+00
134 0.0000000000000000e+00 0.0000000000000000e+00 0.0000000000000000e+00
217 0.0000000000000000e+00 0.0000000000000000e+00 0.0000000000000000e+00
231 0.0000000000000000e+00 0.0000000000000000e+00 0.0000000000000000e+00
276 0.0000000000000000e+00 0.0000000000000000e+00 0.0000000000000000e+00
281 0.0000000000000000e+00 0.0000000000000000e+00 0.0000000000000000e+00
223 0.0000000000000000e+00 0.0000000000000000e+00 0.0000000000000000e+00
1 0.0000000000000000e+00 0.0000000000000000e+00 0.0000000000000000e+00
2 0.0000000000000000e+00 0.0000000000000000e+00 0.0000000000000000e+00
6 0.0000000000000000e+00 0.0000000000000000e+00 0.0000000000000000e+00
30 0.0000000000000000e+00 0.0000000000000000e+00 0.0000000000000000e+00
16 0.0000000000000000e+00 0.0000000000000000e+00 0.0000000000000000e+00
29 0.0000000000000000e+00 0.0000000000000000e+00 0.0000000000000000e+00
73 0.0000000000000000e+00 0.0000000000000000e+00 0.0000000000000000e+00
83 0.0000000000000000e+00 0.0000000000000000e+00 0.0000000000000000e+00
87 0.0000000000000000e+00 0.0000000000000000e+00 0.0000000000000000e+00
105 0.0000000000000000e+00 0.0000000000000000e+00 0.0000000000000000e+00
132 0.0000000000000000e+00 0.0000000000000000e+00 0.0000000000000000e+00
31 0.0000000000000000e+00 0.0000000000000000e+00 0.0000000000000000e+00
32 0.0000000000000000e+00 0.0000000000000000e+00 0.0000000000000000e+00
33 0.0000000000000000e+00 0.0000000000000000e+00 0.0000000000000000e+00
34 0.0000000000000000e+00 0.0000000000000000e+00 0.0000000000000000e+00
35 0.0000000000000000e+00 0.0000000000000000e+00 0.0000000000000000e+00
36 0.0000000000000000e+00 0.0000000000000000e+00 0.0000000000000000e+00
48 0.0000000000000000e+00 0.0000000000000000e+00 0.0000000000000000e+00
50 0.0000000000000000e+00 0.0000000000000000e+00 0.0000000000000000e+00
51 0.0000000000000000e+00 0.0000000000000000e+00 0.0000000000000000e+00
52 0.0000000000000000e+00 0.0000000000000000e+00 0.0000000000000000e+00
53 0.0000000000000000e+00 0.0000000000000000e+00 0.0000000000000000e+00
54 0.0000000000000000e+00 0.0000000000000000e+00 0.0000000000000000e+00
55 0.0000000000000000e+00 0.0000000000000000e+00 0.0000000000000000e+00
56 0.0000000000000000e+00 0.0000000000000000e+00 0.0000000000000000e+00
68 0.0000000000000000e+00 0.0000000000000000e+00 0.0000000000000000e+00
136 0.0000000000000000e+00 0.0000000000000000e+00 0.0000000000000000e+00
137 0.0000000000000000e+00 0.0000000000000000e+00 0.0000000000000000e+00
138 0.0000000000000000e+00 0.0000000000000000e+00 0.0000000000000000e+00
139 0.0000000000000000e+00 0.0000000000000000e+00 0.0000000000000000e+00
140 0.0000000000000000e+00 0.0000000000000000e+00 0.0000000000000000e+00
141 0.0000000000000000e+00 0.0000000000000000e+00 0.0000000000000000e+00
142 0.0000000000000000e+00 0.0000000000000000e+00 0.0000000000000000e+00
143 0.0000000000000000e+00 0.0000000000000000e+00 0.0000000000000000e+00
144 0.0000000000000000e+00 0.0000000000000000e+00 0.0000000000000000e+00
146 0.0000000000000000e+00 0.0000000000000000e+00 0.0000000000000000e+00
149 0.0000000000000000e+00 0.0000000000000000e+00 0.0000000000000000e+00
171 0.0000000000000000e+00 0.0000000000000000e+00 0.0000000000000000e+00
175 0.0000000000000000e+00 0.0000000000000000e+00 0.0000000000000000e+00
177 0.0000000000000000e+00 0.0000000000000000e+00 0.0000000000000000e+00
178 0.0000000000000000e+00 0.0000000000000000e+00 0.0000000000000000e+00
179 0.0000000000000000e+00 0.0000000000000000e+00 0.0000000000000000e+00
180 0.0000000000000000e+00 0.0000000000000000e+00 0.0000000000000000e+00
181 0.0000000000000000e+00 0.0000000000000000e+00 0.0000000000000000e+00
182 0.0000000000000000e+00 0.0000000000000000e+00 0.0000000000000000e+00
183 0.0000000000000000e+00 0.0000000000000000e+00 0.0000000000000000e+00
184 0.0000000000000000e+00 0.0000000000000000e+00 0.0000000000000000e+00
185 0.0000000000000000e+00 0.0000000000000000e+00 0.0000000000000000e+00
186 0.0000000000000000e+00 0.0000000000000000e+00 0.0000000000000000e+00
187 0.0000000000000000e+00 0.0000000000000000e+00 0.0000000000000000e+00
188 0.0000000000000000e+00 0.0000000000000000e+00 0.0000000000000000e+00
209 0.0000000000000000e+00 0.0000000000000000e+00 0.0000000000000000e+00
284 0.0000000000000000e+00 0.0000000000000000e+00 0.0000000000000000e+00
321 0.0000000000000000e+00 0.0000000000000000e+00 0.0000000000000000e+00
324 0.0000000000000000e+00 0.0000000000000000e+00 0.0000000000000000e+00
329 0.0000000000000000e+00 0.0000000000000000e+00 0.0000000000000000e+00
172 0.0000000000000000e+00 0.0000000000000000e+00 0.0000000000000000e+00
316 0.0000000000000000e+00 0.0000000000000000e+00 0.0000000000000000e+00
147 0.0000000000000000e+00 0.0000000000000000e+00 0.0000000000000000e+00
173 0.0000000000000000e+00 0.0000000000000000e+00 0.0000000000000000e+00
176 0.0000000000000000e+00 0.0000000000000000e+00 0.0000000000000000e+00
291 0.0000000000000000e+00 0.0000000000000000e+00 0.0000000000000000e+00
210 0.0000000000000000e+00 0.0000000000000000e+00 0.0000000000000000e+00
80 0.0000000000000000e+00 0.0000000000000000e+00 0.0000000000000000e+00
103 0.0000000000000000e+00 0.0000000000000000e+00 0.0000000000000000e+00
247 0.0000000000000000e+00 0.0000000000000000e+00 0.0000000000000000e+00
121 0.0000000000000000e+00 0.0000000000000000e+00 0.0000000000000000e+00
265 0.0000000000000000e+00 0.0000000000000000e+00 0.0000000000000000e+00
313 0.0000000000000000e+00 0.0000000000000000e+00 0.0000000000000000e+00
82 0.0000000000000000e+00 0.0000000000000000e+00 0.0000000000000000e+00
106 0.0000000000000000e+00 0.0000000000000000e+00 0.0000000000000000e+00
125 0.0000000000000000e+00 0.0000000000000000e+00 0.0000000000000000e+00
19 0.0000000000000000e+00 0.0000000000000000e+00 0.0000000000000000e+00
20 0.0000000000000000e+00 0.0000000000000000e+00 0.0000000000000000e+00
21 0.0000000000000000e+00 0.0000000000000000e+00 0.0000000000000000e+00
22 0.0000000000000000e+00 0.0000000000000000e+00 0.0000000000000000e+00
23 0.0000000000000000e+00 0.0000000000000000e+00 0.0000000000000000e+00
25 0.0000000000000000e+00 0.0000000000000000e+00 0.0000000000000000e+00
37 0.0000000000000000e+00 0.0000000000000000e+00 0.0000000000000000e+00
38 0.0000000000000000e+00 0.0000000000000000e+00 0.0000000000000000e+00
39 0.0000000000000000e+00 0.0000000000000000e+00 0.0000000000000000e+00
40 0.0000000000000000e+00 0.0000000000000000e+00 0.0000000000000000e+00
41 0.0000000000000000e+00 0.0000000000000000e+00 0.0000000000000000e+00
42 0.0000000000000000e+00 0.0000000000000000e+00 0.0000000000000000e+00
43 0.0000000000000000e+00 0.0000000000000000e+00 0.0000000000000000e+00
44 0.0000000000000000e+00 0.0000000000000000e+00 0.0000000000000000e+00
57 0.0000000000000000e+00 0.0000000000000000e+00 0.0000000000000000e+00
84 0.0000000000000000e+00 0.0000000000000000e+00 0.0000000000000000e+00
86 0.0000000000000000e+00 0.0000000000000000e+00 0.0000000000000000e+00
110 0.0000000000000000e+00 0.0000000000000000e+00 0.0000000000000000e+00
111 0.0000000000000000e+00 0.0000000000000000e+00 0.0000000000000000e+00
112 0.0000000000000000e+00 0.0000000000000000e+00 0.0000000000000000e+00
114 0.0000000000000000e+00 0.0000000000000000e+00 0.0000000000000000e+00
115 0.0000000000000000e+00 0.0000000000000000e+00 0.0000000000000000e+00
116 0.0000000000000000e+00 0.0000000000000000e+00 0.0000000000000000e+00
117 0.0000000000000000e+00 0.0000000000000000e+00 0.0000000000000000e+00
118 0.0000000000000000e+00 0.0000000000000000e+00 0.0000000000000000e+00
119 0.0000000000000000e+00 0.0000000000000000e+00 0.0000000000000000e+00
120 0.0000000000000000e+00 0.0000000000000000e+00 0.0000000000000000e+00
122 0.0000000000000000e+00 0.0000000000000000e+00 0.0000000000000000e+00
126 0.0000000000000000e+00 0.0000000000000000e+00 0.0000000000000000e+00
128 0.0000000000000000e+00 0.0000000000000000e+00 0.0000000000000000e+00
151 0.0000000000000000e+00 0.0000000000000000e+00 0.0000000000000000e+00
152 0.0000000000000000e+00 0.0000000000000000e+00 0.0000000000000000e+00
153 0.0000000000000000e+00 0.0000000000000000e+00 0.0000000000000000e+00
154 0.0000000000000000e+00 0.0000000000000000e+00 0.0000000000000000e+00
155 0.0000000000000000e+00 0.0000000000000000e+00 0.0000000000000000e+00
156 0.0000000000000000e+00 0.0000000000000000e+00 0.0000000000000000e+00
157 0.0000000000000000e+00 0.0000000000000000e+00 0.0000000000000000e+00
158 0.0000000000000000e+00 0.0000000000000000e+00 0.0000000000000000e+00
159 0.0000000000000000e+00 0.0000000000000000e+00 0.0000000000000000e+00
160 0.0000000000000000e+00 0.0000000000000000e+00 0.0000000000000000e+00
161 0.0000000000000000e+00 0.0000000000000000e+00 0.0000000000000000e+00
162 0.0000000000000000e+00 0.0000000000000000e+00 0.0000000000000000e+00
163 0.0000000000000000e+00 0.0000000000000000e+00 0.0000000000000000e+00
165 0.0000000000000000e+00 0.0000000000000000e+00 0.0000000000000000e+00
166 0.0000000000000000e+00 0.0000000000000000e+00 0.0000000000000000e+00
167 0.0000000000000000e+00 0.0000000000000000e+00 0.0000000000000000e+00
189 0.0000000000000000e+00 0.0000000000000000e+00 0.0000000000000000e+00
260 0.0000000000000000e+00 0.0000000000000000e+00 0.0000000000000000e+00
297 0.0000000000000000e+00 0.0000000000000000e+00 0.0000000000000000e+00
300 0.0000000000000000e+00 0.0000000000000000e+00 0.0000000000000000e+00
305 0.0000000000000000e+00 0.0000000000000000e+00 0.0000000000000000e+00
190 0.0000000000000000e+00 0.0000000000000000e+00 0.0000000000000000e+00
221 0.0000000000000000e+00 0.0000000000000000e+00 0.0000000000000000e+00
253 0.0000000000000000e+00 0.0000000000000000e+00 0.0000000000000000e+00
257 0.0000000000000000e+00 0.0000000000000000e+00 0.0000000000000000e+00
308 0.0000000000000000e+00 0.0000000000000000e+00 0.0000000000000000e+00
335 0.0000000000000000e+00 0.0000000000000000e+00 0.0000000000000000e+00
77 0.0000000000000000e+00 0.0000000000000000e+00 0.0000000000000000e+00
169 0.0000000000000000e+00 0.0000000000000000e+00 0.0000000000000000e+00
145 0.0000000000000000e+00 0.0000000000000000e+00 0.0000000000000000e+00
289 0.0000000000000000e+00 0.0000000000000000e+00 0.0000000000000000e+00
207 0.0000000000000000e+00 0.0000000000000000e+00 0.0000000000000000e+00
351 0.0000000000000000e+00 0.0000000000000000e+00 0.0000000000000000e+00
45 0.0000000000000000e+00 0.0000000000000000e+00 0.0000000000000000e+00
46 0.0000000000000000e+00 0.0000000000000000e+00 0.0000000000000000e+00
58 0.0000000000000000e+00 0.0000000000000000e+00 0.0000000000000000e+00
108 0.0000000000000000e+00 0.0000000000000000e+00 0.0000000000000000e+00
148 0.0000000000000000e+00 0.0000000000000000e+00 0.0000000000000000e+00
150 0.0000000000000000e+00 0.0000000000000000e+00 0.0000000000000000e+00
5 0.0000000000000000e+00 0.0000000000000000e+00 0.0000000000000000e+00
17 0.0000000000000000e+00 0.0000000000000000e+00 0.0000000000000000e+00
18 0.0000000000000000e+00 0.0000000000000000e+00 0.0000000000000000e+00
109 0.0000000000000000e+00 0.0000000000000000e+00 0.0000000000000000e+00
113 0.0000000000000000e+00 0.0000000000000000e+00 0.0000000000000000e+00
47 0.0000000000000000e+00 0.0000000000000000e+00 0.0000000000000000e+00
49 0.0000000000000000e+00 0.0000000000000000e+00 0.0000000000000000e+00
59 0.0000000000000000e+00 0.0000000000000000e+00 0.0000000000000000e+00
60 0.0000000000000000e+00 0.0000000000000000e+00 0.0000000000000000e+00
61 0.0000000000000000e+00 0.0000000000000000e+00 0.0000000000000000e+00
62 0.0000000000000000e+00 0.0000000000000000e+00 0.0000000000000000e+00
63 0.0000000000000000e+00 0.0000000000000000e+00 0.0000000000000000e+00
64 0.0000000000000000e+00 0.0000000000000000e+00 0.0000000000000000e+00
65 0.0000000000000000e+00 0.0000000000000000e+00 0.0000000000000000e+00
66 0.0000000000000000e+00 0.0000000000000000e+00 0.0000000000000000e+00
67 0.0000000000000000e+00 0.0000000000000000e+00 0.0000000000000000e+00
69 0.0000000000000000e+00 0.0000000000000000e+00 0.0000000000000000e+00
70 0.0000000000000000e+00 0.0000000000000000e+00 0.0000000000000000e+00
71 0.0000000000000000e+00 0.0000000000000000e+00 0.0000000000000000e+00
72 0.0000000000000000e+00 0.0000000000000000e+00 0.0000000000000000e+00
164 0.0000000000000000e+00 0.0000000000000000e+00 0.0000000000000000e+00
168 0.0000000000000000e+00 0.0000000000000000e+00 0.0000000000000000e+00
170 0.0000000000000000e+00 0.0000000000000000e+00 0.0000000000000000e+00
174 0.0000000000000000e+00 0.0000000000000000e+00 0.0000000000000000e+00
191 0.0000000000000000e+00 0.0000000000000000e+00 0.0000000000000000e+00
192 0.0000000000000000e+00 0.0000000000000000e+00 0.0000000000000000e+00
193 0.0000000000000000e+00 0.0000000000000000e+00 0.0000000000000000e+00
194 0.0000000000000000e+00 0.0000000000000000e+00 0.0000000000000000e+00
195 0.0000000000000000e+00 0.0000000000000000e+00 0.0000000000000000e+00
196 0.0000000000000000e+00 0.0000000000000000e+00 0.0000000000000000e+00
197 0.0000000000000000e+00 0.0000000000000000e+00 0.0000000000000000e+00
198 0.0000000000000000e+00 0.0000000000000000e+00 0.0000000000000000e+00
199 0.0000000000000000e+00 0.0000000000000000e+00 0.0000000000000000e+00
200 0.0000000000000000e+00 0.0000000000000000e+00 0.0000000000000000e+00
201 0.0000000000000000e+00 0.0000000000000000e+00 0.0000000000000000e+00
202 0.0000000000000000e+00 0.0000000000000000e+00 0.0000000000000000e+00
203 0.0000000000000000e+00 0.0000000000000000e+00 0.0000000000000000e+00
204 0.0000000000000000e+00 0.0000000000000000e+00 0.0000000000000000e+00
205 0.0000000000000000e+00 0.0000000000000000e+00 0.0000000000000000e+00
206 0.0000000000000000e+00 0.0000000000000000e+00 0.0000000000000000e+00
208 0.0000000000000000e+00 0.0000000000000000e+00 0.0000000000000000e+00
211 0.0000000000000000e+00 0.0000000000000000e+00 0.0000000000000000e+00
212 0.0000000000000000e+00 0.0000000000000000e+00 0.0000000000000000e+00
213 0.0000000000000000e+00 0.0000000000000000e+00 0.0000000000000000e+00
214 0.0000000000000000e+00 0.0000000000000000e+00 0.0000000000000000e+00
215 0.0000000000000000e+00 0.0000000000000000e+00 0.0000000000000000e+00
216 0.0000000000000000e+00 0.0000000000000000e+00 0.0000000000000000e+00
338 0.0000000000000000e+00 0.0000000000000000e+00 0.0000000000000000e+00
343 0.0000000000000000e+00 0.0000000000000000e+00 0.0000000000000000e+00
346 0.0000000000000000e+00 0.0000000000000000e+00 0.0000000000000000e+00
357 0.0000000000000000e+00 0.0000000000000000e+00 0.0000000000000000e+00
220 0.0000000000000000e+00 0.0000000000000000e+00 0.0000000000000000e+00
222 0.0000000000000000e+00 0.0000000000000000e+00 0.0000000000000000e+00
224 0.0000000000000000e+00 0.0000000000000000e+00 0.0000000000000000e+00
225 0.0000000000000000e+00 0.0000000000000000e+00 0.0000000000000000e+00
226 0.0000000000000000e+00 0.0000000000000000e+00 0.0000000000000000e+00
232 0.0000000000000000e+00 0.0000000000000000e+00 0.0000000000000000e+00
233 0.0000000000000000e+00 0.0000000000000000e+00 0.0000000000000000e+00
235 0.0000000000000000e+00 0.0000000000000000e+00 0.0000000000000000e+00
236 0.0000000000000000e+00 0.0000000000000000e+00 0.0000000000000000e+00
237 0.0000000000000000e+00 0.0000000000000000e+00 0.0000000000000000e+00
238 0.0000000000000000e+00 0.0000000000000000e+00 0.0000000000000000e+00
240 0.0000000000000000e+00 0.0000000000000000e+00 0.0000000000000000e+00
241 0.0000000000000000e+00 0.0000000000000000e+00 0.0000000000000000e+00
243 0.0000000000000000e+00 0.0000000000000000e+00 0.0000000000000000e+00
244 0.0000000000000000e+00 0.0000000000000000e+00 0.0000000000000000e+00
245 0.0000000000000000e+00 0.0000000000000000e+00 0.0000000000000000e+00
246 0.0000000000000000e+00 0.0000000000000000e+00 0.0000000000000000e+00
248 0.0000000000000000e+00 0.0000000000000000e+00 0.0000000000000000e+00
267 0.0000000000000000e+00 0.0000000000000000e+00 0.0000000000000000e+00
271 0.0000000000000000e+00 0.0000000000000000e+00 0.0000000000000000e+00
274 0.0000000000000000e+00 0.0000000000000000e+00 0.0000000000000000e+00
275 0.0000000000000000e+00 0.0000000000000000e+00 0.0000000000000000e+00
277 0.0000000000000000e+00 0.0000000000000000e+00 0.0000000000000000e+00
362 0.0000000000000000e+00 0.0000000000000000e+00 0.0000000000000000e+00
363 0.0000000000000000e+00 0.0000000000000000e+00 0.0000000000000000e+00
364 0.0000000000000000e+00 0.0000000000000000e+00 0.0000000000000000e+00
366 0.0000000000000000e+00 0.0000000000000000e+00 0.0000000000000000e+00
368 0.0000000000000000e+00 0.0000000000000000e+00 0.0000000000000000e+00
369 0.0000000000000000e+00 0.0000000000000000e+00 0.0000000000000000e+00
373 0.0000000000000000e+00 0.0000000000000000e+00 0.0000000000000000e+00
376 0.0000000000000000e+00 0.0000000000000000e+00 0.0000000000000000e+00
377 0.0000000000000000e+00 0.0000000000000000e+00 0.0000000000000000e+00
378 0.0000000000000000e+00 0.0000000000000000e+00 0.0000000000000000e+00
379 0.0000000000000000e+00 0.0000000000000000e+00 0.0000000000000000e+00
380 0.0000000000000000e+00 0.0000000000000000e+00 0.0000000000000000e+00
381 0.0000000000000000e+00 0.0000000000000000e+00 0.0000000000000000e+00
382 0.0000000000000000e+00 0.0000000000000000e+00 0.0000000000000000e+00
383 0.0000000000000000e+00 0.0000000000000000e+00 0.0000000000000000e+00
384 0.0000000000000000e+00 0.0000000000000000e+00 0.0000000000000000e+00
385 0.0000000000000000e+00 0.0000000000000000e+00 0.0000000000000000e+00
386 0.0000000000000000e+00 0.0000000000000000e+00 0.0000000000000000e+00
387 0.0000000000000000e+00 0.0000000000000000e+00 0.0000000000000000e+00
388 0.0000000000000000e+00 0.0000000000000000e+00 0.0000000000000000e+00
389 0.0000000000000000e+00 0.0000000000000000e+00 0.0000000000000000e+00
390 0.0000000000000000e+00 0.0000000000000000e+00 0.0000000000000000e+00
392 0.0000000000000000e+00 0.0000000000000000e+00 0.0000000000000000e+00
394 0.0000000000000000e+00 0.0000000000000000e+00 0.0000000000000000e+00
411 0.0000000000000000e+00 0.0000000000000000e+00 0.0000000000000000e+00
413 0.0000000000000000e+00 0.0000000000000000e+00 0.0000000000000000e+00
415 0.0000000000000000e+00 0.0000000000000000e+00 0.0000000000000000e+00
417 0.0000000000000000e+00 0.0000000000000000e+00 0.0000000000000000e+00
418 0.0000000000000000e+00 0.0000000000000000e+00 0.0000000000000000e+00
419 0.0000000000000000e+00 0.0000000000000000e+00 0.0000000000000000e+00
421 0.0000000000000000e+00 0.0000000000000000e+00 0.0000000000000000e+00
423 0.0000000000000000e+00 0.0000000000000000e+00 0.0000000000000000e+00
395 0.0000000000000000e+00 0.0000000000000000e+00 0.0000000000000000e+00
422 0.0000000000000000e+00 0.0000000000000000e+00 0.0000000000000000e+00
416 0.0000000000000000e+00 0.0000000000000000e+00 0.0000000000000000e+00
250 0.0000000000000000e+00 0.0000000000000000e+00 0.0000000000000000e+00
391 0.0000000000000000e+00 0.0000000000000000e+00 0.0000000000000000e+00
230 0.0000000000000000e+00 0.0000000000000000e+00 0.0000000000000000e+00
409 0.0000000000000000e+00 0.0000000000000000e+00 0.0000000000000000e+00
361 0.0000000000000000e+00 0.0000000000000000e+00 0.0000000000000000e+00
375 0.0000000000000000e+00 0.0000000000000000e+00 0.0000000000000000e+00
420 0.0000000000000000e+00 0.0000000000000000e+00 0.0000000000000000e+00
425 0.0000000000000000e+00 0.0000000000000000e+00 0.0000000000000000e+00
218 0.0000000000000000e+00 0.0000000000000000e+00 0.0000000000000000e+00
219 0.0000000000000000e+00 0.0000000000000000e+00 0.0000000000000000e+00
229 0.0000000000000000e+00 0.0000000000000000e+00 0.0000000000000000e+00
279 0.0000000000000000e+00 0.0000000000000000e+00 0.0000000000000000e+00
251 0.0000000000000000e+00 0.0000000000000000e+00 0.0000000000000000e+00
278 0.0000000000000000e+00 0.0000000000000000e+00 0.0000000000000000e+00
280 0.0000000000000000e+00 0.0000000000000000e+00 0.0000000000000000e+00
282 0.0000000000000000e+00 0.0000000000000000e+00 0.0000000000000000e+00
283 0.0000000000000000e+00 0.0000000000000000e+00 0.0000000000000000e+00
285 0.0000000000000000e+00 0.0000000000000000e+00 0.0000000000000000e+00
286 0.0000000000000000e+00 0.0000000000000000e+00 0.0000000000000000e+00
287 0.0000000000000000e+00 0.0000000000000000e+00 0.0000000000000000e+00
288 0.0000000000000000e+00 0.0000000000000000e+00 0.0000000000000000e+00
290 0.0000000000000000e+00 0.0000000000000000e+00 0.0000000000000000e+00
293 0.0000000000000000e+00 0.0000000000000000e+00 0.0000000000000000e+00
294 0.0000000000000000e+00 0.0000000000000000e+00 0.0000000000000000e+00
315 0.0000000000000000e+00 0.0000000000000000e+00 0.0000000000000000e+00
317 0.0000000000000000e+00 0.0000000000000000e+00 0.0000000000000000e+00
319 0.0000000000000000e+00 0.0000000000000000e+00 0.0000000000000000e+00
322 0.0000000000000000e+00 0.0000000000000000e+00 0.0000000000000000e+00
323 0.0000000000000000e+00 0.0000000000000000e+00 0.0000000000000000e+00
325 0.0000000000000000e+00 0.0000000000000000e+00 0.0000000000000000e+00
326 0.0000000000000000e+00 0.0000000000000000e+00 0.0000000000000000e+00
327 0.0000000000000000e+00 0.0000000000000000e+00 0.0000000000000000e+00
328 0.0000000000000000e+00 0.0000000000000000e+00 0.0000000000000000e+00
330 0.0000000000000000e+00 0.0000000000000000e+00 0.0000000000000000e+00
331 0.0000000000000000e+00 0.0000000000000000e+00 0.0000000000000000e+00
332 0.0000000000000000e+00 0.0000000000000000e+00 0.0000000000000000e+00
353 0.0000000000000000e+00 0.0000000000000000e+00 0.0000000000000000e+00
396 0.0000000000000000e+00 0.0000000000000000e+00 0.0000000000000000e+00
424 0.0000000000000000e+00 0.0000000000000000e+00 0.0000000000000000e+00
426 0.0000000000000000e+00 0.0000000000000000e+00 0.0000000000000000e+00
427 0.0000000000000000e+00 0.0000000000000000e+00 0.0000000000000000e+00
428 0.0000000000000000e+00 0.0000000000000000e+00 0.0000000000000000e+00
429 0.0000000000000000e+00 0.0000000000000000e+00 0.0000000000000000e+00
430 0.0000000000000000e+00 0.0000000000000000e+00 0.0000000000000000e+00
431 0.0000000000000000e+00 0.0000000000000000e+00 0.0000000000000000e+00
432 0.0000000000000000e+00 0.0000000000000000e+00 0.0000000000000000e+00
434 0.0000000000000000e+00 0.0000000000000000e+00 0.0000000000000000e+00
436 0.0000000000000000e+00 0.0000000000000000e+00 0.0000000000000000e+00
437 0.0000000000000000e+00 0.0000000000000000e+00 0.0000000000000000e+00
459 0.0000000000000000e+00 0.0000000000000000e+00 0.0000000000000000e+00
461 0.0000000000000000e+00 0.0000000000000000e+00 0.0000000000000000e+00
463 0.0000000000000000e+00 0.0000000000000000e+00 0.0000000000000000e+00
464 0.0000000000000000e+00 0.0000000000000000e+00 0.0000000000000000e+00
465 0.0000000000000000e+00 0.0000000000000000e+00 0.0000000000000000e+00
466 0.0000000000000000e+00 0.0000000000000000e+00 0.0000000000000000e+00
467 0.0000000000000000e+00 0.0000000000000000e+00 0.0000000000000000e+00
468 0.0000000000000000e+00 0.0000000000000000e+00 0.0000000000000000e+00
469 0.0000000000000000e+00 0.0000000000000000e+00 0.0000000000000000e+00
470 0.0000000000000000e+00 0.0000000000000000e+00 0.0000000000000000e+00
471 0.0000000000000000e+00 0.0000000000000000e+00 0.0000000000000000e+00
472 0.0000000000000000e+00 0.0000000000000000e+00 0.0000000000000000e+00
473 0.0000000000000000e+00 0.0000000000000000e+00 0.0000000000000000e+00
474 0.0000000000000000e+00 0.0000000000000000e+00 0.0000000000000000e+00
475 0.0000000000000000e+00 0.0000000000000000e+00 0.0000000000000000e+00
476 0.0000000000000000e+00 0.0000000000000000e+00 0.0000000000000000e+00
497 0.0000000000000000e+00 0.0000000000000000e+00 0.0000000000000000e+00
498 0.0000000000000000e+00 0.0000000000000000e+00 0.0000000000000000e+00
365 0.0000000000000000e+00 0.0000000000000000e+00 0.0000000000000000e+00
457 0.0000000000000000e+00 0.0000000000000000e+00 0.0000000000000000e+00
252 0.0000000000000000e+00 0.0000000000000000e+00 0.0000000000000000e+00
433 0.0000000000000000e+00 0.0000000000000000e+00 0.0000000000000000e+00
354 0.0000000000000000e+00 0.0000000000000000e+00 0.0000000000000000e+00
495 0.0000000000000000e+00 0.0000000000000000e+00 0.0000000000000000e+00
269 0.0000000000000000e+00 0.0000000000000000e+00 0.0000000000000000e+00
370 0.0000000000000000e+00 0.0000000000000000e+00 0.0000000000000000e+00
272 0.0000000000000000e+00 0.0000000000000000e+00 0.0000000000000000e+00
374 0.0000000000000000e+00 0.0000000000000000e+00 0.0000000000000000e+00
367 0.0000000000000000e+00 0.0000000000000000e+00 0.0000000000000000e+00
412 0.0000000000000000e+00 0.0000000000000000e+00 0.0000000000000000e+00
256 0.0000000000000000e+00 0.0000000000000000e+00 0.0000000000000000e+00
258 0.0000000000000000e+00 0.0000000000000000e+00 0.0000000000000000e+00
259 0.0000000000000000e+00 0.0000000000000000e+00 0.0000000000000000e+00
261 0.0000000000000000e+00 0.0000000000000000e+00 0.0000000000000000e+00
262 0.0000000000000000e+00 0.0000000000000000e+00 0.0000000000000000e+00
263 0.0000000000000000e+00 0.0000000000000000e+00 0.0000000000000000e+00
264 0.0000000000000000e+00 0.0000000000000000e+00 0.0000000000000000e+00
266 0.0000000000000000e+00 0.0000000000000000e+00 0.0000000000000000e+00
270 0.0000000000000000e+00 0.0000000000000000e+00 0.0000000000000000e+00
295 0.0000000000000000e+00 0.0000000000000000e+00 0.0000000000000000e+00
296 0.0000000000000000e+00 0.0000000000000000e+00 0.0000000000000000e+00
298 0.0000000000000000e+00 0.0000000000000000e+00 0.0000000000000000e+00
299 0.0000000000000000e+00 0.0000000000000000e+00 0.0000000000000000e+00
301 0.0000000000000000e+00 0.0000000000000000e+00 0.0000000000000000e+00
302 0.0000000000000000e+00 0.0000000000000000e+00 0.0000000000000000e+00
303 0.0000000000000000e+00 0.0000000000000000e+00 0.0000000000000000e+00
304 0.0000000000000000e+00 0.0000000000000000e+00 0.0000000000000000e+00
306 0.0000000000000000e+00 0.0000000000000000e+00 0.0000000000000000e+00
307 0.0000000000000000e+00 0.0000000000000000e+00 0.0000000000000000e+00
309 0.0000000000000000e+00 0.0000000000000000e+00 0.0000000000000000e+00
333 0.0000000000000000e+00 0.0000000000000000e+00 0.0000000000000000e+00
372 0.0000000000000000e+00 0.0000000000000000e+00 0.0000000000000000e+00
398 0.0000000000000000e+00 0.0000000000000000e+00 0.0000000000000000e+00
399 0.0000000000000000e+00 0.0000000000000000e+00 0.0000000000000000e+00
400 0.0000000000000000e+00 0.0000000000000000e+00 0.0000000000000000e+00
402 0.0000000000000000e+00 0.0000000000000000e+00 0.0000000000000000e+00
403 0.0000000000000000e+00 0.0000000000000000e+00 0.0000000000000000e+00
404 0.0000000000000000e+00 0.0000000000000000e+00 0.0000000000000000e+00
405 0.0000000000000000e+00 0.0000000000000000e+00 0.0000000000000000e+00
406 0.0000000000000000e+00 0.0000000000000000e+00 0.0000000000000000e+00
407 0.0000000000000000e+00 0.0000000000000000e+00 0.0000000000000000e+00
408 0.0000000000000000e+00 0.0000000000000000e+00 0.0000000000000000e+00
410 0.0000000000000000e+00 0.0000000000000000e+00 0.0000000000000000e+00
414 0.0000000000000000e+00 0.0000000000000000e+00 0.0000000000000000e+00
439 0.0000000000000000e+00 0.0000000000000000e+00 0.0000000000000000e+00
440 0.0000000000000000e+00 0.0000000000000000e+00 0.0000000000000000e+00
441 0.0000000000000000e+00 0.0000000000000000e+00 0.0000000000000000e+00
442 0.0000000000000000e+00 0.0000000000000000e+00 0.0000000000000000e+00
443 0.0000000000000000e+00 0.0000000000000000e+00 0.0000000000000000e+00
444 0.0000000000000000e+00 0.0000000000000000e+00 0.0000000000000000e+00
445 0.0000000000000000e+00 0.0000000000000000e+00 0.0000000000000000e+00
446 0.0000000000000000e+00 0.0000000000000000e+00 0.0000000000000000e+00
447 0.0000000000000000e+00 0.0000000000000000e+00 0.0000000000000000e+00
448 0.0000000000000000e+00 0.0000000000000000e+00 0.0000000000000000e+00
449 0.0000000000000000e+00 0.0000000000000000e+00 0.0000000000000000e+00
450 0.0000000000000000e+00 0.0000000000000000e+00 0.0000000000000000e+00
451 0.0000000000000000e+00 0.0000000000000000e+00 0.0000000000000000e+00
453 0.0000000000000000e+00 0.0000000000000000e+00 0.0000000000000000e+00
454 0.0000000000000000e+00 0.0000000000000000e+00 0.0000000000000000e+00
455 0.0000000000000000e+00 0.0000000000000000e+00 0.0000000000000000e+00
477 0.0000000000000000e+00 0.0000000000000000e+00 0.0000000000000000e+00
478 0.0000000000000000e+00 0.0000000000000000e+00 0.0000000000000000e+00
292 0.0000000000000000e+00 0.0000000000000000e+00 0.0000000000000000e+00
320 0.0000000000000000e+00 0.0000000000000000e+00 0.0000000000000000e+00
438 0.0000000000000000e+00 0.0000000000000000e+00 0.0000000000000000e+00
371 0.0000000000000000e+00 0.0000000000000000e+00 0.0000000000000000e+00
393 0.0000000000000000e+00 0.0000000000000000e+00 0.0000000000000000e+00
397 0.0000000000000000e+00 0.0000000000000000e+00 0.0000000000000000e+00
401 0.0000000000000000e+00 0.0000000000000000e+00 0.0000000000000000e+00
479 0.0000000000000000e+00 0.0000000000000000e+00 0.0000000000000000e+00
435 0.0000000000000000e+00 0.0000000000000000e+00 0.0000000000000000e+00
228 0.0000000000000000e+00 0.0000000000000000e+00 0.0000000000000000e+00
254 0.0000000000000000e+00 0.0000000000000000e+00 0.0000000000000000e+00
255 0.0000000000000000e+00 0.0000000000000000e+00 0.0000000000000000e+00
310 0.0000000000000000e+00 0.0000000000000000e+00 0.0000000000000000e+00
311 0.0000000000000000e+00 0.0000000000000000e+00 0.0000000000000000e+00
312 0.0000000000000000e+00 0.0000000000000000e+00 0.0000000000000000e+00
314 0.0000000000000000e+00 0.0000000000000000e+00 0.0000000000000000e+00
318 0.0000000000000000e+00 0.0000000000000000e+00 0.0000000000000000e+00
334 0.0000000000000000e+00 0.0000000000000000e+00 0.0000000000000000e+00
336 0.0000000000000000e+00 0.0000000000000000e+00 0.0000000000000000e+00
337 0.0000000000000000e+00 0.0000000000000000e+00 0.0000000000000000e+00
339 0.0000000000000000e+00 0.0000000000000000e+00 0.0000000000000000e+00
340 0.0000000000000000e+00 0.0000000000000000e+00 0.0000000000000000e+00
341 0.0000000000000000e+00 0.0000000000000000e+00 0.0000000000000000e+00
342 0.0000000000000000e+00 0.0000000000000000e+00 0.0000000000000000e+00
344 0.0000000000000000e+00 0.0000000000000000e+00 0.0000000000000000e+00
345 0.0000000000000000e+00 0.0000000000000000e+00 0.0000000000000000e+00
347 0.0000000000000000e+00 0.0000000000000000e+00 0.0000000000000000e+00
348 0.0000000000000000e+00 0.0000000000000000e+00 0.0000000000000000e+00
349 0.0000000000000000e+00 0.0000000000000000e+00 0.0000000000000000e+00
350 0.0000000000000000e+00 0.0000000000000000e+00 0.0000000000000000e+00
352 0.0000000000000000e+00 0.0000000000000000e+00 0.0000000000000000e+00
355 0.0000000000000000e+00 0.0000000000000000e+00 0.0000000000000000e+00
356 0.0000000000000000e+00 0.0000000000000000e+00 0.0000000000000000e+00
358 0.0000000000000000e+00 0.0000000000000000e+00 0.0000000000000000e+00
359 0.0000000000000000e+00 0.0000000000000000e+00 0.0000000000000000e+00
360 0.0000000000000000e+00 0.0000000000000000e+00 0.0000000000000000e+00
452 0.0000000000000000e+00 0.0000000000000000e+00 0.0000000000000000e+00
456 0.0000000000000000e+00 0.0000000000000000e+00 0.0000000000000000e+00
458 0.0000000000000000e+00 0.0000000000000000e+00 0.0000000000000000e+00
460 0.0000000000000000e+00 0.0000000000000000e+00 0.0000000000000000e+00
462 0.0000000000000000e+00 0.0000000000000000e+00 0.0000000000000000e+00
480 0.0000000000000000e+00 0.0000000000000000e+00 0.0000000000000000e+00
481 0.0000000000000000e+00 0.0000000000000000e+00 0.0000000000000000e+00
482 0.0000000000000000e+00 0.0000000000000000e+00 0.0000000000000000e+00
483 0.0000000000000000e+00 0.0000000000000000e+00 0.0000000000000000e+00
484 0.0000000000000000e+00 0.0000000000000000e+00 0.0000000000000000e+00
485 0.0000000000000000e+00 0.0000000000000000e+00 0.0000000000000000e+00
486 0.0000000000000000e+00 0.0000000000000000e+00 0.0000000000000000e+00
487 0.0000000000000000e+00 0.0000000000000000e+00 0.0000000000000000e+00
488 0.0000000000000000e+00 0.0000000000000000e+00 0.0000000000000000e+00
489 0.0000000000000000e+00 0.0000000000000000e+00 0.0000000000000000e+00
490 0.0000000000000000e+00 0.0000000000000000e+00 0.0000000000000000e+00
491 0.0000000000000000e+00 0.0000000000000000e+00 0.0000000000000000e+00
492 0.0000000000000000e+00 0.0000000000000000e+00 0.0000000000000000e+00
493 0.0000000000000000e+00 0.0000000000000000e+00 0.0000000000000000e+00
494 0.0000000000000000e+00 0.0000000000000000e+00 0.0000000000000000e+00
496 0.0000000000000000e+00 0.0000000000000000e+00 0.0000000000000000e+00
499 0.0000000000000000e+00 0.0000000000000000e+00 0.0000000000000000e+00
500 0.0000000000000000e+00 0.0000000000000000e+00 0.0000000000000000e+00
501 0.0000000000000000e+00 0.0000000000000000e+00 0.0000000000000000e+00
502 0.0000000000000000e+00 0.0000000000000000e+00 0.0000000000000000e+00
503 0.0000000000000000e+00 0.0000000000000000e+00 0.0000000000000000e+00
504 0.0000000000000000e+00 0.0000000000000000e+00 0.0000000000000000e+00
505 0.0000000000000000e+00 0.0000000000000000e+00 0.0000000000000000e+00
506 0.0000000000000000e+00 0.0000000000000000e+00 0.0000000000000000e+00
509 0.0000000000000000e+00 0.0000000000000000e+00 0.0000000000000000e+00
510 0.0000000000000000e+00 0.0000000000000000e+00 0.0000000000000000e+00
511 0.0000000000000000e+00 0.0000000000000000e+00 0.0000000000000000e+00
512 0.0000000000000000e+00 0.0000000000000000e+00 0.0000000000000000e+00
513 0.0000000000000000e+00 0.0000000000000000e+00 0.0000000000000000e+00
520 0.0000000000000000e+00 0.0000000000000000e+00 0.0000000000000000e+00
521 0.0000000000000000e+00 0.0000000000000000e+00 0.0000000000000000e+00
530 0.0000000000000000e+00 0.0000000000000000e+00 0.0000000000000000e+00
522 0.0000000000000000e+00 0.0000000000000000e+00 0.0000000000000000e+00
518 0.0000000000000000e+00 0.0000000000000000e+00 0.0000000000000000e+00
523 0.0000000000000000e+00 0.0000000000000000e+00 0.0000000000000000e+00
524 0.0000000000000000e+00 0.0000000000000000e+00 0.0000000000000000e+00
532 0.0000000000000000e+00 0.0000000000000000e+00 0.0000000000000000e+00
533 0.0000000000000000e+00 0.0000000000000000e+00 0.0000000000000000e+00
534 0.0000000000000000e+00 0.0000000000000000e+00 0.0000000000000000e+00
539 0.0000000000000000e+00 0.0000000000000000e+00 0.0000000000000000e+00
507 0.0000000000000000e+00 0.0000000000000000e+00 0.0000000000000000e+00
508 0.0000000000000000e+00 0.0000000000000000e+00 0.0000000000000000e+00
514 0.0000000000000000e+00 0.0000000000000000e+00 0.0000000000000000e+00
519 0.0000000000000000e+00 0.0000000000000000e+00 0.0000000000000000e+00
515 0.0000000000000000e+00 0.0000000000000000e+00 0.0000000000000000e+00
516 0.0000000000000000e+00 0.0000000000000000e+00 0.0000000000000000e+00
517 0.0000000000000000e+00 0.0000000000000000e+00 0.0000000000000000e+00
526 0.0000000000000000e+00 0.0000000000000000e+00 0.0000000000000000e+00
527 0.0000000000000000e+00 0.0000000000000000e+00 0.0000000000000000e+00
528 0.0000000000000000e+00 0.0000000000000000e+00 0.0000000000000000e+00
529 0.0000000000000000e+00 0.0000000000000000e+00 0.0000000000000000e+00
535 0.0000000000000000e+00 0.0000000000000000e+00 0.0000000000000000e+00
525 0.0000000000000000e+00 0.0000000000000000e+00 0.0000000000000000e+00
531 0.0000000000000000e+00 0.0000000000000000e+00 0.0000000000000000e+00
536 0.0000000000000000e+00 0.0000000000000000e+00 0.0000000000000000e+00
537 0.0000000000000000e+00 0.0000000000000000e+00 0.0000000000000000e+00
538 0.0000000000000000e+00 0.0000000000000000e+00 0.0000000000000000e+00
540 0.0000000000000000e+00 0.0000000000000000e+00 0.0000000000000000e+00
