ITEM: TIMESTEP
0
ITEM: NUMBER OF ATOMS
1980
ITEM: BOX BOUNDS pp pp mm
0.0000000000000000e+00 2.1833448247381568e+01
0.0000000000000000e+00 2.2689985001334318e+01
-3.8596448281022617e+00 4.9403453799708949e+01
ITEM: ATOMS id type x y z vx vy vz
1 1 5.12793 22.6712 17.2747 0.00150381 0.0040296 0.000366661
2 1 21.2513 22.644 16.6485 0.00917102 0.003972 -0.00203062
3 1 1.46429 1.29552 17.3702 -0.00943715 9.41561e-05 -0.00606437
4 1 19.6501 21.4294 -3.35929 0 0 0
5 1 21.7648 0.017185 15.1016 0.00210397 0.00040948 0.00170685
6 1 19.6501 21.4294 -2.03646 0 0 0
7 1 5.07925 4.98728 17.2881 0.0033695 -0.00253648 0.00192755
8 1 21.2627 4.99937 16.5973 0.00590791 -0.00191786 0.00208413
9 1 1.48383 6.20179 17.3899 -0.00153659 0.00115905 0.00105173
10 1 1.50603 3.74224 17.3109 0.00150068 -0.00147374 0.00534487
11 1 0.0131861 5.02746 15.0443 -0.00171955 -0.00130283 -0.000122243
12 1 9.4966 2.51984 17.2885 0.00592733 -0.00234537 0.00117098
13 1 17.4668 17.6478 -3.35915 0 0 0
14 1 19.6501 16.3872 -3.35929 0 0 0
15 1 19.6501 18.9083 -3.35929 0 0 0
16 1 17.4667 17.6478 -2.03663 0 0 0
17 1 19.6501 16.3872 -2.03646 0 0 0
18 1 19.6501 18.9083 -2.03646 0 0 0
19 1 3.74335 2.4897 16.6024 -0.00369827 0.0032668 -0.000188281
20 1 20.378 17.6478 -1.46214 0 0 0
21 1 5.79784 3.74246 17.2725 0.00971777 -0.00414886 0.000176493
22 1 20.3745 17.646 0.059444 0.00916408 0.00033696 -0.00339231
23 1 13.1001 20.1689 -3.35915 0 0 0
24 1 15.2834 18.9083 -3.35929 0 0 0
25 1 15.2834 21.4294 -3.35929 0 0 0
26 1 13.1 20.1689 -2.03663 0 0 0
27 1 15.2834 18.9083 -2.03646 0 0 0
28 1 15.2834 21.4294 -2.03646 0 0 0
29 1 17.4668 20.1689 -3.35915 0 0 0
30 1 16.0114 20.1689 -1.46214 0 0 0
31 1 18.1945 18.9083 -1.46193 0 0 0
32 1 18.1945 21.4294 -1.46193 0 0 0
33 1 17.4667 20.1689 -2.03663 0 0 0
34 1 15.9904 20.1468 0.0558612 0.00715991 -0.00512402 0.00489876
35 1 18.1852 18.9309 0.0513808 0.00179452 0.00212292 0.00412469
36 1 18.252 21.3954 0.0366459 0.000961675 -0.00252736 -0.00775185
37 1 20.378 20.1689 -1.46214 0 0 0
38 1 18.9415 20.1554 0.528629 0.0101341 0.00875859 -0.00407759
39 1 21.1132 18.9085 0.58282 -0.0108101 -0.00202382 0.0028742
40 1 21.0795 21.4093 0.556047 -0.00509185 -0.00249434 0.000850769
41 1 20.3771 20.1528 0.0187909 0.00278413 -0.000840097 -0.00423854
42 1 18.9644 20.185 2.13403 -0.000771729 -0.0116518 0.00899406
43 1 21.1013 18.9222 2.11551 0.00197611 0.00371017 -0.00555104
44 1 21.0622 21.3922 2.09494 -0.0070736 -0.00184863 0.00571893
45 1 5.83874 1.21793 17.2564 0.000758101 -0.00545294 0.00334771
46 1 5.10773 2.47962 17.212 -0.00258982 0.00037758 -0.000138896
47 1 4.42168 2.54819 15.0408 -0.00372406 -0.0102649 -0.00858804
48 1 10.9167 21.4294 -3.35929 0 0 0
49 1 2.84006 3.75703 16.6113 -0.00140565 -0.00179045 0.00416666
50 1 10.9167 21.4294 -2.03646 0 0 0
51 1 2.80376 1.2981 16.5945 0.000610718 -0.00161946 4.74901e-05
52 1 21.2947 2.50862 16.5768 -0.0028698 -0.00207674 -0.00418136
53 1 13.8278 21.4294 -1.46193 0 0 0
54 1 1.43649 2.56096 14.5786 -0.00255398 -0.0104416 0.00261017
55 1 2.23684 3.77836 15.0622 0.000576133 -0.0026933 0.00179766
56 1 13.8642 21.4325 0.0942688 -0.00274562 5.70043e-05 -0.00124485
57 1 2.25493 1.2842 15.0004 -0.00150756 -0.0105803 -0.00172762
58 1 0.0093504 2.52182 14.9807 -0.00192553 0.00275247 -0.00117977
59 1 16.8022 21.3707 0.547802 0.00519129 -0.00730686 -0.00587837
60 1 1.47767 2.59133 12.9295 0.00639527 -0.00777406 0.000239656
61 1 13.8875 22.6651 17.1818 -0.000354249 0.0100177 0.00557241
62 1 16.8051 21.4263 2.10494 -0.0086193 0.00024821 -0.00354123
63 1 8.09589 22.662 16.5846 0.00448345 0.00450884 -0.00955084
64 1 10.1507 1.20011 17.2856 -0.00440413 -0.00180942 -0.00752204
65 1 19.6533 21.4252 2.70796 0.000645614 -0.00836987 0.0041597
66 1 9.47107 22.638 17.3178 -0.0111716 -0.00409994 0.00561481
67 1 8.70176 0.0559635 15.0017 -0.00118236 -0.00749797 0.00454741
68 1 19.6146 21.4804 4.19859 -0.00399531 0.00541026 -0.00372283
69 1 7.18769 1.18622 16.6167 -0.00524025 0.00490758 -0.003346
70 1 3.80888 0.0942556 16.5598 0.00448328 -0.0004122 0.00648127
71 1 5.83272 0.0587978 14.5966 0.00127117 0.00954512 -0.0114857
72 1 6.62141 1.28653 15.0378 0.00620038 -0.00202819 -0.00802869
73 1 4.30215 0.0832294 15.0057 0.00661508 -0.0100324 -0.000121043
74 1 17.4668 12.6055 -3.35915 0 0 0
75 1 19.6501 11.345 -3.35929 0 0 0
76 1 19.6501 13.8661 -3.35929 0 0 0
77 1 17.4667 12.6055 -2.03663 0 0 0
78 1 19.6501 11.345 -2.03646 0 0 0
79 1 19.6501 13.8661 -2.03646 0 0 0
80 1 5.79852 0.0292756 13.0238 0.000412702 0.00336436 0.00227054
81 1 20.378 12.6055 -1.46214 0 0 0
82 1 3.64381 1.32546 14.4592 -0.00628721 0.0065514 -0.0025391
83 1 20.4076 12.7049 0.0655004 0.00549651 0.00183356 0.00348749
84 1 13.1001 15.1267 -3.35915 0 0 0
85 1 15.2834 13.8661 -3.35929 0 0 0
86 1 15.2834 16.3872 -3.35929 0 0 0
87 1 13.1 15.1267 -2.03663 0 0 0
88 1 15.2834 13.8661 -2.03646 0 0 0
89 1 15.2834 16.3872 -2.03646 0 0 0
90 1 17.4668 15.1267 -3.35915 0 0 0
91 1 16.0114 15.1267 -1.46214 0 0 0
92 1 18.1945 13.8661 -1.46193 0 0 0
93 1 18.1945 16.3872 -1.46193 0 0 0
94 1 17.4667 15.1267 -2.03663 0 0 0
95 1 16.0076 15.1207 0.0412523 0.00169858 -0.00205376 -0.000502704
96 1 18.2332 13.888 0.0358197 -0.00722165 0.00625464 -9.64337e-06
97 1 18.2533 16.3718 0.0727791 -0.00418915 -0.000624402 -5.49066e-05
98 1 20.378 15.1267 -1.46214 0 0 0
99 1 18.9411 15.0976 0.60164 -0.00542131 0.000661831 0.000739546
100 1 21.1411 13.8925 0.573772 -0.00686324 -0.00742751 0.0115352
101 1 21.2016 16.3904 0.61574 0.00316751 -0.00212866 0.000777075
102 1 20.443 15.1639 0.0956807 -0.0143168 0.00577313 0.00591021
103 1 18.9506 15.0903 2.15223 -0.00508438 -0.000724769 -0.00400481
104 1 21.1581 13.8673 2.13301 -0.00521043 0.00708995 -0.00097552
105 1 21.1015 16.4533 2.12613 -0.000578842 -0.000948525 -0.00020731
106 1 1.48945 0.0329764 14.6033 -0.00173896 -0.00250275 0.0032025
107 1 8.7334 17.6478 -3.35915 0 0 0
108 1 10.9167 16.3872 -3.35929 0 0 0
109 1 10.9167 18.9083 -3.35929 0 0 0
110 1 8.73333 17.6478 -2.03663 0 0 0
111 1 10.9167 16.3872 -2.03646 0 0 0
112 1 10.9167 18.9083 -2.03646 0 0 0
113 1 13.1001 17.6478 -3.35915 0 0 0
114 1 11.6447 17.6478 -1.46214 0 0 0
115 1 13.8278 16.3872 -1.46193 0 0 0
116 1 13.8278 18.9083 -1.46193 0 0 0
117 1 13.1 17.6478 -2.03663 0 0 0
118 1 11.6084 17.644 0.0807381 0.0018166 -0.0123951 0.00347597
119 1 13.7836 16.4014 0.0579081 0.00337481 -0.0117532 -0.00230439
120 1 13.8111 18.8909 0.0193002 -5.3936e-05 0.00848425 0.00467252
121 1 16.0114 17.6478 -1.46214 0 0 0
122 1 14.5052 17.6554 0.574073 0.00142283 0.000262433 -0.00465877
123 1 16.7112 16.3335 0.577781 -0.0107528 0.00027694 -1.93947e-05
124 1 16.7369 18.953 0.570188 -0.0120555 -0.000164169 -0.00309786
125 1 15.9595 17.6415 0.058813 -0.00429645 0.000582561 0.00415088
126 1 14.5718 17.6195 2.11606 -0.00628722 -0.00512764 -0.000590273
127 1 16.7241 16.383 2.09393 -0.0100944 -0.00407669 -0.00183095
128 1 16.7462 18.8899 2.11271 0.00451615 0.00764134 0.0015916
129 1 18.9424 17.6532 0.530625 0.00446169 -0.000703789 0.00649056
130 1 17.4311 17.6385 2.59902 0.00155411 -0.00414305 -0.00393265
131 1 19.673 16.3627 2.62348 0.00735829 0.00146977 0.000235255
132 1 19.6159 18.9361 2.66317 -0.00253824 -0.00531204 0.00364734
133 1 18.9259 17.665 2.08801 -0.00078532 -0.00222456 0.00183783
134 1 17.4488 17.6533 4.17761 0.00564837 -0.00353399 -0.00739027
135 1 19.6283 16.342 4.18184 0.000771959 0.00572801 -0.00522412
136 1 19.6263 18.9388 4.21208 0.000935655 -0.00602571 -0.0011189
137 1 2.90033 0.0366581 12.3911 0.00300694 0.0002655 -0.00250612
138 1 20.3543 17.6567 4.68822 -0.00476399 0.00354316 -0.00321577
139 1 3.61961 1.29077 12.9485 -0.00198358 0.00630673 0.0040901
140 1 20.3539 17.6469 6.23839 0.000257606 -0.00024655 0.0010972
141 1 4.36671 20.1689 -3.35915 0 0 0
142 1 6.55001 18.9083 -3.35929 0 0 0
143 1 6.55001 21.4294 -3.35929 0 0 0
144 1 4.36664 20.1689 -2.03663 0 0 0
145 1 6.55001 18.9083 -2.03646 0 0 0
146 1 6.55001 21.4294 -2.03646 0 0 0
147 1 8.7334 20.1689 -3.35915 0 0 0
148 1 7.27798 20.1689 -1.46214 0 0 0
149 1 9.46108 18.9083 -1.46193 0 0 0
150 1 9.46108 21.4294 -1.46193 0 0 0
151 1 8.73333 20.1689 -2.03663 0 0 0
152 1 7.25021 20.2376 0.129142 0.0100817 0.00444767 0.00606755
153 1 9.43816 18.9531 0.023864 -0.00293017 -0.00840379 0.00400537
154 1 9.4803 21.4529 0.117055 -0.00509025 0.00114839 -0.00351309
155 1 11.6447 20.1689 -1.46214 0 0 0
156 1 10.1212 20.2329 0.56229 -0.00898786 0.00501679 0.00233248
157 1 12.2917 18.949 0.576435 -0.000875928 -0.0040954 0.00565901
158 1 12.4023 21.4982 0.566172 0.00289433 -0.00337429 -0.0016824
159 1 11.6297 20.176 0.0467749 -0.00492738 -0.00923783 -0.00277437
160 1 10.1318 20.2107 2.12196 -0.00393651 -0.00536037 -0.0089679
161 1 12.3732 18.9234 2.09271 0.00229621 -0.00326801 0.00216878
162 1 12.4508 21.4197 2.10064 -0.00514862 -0.0083315 5.35201e-05
163 1 14.5261 20.1537 0.589024 -0.00220303 -0.00655464 0.0128029
164 1 13.1414 20.1832 2.65181 0.0121778 0.00295939 0.00653181
165 1 15.3261 18.9345 2.6359 0.00485378 -0.0077535 -0.00180099
166 1 15.3388 21.4353 2.72469 -2.36762e-05 0.00485394 0.00754371
167 1 14.5934 20.1908 2.15958 -0.00185279 0.0027673 -0.00248537
168 1 13.1159 20.1766 4.17346 -0.00703977 0.0110873 0.00227083
169 1 15.2693 18.9361 4.25526 0.0022559 0.00203917 9.62986e-05
170 1 15.3147 21.4606 4.22908 0.00980276 2.0537e-05 0.0028402
171 1 17.4721 20.147 2.65132 0.000696667 0.00640533 0.00226623
172 1 15.9744 20.2143 4.7532 -0.00659404 0.00306851 -0.00175937
173 1 18.1052 18.8979 4.71548 0.00756532 -0.0123805 0.00328578
174 1 18.1802 21.4342 4.7269 -0.00261726 0.00242273 0.00298364
175 1 17.3729 20.1541 4.21116 -0.00161463 -0.00201317 -0.00667894
176 1 15.965 20.2191 6.32775 0.0125936 0.000278798 0.00120811
177 1 18.1301 18.9854 6.22265 -0.00523431 0.00319256 -0.000893486
178 1 18.1231 21.4789 6.25602 -0.00048246 0.00686063 -0.0085774
179 1 20.3559 20.1891 4.73174 0.00333515 0.000333166 -0.000919762
180 1 18.9082 20.1684 6.75552 0.00128037 0.00969625 0.00169814
181 1 21.0907 18.9079 6.73612 0.0026924 0.0015586 -0.0020996
182 1 21.1178 21.3976 6.75925 -0.00482237 -0.0101479 -0.00585445
183 1 20.3545 20.1595 6.26707 -0.00434581 -0.0105223 -0.000851748
184 1 18.9288 20.1666 8.30163 0.00195466 0.00569165 0.00391849
185 1 21.1087 18.8659 8.26564 -0.000934707 -0.00752429 -0.00311304
186 1 21.1059 21.4056 8.29449 -0.00144986 0.00376153 0.00650138
187 1 1.50075 22.6829 13.0008 0.000217647 -0.00355059 -0.00153696
188 1 2.92218 22.6785 10.9122 0.00191742 0.000982583 -0.00261669
189 1 0.795468 1.24353 12.4514 -0.00561969 -0.00369552 -0.000205829
190 1 2.18332 21.4294 -3.35929 0 0 0
191 1 0.0338572 22.6583 10.4827 -0.000564061 -0.00573707 -0.000911017
192 1 2.18332 21.4294 -2.03646 0 0 0
193 1 0.702524 1.22829 10.922 0.00442452 0.00541501 -0.00540393
194 1 0.000265494 0.00969507 8.87581 -0.00232613 -0.00589547 -0.00240653
195 1 5.09439 21.4294 -1.46193 0 0 0
196 1 5.09492 10.0446 17.2721 0.00396125 0.00865929 -0.00539549
197 1 21.2361 10.0191 16.6557 -0.00392244 0.00362126 0.000236372
198 1 5.06843 21.4452 0.113135 -0.00315178 0.00390143 -0.00267905
199 1 1.45572 11.2872 17.3439 -0.00567778 -0.0011116 -0.00597326
200 1 1.47197 8.70466 17.4037 0.00145951 -0.0118107 -0.00654819
201 1 7.96218 21.445 0.623965 -0.0038091 -0.000385481 0.000927911
202 1 21.7888 10.108 15.0526 0.00465899 0.00177937 -0.00532667
203 1 9.43894 7.56677 17.3347 -0.00271188 -0.00886071 0.00965639
204 1 7.98651 21.4433 2.1494 0.00237034 0.00266916 -0.00785396
205 1 3.72193 7.63265 16.6411 0.00170162 -0.00452797 -0.00399647
206 1 5.83808 8.84795 17.3112 -0.0059434 -0.00574214 5.7115e-05
207 1 10.9343 21.4872 2.67175 0.00657547 0.00475999 -0.00312558
208 1 5.73639 6.29985 17.2391 -0.00904245 0.0025199 0.00431655
209 1 5.10899 7.61887 17.2866 0.00126501 -9.09416e-05 -0.00124953
210 1 10.9363 21.3937 4.22212 0.00134753 0.002631 0.00233599
211 1 4.32773 7.62709 15.09 -0.000756928 -0.000812143 -0.00537045
212 1 2.74135 8.83429 16.7289 0.000637324 -0.00375857 -0.00318585
213 1 13.8585 21.4459 4.71543 -0.00091773 0.00439425 -0.00192646
214 1 2.83271 6.31238 16.666 -0.00634942 -0.00564227 -0.00292271
215 1 21.2136 7.49154 16.681 0.00563013 0.00167431 -0.00837171
216 1 13.8355 21.4107 6.25396 -0.000793465 0.00123149 -0.0024867
217 1 1.48689 7.59032 14.6051 0.00446873 -0.0058703 0.00744746
218 1 2.25053 8.88682 15.126 -0.00740325 -0.00325735 0.00229935
219 1 16.7031 21.4317 6.85073 0.00345093 0.00330603 -0.00363853
220 1 2.26612 6.35237 15.0258 -0.00570364 0.00145343 0.00126452
221 1 21.7798 7.58579 15.1053 0.00107273 -0.0047349 -0.00729331
222 1 16.7387 21.4441 8.35559 0.0118826 0.00491273 -0.0105246
223 1 1.52062 7.60234 13.0505 -0.00124264 0.00489831 -0.00273678
224 1 13.7722 4.94092 17.3858 -0.0093631 -0.00271589 0.00494541
225 1 19.652 21.463 8.81099 -0.00371882 0.00121628 -0.00422973
226 1 8.08646 5.00807 16.6331 0.00366443 -0.00528822 -0.00231984
227 1 10.1725 6.2765 17.369 -0.00744707 -0.00416976 0.00153213
228 1 19.6877 21.3803 10.3418 -0.00081966 0.00748777 0.00365482
229 1 10.1836 3.75469 17.3465 0.00056504 0.00250356 0.00294424
230 1 9.41936 5.08715 17.3879 -0.000529302 0.00104324 -0.00313876
231 1 8.72458 5.00101 15.0233 0.00193074 -0.000737834 0.00264605
232 1 7.18093 6.24013 16.7005 -0.00108732 -0.00224833 0.00277557
233 1 7.15351 3.75184 16.6376 0.00257918 0.000268611 0.00494541
234 1 3.74103 5.01323 16.5489 0.00686298 -0.00716293 0.000400821
235 1 17.4668 7.56333 -3.35915 0 0 0
236 1 19.6501 6.30277 -3.35929 0 0 0
237 1 19.6501 8.82388 -3.35929 0 0 0
238 1 17.4667 7.56333 -2.03663 0 0 0
239 1 19.6501 6.30277 -2.03646 0 0 0
240 1 19.6501 8.82388 -2.03646 0 0 0
241 1 5.88728 5.08445 14.6322 0.00752587 0.00256912 0.000497241
242 1 20.378 7.56333 -1.46214 0 0 0
243 1 20.3781 7.59848 0.0666019 0.00110642 -0.00218126 0.00286367
244 1 13.1001 10.0844 -3.35915 0 0 0
245 1 15.2834 8.82388 -3.35929 0 0 0
246 1 15.2834 11.345 -3.35929 0 0 0
247 1 13.1 10.0844 -2.03663 0 0 0
248 1 15.2834 8.82388 -2.03646 0 0 0
249 1 15.2834 11.345 -2.03646 0 0 0
250 1 17.4668 10.0844 -3.35915 0 0 0
251 1 16.0114 10.0844 -1.46214 0 0 0
252 1 18.1945 8.82388 -1.46193 0 0 0
253 1 18.1945 11.345 -1.46193 0 0 0
254 1 17.4667 10.0844 -2.03663 0 0 0
255 1 16.0172 10.0976 0.120567 -0.0140106 -0.000475656 0.00870296
256 1 18.182 8.83805 0.043519 -0.00681513 -0.00197463 -0.00368046
257 1 18.224 11.2992 0.070532 -0.00908896 -0.00459174 0.00120652
258 1 20.378 10.0844 -1.46214 0 0 0
259 1 18.9672 10.0702 0.559204 0.0105962 -0.000591854 -0.00379179
260 1 21.1519 8.81738 0.623561 0.00725398 2.42109e-05 0.00159287
261 1 21.1088 11.4002 0.593372 0.00306191 0.00860713 0.00513902
262 1 20.4321 10.136 0.0663727 0.00329281 0.00214123 0.00628747
263 1 18.9914 10.0801 2.09886 -0.00698818 -0.0027081 -0.00414134
264 1 21.0898 8.8176 2.08826 -0.00131583 0.00397542 0.0050581
265 1 21.1282 11.4141 2.14996 -0.00448431 -0.00158984 0.00635254
266 1 6.63713 6.30753 15.0745 -0.00483702 -0.00166434 -0.00150851
267 1 6.57396 3.81618 15.1116 -0.00382772 -0.00322744 -0.000687184
268 1 8.7334 12.6055 -3.35915 0 0 0
269 1 10.9167 11.345 -3.35929 0 0 0
270 1 10.9167 13.8661 -3.35929 0 0 0
271 1 8.73333 12.6055 -2.03663 0 0 0
272 1 10.9167 11.345 -2.03646 0 0 0
273 1 10.9167 13.8661 -2.03646 0 0 0
274 1 13.1001 12.6055 -3.35915 0 0 0
275 1 11.6447 12.6055 -1.46214 0 0 0
276 1 13.8278 11.345 -1.46193 0 0 0
277 1 13.8278 13.8661 -1.46193 0 0 0
278 1 13.1 12.6055 -2.03663 0 0 0
279 1 11.6684 12.5906 0.0622125 -0.00817724 -0.000357044 -0.000967278
280 1 13.8342 11.3216 0.110494 0.00590971 -0.00697213 -0.00191251
281 1 13.838 13.8975 0.030838 0.0036881 0.00334773 -0.00480692
282 1 16.0114 12.6055 -1.46214 0 0 0
283 1 14.5619 12.6231 0.585009 -0.00594477 -0.00300134 0.00469341
284 1 16.7081 11.3981 0.623793 0.0027041 -0.00581025 -0.00165091
285 1 16.7475 13.838 0.552167 0.00495867 9.98619e-05 -0.00591317
286 1 16.0289 12.5431 0.0491235 0.00108249 -0.0027124 0.00428834
287 1 14.5167 12.6877 2.15778 -0.00464144 -0.00462506 0.00603658
288 1 16.7402 11.3953 2.1621 0.00200925 -0.00237206 0.00126783
289 1 16.7025 13.8602 2.14454 0.00119314 -0.00533755 -0.00140153
290 1 18.9288 12.5996 0.57063 -0.0062722 0.00520156 -0.00379972
291 1 17.4313 12.6311 2.68286 -0.00834088 0.00152667 -0.00287192
292 1 19.6481 11.3367 2.66432 0.00572338 -0.00729683 0.00493118
293 1 19.6429 13.8186 2.64948 -0.00100011 0.00836184 0.00370275
294 1 18.9461 12.5731 2.10763 0.00220918 0.00247478 0.000528937
295 1 17.4692 12.6488 4.23189 -0.00341011 -0.00690681 -0.00152902
296 1 19.5877 11.3385 4.23705 0.00215508 0.000184018 -0.00128132
297 1 19.655 13.882 4.20593 -0.00224643 0.00237561 -0.00444503
298 1 4.28358 5.1084 14.9881 0.00028749 -0.00426831 -0.00216622
299 1 20.3729 12.6077 4.75356 -0.00147603 0.00600331 -0.00907575
300 1 20.3613 12.5988 6.27387 0.00611303 0.00140349 -0.000739979
301 1 4.36671 15.1267 -3.35915 0 0 0
302 1 6.55001 13.8661 -3.35929 0 0 0
303 1 6.55001 16.3872 -3.35929 0 0 0
304 1 4.36664 15.1267 -2.03663 0 0 0
305 1 6.55001 13.8661 -2.03646 0 0 0
306 1 6.55001 16.3872 -2.03646 0 0 0
307 1 8.7334 15.1267 -3.35915 0 0 0
308 1 7.27798 15.1267 -1.46214 0 0 0
309 1 9.46108 13.8661 -1.46193 0 0 0
310 1 9.46108 16.3872 -1.46193 0 0 0
311 1 8.73333 15.1267 -2.03663 0 0 0
312 1 7.26865 15.1173 0.0705737 0.00773615 0.00613715 -0.00438163
313 1 9.48486 13.8496 0.106505 0.00142969 0.000179821 -0.00786196
314 1 9.44181 16.4354 0.0568581 -0.00269163 -0.0075255 0.00179311
315 1 11.6447 15.1267 -1.46214 0 0 0
316 1 10.2163 15.118 0.611833 -0.00696019 0.000628143 -0.00912712
317 1 12.3604 13.8615 0.610277 -0.000663801 0.000322929 -0.0016514
318 1 12.3352 16.393 0.620456 -0.00142092 -0.00503845 -0.0018301
319 1 11.6197 15.1034 0.0677345 -0.00318855 -0.00272361 -0.00152091
320 1 10.1786 15.174 2.12447 -0.00114952 -0.0013911 -0.00106863
321 1 12.3572 13.9065 2.13657 0.00546591 0.00141593 -0.00234415
322 1 12.3473 16.4167 2.15444 0.0038571 -0.00623029 0.00375642
323 1 14.5387 15.1398 0.559057 -0.000539338 -0.00141403 -0.00710023
324 1 13.0701 15.1526 2.68556 0.00369133 -0.00705827 -0.00580556
325 1 15.2344 13.8839 2.68214 0.000355316 0.00315816 -0.000222093
326 1 15.2902 16.405 2.61669 0.00260007 -0.00564437 0.00854552
327 1 14.5631 15.1553 2.14862 -0.00895138 -0.00157777 0.00370769
328 1 13.1287 15.1668 4.23534 -0.00890774 0.00320777 0.00348125
329 1 15.264 13.8632 4.24334 0.00707761 -0.00386887 -0.000460556
330 1 15.2875 16.3573 4.14156 0.0103887 0.01223 -0.000737533
331 1 17.4596 15.1264 2.67077 0.00622925 0.000492416 -0.00355687
332 1 15.9578 15.1223 4.68571 -0.00243057 -0.0013904 0.00409776
333 1 18.1949 13.8686 4.72738 -0.00209121 0.0011306 -0.000228183
334 1 18.1706 16.3739 4.73756 -0.00152405 -0.0104106 0.00162097
335 1 17.4347 15.1159 4.18699 -0.0036077 -0.000622983 0.00072293
336 1 15.9623 15.204 6.33044 -0.000503903 0.0105875 0.00167562
337 1 18.2048 13.8911 6.25623 0.00559638 0.00418063 0.00721283
338 1 18.1815 16.4014 6.24074 0.00848063 -0.00382175 0.00342887
339 1 20.3281 15.1531 4.7183 0.00493822 -0.00309152 -0.000626876
340 1 18.9108 15.1378 6.8444 -0.00123174 0.00328866 -0.00286081
341 1 21.0317 13.8271 6.77799 0.00746586 -0.000554137 0.00639293
342 1 21.0901 16.3941 6.81063 -0.00654319 -0.00287018 -0.00981787
343 1 20.3916 15.1425 6.34043 0.00555195 0.000482405 -0.00134358
344 1 18.8843 15.0559 8.31781 -0.00334118 0.00472837 -0.00549428
345 1 21.0995 13.8361 8.32758 -0.00116132 -0.00106286 0.00146344
346 1 21.0816 16.345 8.37378 0.000329519 -0.00101706 0.00614837
347 1 5.83073 5.05513 13.1023 -0.00705758 -0.000347514 0.00208215
348 1 3.66697 6.35966 14.4304 -0.0118394 0.00425597 0.000753081
349 1 1.88888e-05 17.6478 -3.35915 0 0 0
350 1 2.18332 16.3872 -3.35929 0 0 0
351 1 2.18332 18.9083 -3.35929 0 0 0
352 1 21.8334 17.6478 -2.03663 0 0 0
353 1 2.18332 16.3872 -2.03646 0 0 0
354 1 2.18332 18.9083 -2.03646 0 0 0
355 1 4.36671 17.6478 -3.35915 0 0 0
356 1 2.91129 17.6478 -1.46214 0 0 0
357 1 5.09439 16.3872 -1.46193 0 0 0
358 1 5.09439 18.9083 -1.46193 0 0 0
359 1 4.36664 17.6478 -2.03663 0 0 0
360 1 2.93041 17.6719 0.05555 -0.00022335 0.0001795 -0.00981911
361 1 5.11746 16.3884 0.0595365 -0.00773804 0.00382158 -0.0110609
362 1 5.11608 18.9324 0.0580037 -0.0135834 0.00437994 0.000585964
363 1 7.27798 17.6478 -1.46214 0 0 0
364 1 5.83744 17.6493 0.584321 -0.00553991 -0.00601289 0.00149042
365 1 8.00761 16.3552 0.554537 0.00775121 0.000336636 0.0100034
366 1 8.00597 18.9268 0.561357 0.00762375 -0.0022623 0.00485002
367 1 7.28142 17.6718 0.0682662 -0.000945644 -0.00233891 -0.00882091
368 1 5.82006 17.6017 2.1179 0.0104079 0.0045695 -0.000465555
369 1 8.05446 16.3509 2.07715 0.00400964 -0.000132555 -0.00359597
370 1 7.9735 18.9039 2.12643 -0.00332584 0.00348637 0.00318436
371 1 10.1665 17.6717 0.607129 -0.000890983 -0.00538179 0.000367202
372 1 8.70556 17.6572 2.62917 -0.00620906 0.00138254 -0.00538054
373 1 10.9353 16.4795 2.66675 -6.10638e-05 0.00248968 0.0075428
374 1 10.89 19.0029 2.5709 0.00267521 -0.00192138 0.00662899
375 1 10.1471 17.7063 2.11916 -0.0137611 0.00279029 0.00379998
376 1 8.76215 17.6859 4.19471 -0.0103453 0.00651126 0.0112933
377 1 10.933 16.3981 4.24952 -0.00883896 0.00646716 0.00452315
378 1 10.9158 18.9449 4.16159 0.00467747 -0.00715238 0.00189379
379 1 13.1039 17.6443 2.61642 -0.000897452 0.00307165 0.00774051
380 1 11.5878 17.7227 4.7791 0.00539956 -0.00263481 0.00533941
381 1 13.9073 16.3994 4.73868 0.00282417 -0.00321246 0.000396631
382 1 13.8058 18.8958 4.68582 0.00398704 0.0121971 0.000869991
383 1 13.0744 17.6802 4.18757 0.0022972 -0.0046878 -0.00667296
384 1 11.6133 17.6349 6.25576 -0.00629667 -0.00986241 0.00602755
385 1 13.7793 16.4337 6.30102 0.00382785 -0.00306472 -0.00423953
386 1 13.7784 18.962 6.24991 0.00588099 -0.00162613 -0.00529658
387 1 16.0135 17.6209 4.70499 -0.00320264 0.0115408 0.00212801
388 1 14.4983 17.6744 6.75113 0.00493478 -0.00363643 0.00192673
389 1 16.7454 16.4287 6.76671 0.00235931 0.00288306 -0.000533882
390 1 16.6677 18.9525 6.77387 0.00351899 0.00532788 -0.000861609
391 1 15.9592 17.6376 6.21388 -0.00297932 -0.00621571 0.000262021
392 1 14.5732 17.6704 8.3097 0.000109635 -0.00534346 0.00232267
393 1 16.7063 16.3899 8.351 7.77053e-05 -0.000890079 0.00382121
394 1 16.7666 18.9335 8.34799 0.000832643 0.0105856 -0.00753788
395 1 18.9399 17.6868 6.74352 -0.00372736 -0.00679212 -0.000494977
396 1 17.4808 17.676 8.82328 0.00973517 -0.00364346 -0.00544157
397 1 19.674 16.3945 8.90046 0.00153982 0.00138781 0.00656634
398 1 19.6722 18.8354 8.76522 -0.00145158 0.00355064 -0.0127995
399 1 18.9707 17.5998 8.28983 -0.00608167 -0.000656483 0.000611784
400 1 17.4892 17.6642 10.3565 8.63205e-05 -0.00722445 -0.000980407
401 1 19.6413 16.4327 10.4073 0.00284405 -0.00385069 -0.00347897
402 1 19.6622 18.868 10.3809 -0.00144343 -0.000722508 -0.0021607
403 1 3.72816 3.79331 14.4091 -0.0042915 -0.00478136 -0.000923814
404 1 20.3939 17.6303 10.8988 0.00478867 -0.00512219 -0.00275255
405 1 1.4921 5.05034 14.5744 -0.00160974 -3.49648e-05 0.00829361
406 1 20.3447 17.6441 12.4441 0.00811939 0.00426813 0.00438689
407 1 1.88899e-05 20.1689 -3.35915 0 0 0
408 1 0.727698 18.9083 -1.46193 0 0 0
409 1 0.727698 21.4294 -1.46193 0 0 0
410 1 21.8334 20.1689 -2.03663 0 0 0
411 1 0.713342 18.8983 0.11669 0.00549187 -0.00249634 -0.000284161
412 1 0.71834 21.4637 0.0327378 -0.00733554 0.00412869 0.00273523
413 1 2.91129 20.1689 -1.46214 0 0 0
414 1 1.43074 20.1643 0.578605 -0.00602525 -0.00951089 0.00379815
415 1 3.71447 18.9485 0.583688 0.00786982 -0.00575411 -0.0003497
416 1 3.62263 21.4299 0.577767 0.00645712 0.00697201 0.00447302
417 1 2.90868 20.1795 0.00756108 0.00403656 -0.00521523 0.00466279
418 1 1.49457 20.1645 2.12185 -0.00327493 -0.00228672 0.00854976
419 1 3.63947 18.874 2.15434 -0.00378798 -0.00710054 0.00302127
420 1 3.60945 21.3657 2.12127 -0.000574437 -0.0103243 -0.00675182
421 1 5.78738 20.1707 0.614912 -0.00291325 0.00711516 0.00410705
422 1 4.31991 20.1506 2.68019 -0.00723302 0.00164871 0.000489107
423 1 6.48046 18.8052 2.64635 -0.000112142 0.00470421 0.00405709
424 1 6.53522 21.4061 2.67759 0.00349378 -0.00635341 0.0036562
425 1 5.81326 20.101 2.18631 0.00204249 0.00211293 -0.00354324
426 1 4.34043 20.2013 4.28886 -0.00568563 0.00411867 0.00502149
427 1 6.49953 18.8849 4.23541 0.00370354 0.00300859 0.00344308
428 1 6.5139 21.4164 4.2093 0.00470606 0.00208674 -0.00250664
429 1 8.68584 20.1749 2.67155 0.00505204 0.00227857 -0.00591777
430 1 7.22416 20.1577 4.70149 -0.00712071 0.000527739 0.0034723
431 1 9.47605 18.9287 4.70185 -0.00184143 -0.00412779 -0.00361618
432 1 9.44538 21.3878 4.77692 -0.003716 0.00249758 -0.007129
433 1 8.74066 20.1837 4.17541 -0.00218399 -0.00168423 2.80612e-06
434 1 7.2667 20.156 6.27179 0.00695824 -0.00521623 -0.00647486
435 1 9.45491 18.9275 6.25363 -0.00430276 0.00181704 -0.00378426
436 1 9.4335 21.3673 6.34988 -0.0126527 0.00432834 -0.00959073
437 1 11.6463 20.1742 4.70928 -0.00203789 -0.00305288 -0.00617525
438 1 10.1717 20.1523 6.77463 0.007292 -0.00652971 0.0037211
439 1 12.3483 18.8944 6.81354 -0.00339996 -0.00733127 -0.00876243
440 1 12.3828 21.4258 6.76863 0.00613211 -0.00106133 -0.00369842
441 1 11.6447 20.1884 6.20665 -0.00254221 0.00924462 -0.00393285
442 1 10.2482 20.148 8.38341 -0.0017483 0.00257008 -0.000961327
443 1 12.343 18.9635 8.37476 0.000462706 -0.00350598 0.0011074
444 1 12.4332 21.4376 8.35548 0.00440893 -0.000196615 -0.00323127
445 1 14.5041 20.1596 6.82228 0.00538588 0.00165523 0.0050709
446 1 13.0995 20.1927 8.90257 -0.000686679 -0.000735154 -0.00484377
447 1 15.3104 18.9558 8.85649 -0.00301806 -0.00148572 -0.000837684
448 1 15.3204 21.4683 8.85211 -0.00139912 0.00304185 -0.0036282
449 1 14.5558 20.1931 8.39296 0.0142219 0.00365928 -0.00433356
450 1 13.1919 20.1655 10.4715 0.000960459 0.00633865 -0.004518
451 1 15.3298 18.9593 10.4135 -0.00750278 0.0134736 -0.00569847
452 1 15.3399 21.4489 10.4487 0.00148971 0.00716046 0.00598892
453 1 17.5392 20.1695 8.86816 0.00205766 0.00906632 0.00784838
454 1 16.0185 20.2301 10.9758 -0.00200903 -0.000151849 -0.00258539
455 1 18.2496 18.9305 10.9203 -0.001373 -0.00488356 0.00163429
456 1 18.2435 21.4558 10.9504 -0.00326994 0.00681151 -0.000146074
457 1 17.5233 20.1865 10.4392 0.00514358 0.00142763 -0.00330303
458 1 16.046 20.1679 12.4972 -0.00311514 -0.00250463 0.00480053
459 1 18.229 18.9111 12.4969 0.00666362 0.00064269 0.00471969
460 1 18.2335 21.4781 12.4792 0.00456627 0.00468724 0.00177804
461 1 20.3957 20.1554 10.8765 0.00102334 0.00398398 -0.00433706
462 1 18.9515 20.1903 12.9802 0.00452253 0.00480157 0.00395748
463 1 21.1112 18.8929 12.9169 0.00686955 -0.000773018 0.00512562
464 1 21.1444 21.4229 12.9771 -0.0012928 -0.00860466 -0.0065896
465 1 20.3913 20.1846 12.4894 -3.93831e-05 0.0125562 0.00421201
466 1 18.9447 20.156 14.5652 -0.00460462 0.00724769 -0.00436232
467 1 21.151 18.8802 14.475 0.0106504 -0.011284 -0.0107697
468 1 21.1744 21.4026 14.4688 0.00281718 0.000137052 -0.00418779
469 1 2.9275 5.04378 12.3981 -0.000767577 0.00356984 -0.00558081
470 1 3.69879 6.34192 12.9581 -0.00909577 0.000207537 -0.00301
471 1 3.67685 3.80673 12.9425 -0.000348968 -0.00126272 -0.00273781
472 1 1.49918 5.04768 12.9934 -0.00830702 0.00405977 0.00750644
473 1 2.17467 21.4075 2.62945 0.00605929 0.00301096 -0.00827035
474 1 2.90116 5.09034 10.9111 0.00250499 0.00219577 0.00138013
475 1 0.79362 6.28105 12.4844 -0.000952153 -0.00575174 0.00220632
476 1 2.17694 21.3836 4.22434 -0.00529287 -0.00538702 0.00086292
477 1 0.732307 3.8294 12.3936 -0.0034851 0.00936065 0.00566714
478 1 0.0568487 5.05438 10.393 -0.000892565 2.06405e-05 0.00947882
479 1 5.12578 21.4046 4.76588 0.00223826 0.00780273 0.0051087
480 1 0.802243 6.33456 10.9336 5.64108e-05 -0.00704635 -0.00513098
481 1 0.742357 3.79388 10.9061 -0.00115222 0.00371906 -0.00206888
482 1 5.14897 21.3767 6.28726 -0.00449628 0.00325498 -0.00418241
483 1 0.00546612 5.06778 8.83361 -0.00155125 0.00360227 -0.007287
484 1 18.3013 2.52918 17.3032 0.000591935 -0.00240764 -0.00723941
485 1 7.94956 21.4826 6.83873 -0.00120223 0.00128113 0.00264176
486 1 12.4466 2.47598 16.63 -0.00265986 -0.00278159 0.00115914
487 1 14.5043 3.73537 17.2288 -0.00788738 0.00381829 -0.00461918
488 1 8.06932 21.427 8.38246 -0.00574473 -0.00784323 -0.000460297
489 1 14.5565 1.24729 17.123 0.00724552 -0.000193341 0.00436437
490 1 13.7949 2.45781 17.3032 -0.00248302 0.00476091 -0.00749598
491 1 10.986 21.448 8.91138 0.0014722 0.000587875 -0.00567573
492 1 13.1068 2.57835 15.0792 -0.00341338 0.0133812 0.00423803
493 1 11.5218 3.66821 16.6828 -0.00521866 0.000942676 -0.00163959
494 1 10.9618 21.3709 10.4242 -0.000411927 0.00383044 0.00194255
495 1 11.4953 1.18947 16.5884 0.00120052 0.00900292 0.00797429
496 1 8.10706 2.51388 16.6214 0.001071 -0.00687679 -0.00536735
497 1 13.8784 21.4698 11.0288 -0.00565583 -0.000793647 0.00750603
498 1 10.1878 2.50007 14.6121 -0.00978303 0.00919055 0.00239361
499 1 10.9962 3.71507 15.0832 -0.0052 0.00471998 0.00302128
500 1 13.827 21.4445 12.4743 0.000306296 -0.00354852 -0.00956768
501 1 10.9592 1.23277 15.0142 -0.00155608 -0.00428143 0.00720122
502 1 8.67016 2.52259 15.0341 -0.00370004 0.00132457 -0.00830122
503 1 16.7994 21.4016 12.9485 -0.00259282 0.00549892 -0.0086623
504 1 10.1971 2.53303 13.0072 -0.00783332 -0.00972661 0.00748275
505 1 8.00165 3.81483 14.4711 -0.00495564 0.00300461 0.00470521
506 1 16.7755 21.4571 14.5005 0.00392393 -0.00735039 -0.0024638
507 1 7.97616 1.26802 14.4909 -0.00799587 -0.0016157 -0.00264889
508 1 5.90822 2.5572 14.6421 -0.00156112 -0.00163271 0.00228672
509 1 19.7706 21.3711 15.1336 0.00164599 -0.00140432 0.00385297
510 1 7.29695 2.49794 12.5153 -0.00198251 -0.000505793 -0.00466782
511 1 8.05056 3.76921 12.9953 0.0162046 0.0119145 0.00717611
512 1 20.3702 21.2852 16.7094 0.00949901 -0.00011259 0.00221595
513 1 8.0492 1.24983 12.9912 0.00468054 -0.00346838 0.00631495
514 1 5.89943 2.48529 12.9662 -0.00110969 -0.00559232 -0.0038761
515 1 7.30053 2.55393 10.9768 -0.00624456 -0.000426593 -0.00909279
516 1 5.13288 3.74422 12.4722 -0.00352142 0.00133245 -0.00210529
517 1 17.4668 2.52111 -3.35915 0 0 0
518 1 19.6501 1.26055 -3.35929 0 0 0
519 1 19.6501 3.78166 -3.35929 0 0 0
520 1 17.4667 2.52111 -2.03663 0 0 0
521 1 19.6501 1.26055 -2.03646 0 0 0
522 1 19.6501 3.78166 -2.03646 0 0 0
523 1 20.378 2.52111 -1.46214 0 0 0
524 1 5.13337 1.21028 12.4396 -0.00721071 0.001375 0.0012899
525 1 20.4251 2.44934 0.0616069 0.002069 0.003896 0.00331926
526 1 13.1001 5.04222 -3.35915 0 0 0
527 1 15.2834 3.78166 -3.35929 0 0 0
528 1 15.2834 6.30277 -3.35929 0 0 0
529 1 13.1 5.04222 -2.03663 0 0 0
530 1 15.2834 3.78166 -2.03646 0 0 0
531 1 15.2834 6.30277 -2.03646 0 0 0
532 1 17.4668 5.04222 -3.35915 0 0 0
533 1 16.0114 5.04222 -1.46214 0 0 0
534 1 18.1945 3.78166 -1.46193 0 0 0
535 1 18.1945 6.30277 -1.46193 0 0 0
536 1 17.4667 5.04222 -2.03663 0 0 0
537 1 16.0396 5.03455 0.0801431 -0.00021139 0.00290562 0.00201071
538 1 18.2338 3.70457 0.12202 0.00156161 0.00527257 0.00861673
539 1 18.2164 6.36208 0.0874231 0.00436425 0.00405629 -0.00482053
540 1 20.378 5.04222 -1.46214 0 0 0
541 1 18.9127 5.04407 0.677333 0.000374409 -0.00105237 0.00704323
542 1 21.1028 3.76752 0.611178 -0.00296324 0.000589803 -0.0045546
543 1 21.0895 6.27278 0.577239 0.00485407 0.00794711 0.00454805
544 1 20.327 5.07622 0.0862114 -0.000719774 0.00498467 0.00319626
545 1 18.8453 5.0331 2.16096 -0.00395254 0.00280946 0.00372029
546 1 21.0751 3.77261 2.13341 -0.00498247 0.000940032 -0.00197558
547 1 21.073 6.27262 2.10892 0.00108574 -0.00221688 -0.00782758
548 1 2.89102 2.52788 12.4199 -0.00292335 0.000432449 0.00135248
549 1 8.7334 7.56333 -3.35915 0 0 0
550 1 10.9167 6.30277 -3.35929 0 0 0
551 1 10.9167 8.82388 -3.35929 0 0 0
552 1 8.73333 7.56333 -2.03663 0 0 0
553 1 10.9167 6.30277 -2.03646 0 0 0
554 1 10.9167 8.82388 -2.03646 0 0 0
555 1 13.1001 7.56333 -3.35915 0 0 0
556 1 11.6447 7.56333 -1.46214 0 0 0
557 1 13.8278 6.30277 -1.46193 0 0 0
558 1 13.8278 8.82388 -1.46193 0 0 0
559 1 13.1 7.56333 -2.03663 0 0 0
560 1 11.7028 7.53622 0.0339837 0.00142375 0.00599744 0.00844598
561 1 13.8438 6.32168 0.0490194 -0.00162849 0.00080061 0.00472999
562 1 13.8236 8.84408 0.0540731 -0.00469593 0.00497185 0.00350855
563 1 16.0114 7.56333 -1.46214 0 0 0
564 1 14.5388 7.56318 0.543255 -0.00184326 -0.00776163 -0.00597575
565 1 16.7459 6.35866 0.546847 0.00267209 0.00375124 0.00453038
566 1 16.702 8.87389 0.606879 -0.00189865 0.00139235 -0.00462257
567 1 16.0361 7.59873 0.059697 -7.03777e-05 0.00200281 -0.00122692
568 1 14.5388 7.6217 2.08212 -0.000770886 0.00334163 -0.00187221
569 1 16.7086 6.30997 2.0731 -0.000926703 0.00115469 0.000376533
570 1 16.7076 8.84294 2.17831 -0.00356112 0.00176407 -0.000492431
571 1 18.9054 7.58971 0.583795 -0.00493803 0.00851831 -0.00452737
572 1 17.4291 7.54533 2.66044 -0.000750167 0.00599199 -0.00189848
573 1 19.6831 6.28098 2.62555 -0.00344218 0.00268207 -0.00210078
574 1 19.6312 8.82993 2.64166 -0.00299152 0.00753966 0.00342286
575 1 18.9064 7.58282 2.11449 -0.00322783 0.00730372 0.015377
576 1 17.4398 7.54599 4.19233 -0.00141195 -0.00816746 -0.00685758
577 1 19.6444 6.29912 4.20198 -0.00633856 0.00327723 -0.00497399
578 1 19.5969 8.84125 4.21873 0.00223637 0.00149817 0.0073418
579 1 20.3698 7.62383 4.73347 0.00299321 0.000387335 0.000857116
580 1 4.40375 2.48925 10.4354 0.000784366 0.00367357 -0.00653249
581 1 20.3638 7.58572 6.21519 0.00285597 -3.71855e-05 -0.000528518
582 1 4.36671 10.0844 -3.35915 0 0 0
583 1 6.55001 8.82388 -3.35929 0 0 0
584 1 6.55001 11.345 -3.35929 0 0 0
585 1 4.36664 10.0844 -2.03663 0 0 0
586 1 6.55001 8.82388 -2.03646 0 0 0
587 1 6.55001 11.345 -2.03646 0 0 0
588 1 8.7334 10.0844 -3.35915 0 0 0
589 1 7.27798 10.0844 -1.46214 0 0 0
590 1 9.46108 8.82388 -1.46193 0 0 0
591 1 9.46108 11.345 -1.46193 0 0 0
592 1 8.73333 10.0844 -2.03663 0 0 0
593 1 7.26722 10.0625 0.06203 0.00745343 0.00784047 0.000896833
594 1 9.46082 8.81977 0.0875026 -0.000913048 0.00140295 -0.000538697
595 1 9.45334 11.3279 0.114877 -0.00267619 0.00793748 0.0044153
596 1 11.6447 10.0844 -1.46214 0 0 0
597 1 10.1969 10.0933 0.595419 -0.00263955 -0.00014136 0.00206351
598 1 12.3583 8.80224 0.595655 0.00187635 0.00693177 -0.00322084
599 1 12.3803 11.309 0.577264 -0.0077142 -0.0041008 0.000982348
600 1 11.6395 10.1029 0.0490712 0.00334144 -0.00605936 -0.0070643
601 1 10.1361 10.0801 2.13954 0.00241025 0.000437765 -0.000730364
602 1 12.3362 8.83146 2.10321 0.00075818 0.00563857 0.00530827
603 1 12.3471 11.3744 2.17937 -0.0128892 0.0125331 -0.00166635
604 1 14.5684 10.0945 0.644724 0.00478077 0.000320132 0.00753728
605 1 13.0756 10.0876 2.66736 -0.00309269 -0.00209519 0.0118646
606 1 15.2483 8.81444 2.65957 0.000570891 0.00163694 -0.00332951
607 1 15.2391 11.4314 2.74532 0.00428794 -0.00791043 -0.000615058
608 1 14.5253 10.1425 2.17322 0.0016553 0.00228096 0.0120374
609 1 13.1448 10.0489 4.21566 -0.00424462 -0.00469809 0.00160337
610 1 15.2507 8.82268 4.21399 0.00750308 -0.00262085 -0.00236487
611 1 15.2481 11.3336 4.24998 0.00124457 -0.0112819 -0.0012499
612 1 17.4672 10.0949 2.59703 0.002735 0.00781418 -0.00124456
613 1 15.9813 10.085 4.72439 0.00667917 0.000136345 0.000395762
614 1 18.1778 8.83792 4.72977 0.00735351 0.00437658 0.00841422
615 1 18.1588 11.381 4.74087 -0.00240349 -0.00349637 0.00272079
616 1 17.5045 10.0877 4.16329 -0.00568466 0.00452145 -0.00612447
617 1 15.9728 10.1474 6.31863 -0.00683485 0.0015413 0.00737699
618 1 18.2088 8.80713 6.26669 0.00419811 -0.00882304 -0.00393326
619 1 18.2286 11.3537 6.25385 -0.00712629 0.00292683 0.00232374
620 1 20.3696 10.1524 4.68076 -0.00153362 0.000560005 0.00392888
621 1 18.9382 10.1017 6.79461 -0.00429178 -0.00585155 0.00389701
622 1 21.072 8.78842 6.75253 -0.0122472 0.00491853 0.00442394
623 1 21.1312 11.3707 6.76626 -0.000523167 -0.00710709 0.00418276
624 1 20.3818 10.1273 6.21438 0.00215269 -0.00116629 -0.00273387
625 1 18.9221 10.0912 8.29399 -0.00506928 0.00173958 -0.000481235
626 1 21.0994 8.85016 8.28019 -0.00208605 0.00404064 -0.00461059
627 1 21.0633 11.4001 8.30017 -0.00228829 -0.00288925 -0.00785061
628 1 5.12749 3.77617 10.8839 0.00205438 0.00024488 -0.00493761
629 1 5.09443 1.21233 10.9214 0.00330104 -0.00280287 -0.00713072
630 1 1.88916e-05 12.6055 -3.35915 0 0 0
631 1 2.18332 11.345 -3.35929 0 0 0
632 1 2.18332 13.8661 -3.35929 0 0 0
633 1 21.8334 12.6055 -2.03663 0 0 0
634 1 2.18332 11.345 -2.03646 0 0 0
635 1 2.18332 13.8661 -2.03646 0 0 0
636 1 4.36671 12.6055 -3.35915 0 0 0
637 1 2.91129 12.6055 -1.46214 0 0 0
638 1 5.09439 11.345 -1.46193 0 0 0
639 1 5.09439 13.8661 -1.46193 0 0 0
640 1 4.36664 12.6055 -2.03663 0 0 0
641 1 2.95123 12.6359 0.0933185 0.00216833 -0.00398348 0.00105101
642 1 5.05978 11.3044 0.0880874 0.00192291 0.00200855 -0.00400357
643 1 5.11949 13.845 0.0245245 -0.0110008 0.00132971 -0.00495731
644 1 7.27798 12.6055 -1.46214 0 0 0
645 1 5.79597 12.6383 0.578639 0.000707866 -0.00382538 -0.00311381
646 1 8.00031 11.2973 0.606962 -0.0041668 -0.00848498 0.00581835
647 1 7.99359 13.8569 0.634656 -0.00730832 0.00234555 0.00571775
648 1 7.27595 12.5733 0.0469863 -2.63252e-05 0.000228275 -3.2272e-05
649 1 5.85921 12.5815 2.09792 0.00337241 0.0102998 -0.000515181
650 1 8.01688 11.3287 2.16776 0.00427762 0.000292014 -0.00278581
651 1 8.00685 13.8746 2.12129 0.00770181 0.00172621 -0.00473045
652 1 10.1719 12.5594 0.59584 0.000992989 0.00678574 -0.00269264
653 1 8.78697 12.5875 2.66923 0.00131572 -0.000740585 0.00148486
654 1 10.879 11.315 2.65895 -0.000419345 0.00644246 -0.000386412
655 1 10.9524 13.8721 2.66644 0.00327433 -0.00437443 0.012064
656 1 10.2069 12.6183 2.15297 -0.00258933 0.00422255 0.00188257
657 1 8.72607 12.6073 4.21728 0.00846845 -0.00720154 0.0010423
658 1 10.9198 11.3432 4.27251 0.00192856 -0.00539278 -0.000632637
659 1 10.9062 13.8774 4.22411 0.00144981 0.00679776 -0.00400173
660 1 13.0252 12.6305 2.6452 0.00665173 -0.00375686 0.00145543
661 1 11.569 12.6086 4.7307 -0.00347097 -0.00192968 -0.00616134
662 1 13.7838 11.3423 4.67678 -8.82173e-05 -0.00100206 0.00234308
663 1 13.7882 13.8604 4.71335 0.000725816 0.000538601 0.000671479
664 1 13.0461 12.6157 4.21156 -0.00265622 -0.00980362 -0.000884847
665 1 11.6428 12.5892 6.2998 -0.00902032 -0.00252528 -0.00531209
666 1 13.7531 11.3304 6.2722 0.00704755 -0.000914309 -0.00483421
667 1 13.8004 13.8513 6.3002 0.0039572 -0.0045932 -0.00113583
668 1 16.0218 12.6335 4.75975 0.00529047 0.000906133 0.00207479
669 1 14.502 12.6536 6.78336 -0.00432147 -0.00261718 -0.00418332
670 1 16.7113 11.4277 6.76891 0.00836982 0.00201161 0.00936253
671 1 16.7284 13.9394 6.77779 -0.0076293 -0.00333923 -0.00619869
672 1 16.043 12.6783 6.30916 0.00121666 -0.0104937 -0.00421363
673 1 14.6087 12.6258 8.30579 -0.00974155 0.0061509 0.00105491
674 1 16.7497 11.3571 8.33055 0.00150726 0.00950247 0.00269565
675 1 16.7459 13.9112 8.33667 0.000322006 -0.00273442 -0.000205515
676 1 18.8935 12.6283 6.77126 -0.00819419 0.00996948 0.00347922
677 1 17.4966 12.6181 8.86703 0.00847279 -0.00452485 -0.00506608
678 1 19.697 11.3545 8.84369 -0.00230986 -0.00339066 -0.00647485
679 1 19.6015 13.7925 8.88864 -0.003635 0.00295386 -0.0103336
680 1 18.9122 12.6197 8.34382 0.00199563 0.000134316 -0.00208557
681 1 17.473 12.5753 10.3875 0.000115459 0.00457743 -0.0111572
682 1 19.6752 11.324 10.3808 0.00908004 -0.00868899 0.0138629
683 1 19.6144 13.8973 10.4339 0.00806978 -0.0013661 0.000952055
684 1 2.92673 2.54231 10.8957 -0.00186435 -0.00615326 0.00180077
685 1 20.3568 12.611 10.9579 0.00310847 -0.00245065 0.000707603
686 1 4.4017 2.49621 8.87591 0.00412114 0.00590652 0.00320585
687 1 20.3509 12.6494 12.4806 0.00528039 -0.00408916 -0.00330637
688 1 1.88894e-05 15.1267 -3.35915 0 0 0
689 1 0.727698 13.8661 -1.46193 0 0 0
690 1 0.727698 16.3872 -1.46193 0 0 0
691 1 21.8334 15.1267 -2.03663 0 0 0
692 1 0.760316 13.9127 0.0447115 -0.00284144 -0.00325029 0.000451614
693 1 0.804769 16.3859 0.0529601 0.011328 -0.000624229 -0.000938976
694 1 2.91129 15.1267 -1.46214 0 0 0
695 1 1.50418 15.0976 0.566547 -0.00431993 -0.00237695 0.00271808
696 1 3.67317 13.8411 0.607018 -0.000875422 -0.00125702 -0.00197184
697 1 3.73792 16.4139 0.588026 -0.001615 0.00851768 0.00263722
698 1 2.97736 15.1852 0.0705945 -0.00122294 -0.00116333 -0.00244544
699 1 1.42604 15.1276 2.15986 0.00311109 0.001812 -0.00239236
700 1 3.62406 13.8241 2.14931 -0.00433295 -0.00218917 -5.3596e-05
701 1 3.66195 16.323 2.09606 -0.0010221 0.00132328 -0.00703473
702 1 5.78842 15.1043 0.547719 0.00265347 -0.00477815 -0.00595552
703 1 4.39302 15.0785 2.65217 -0.00222869 0.00423775 -0.0127324
704 1 6.56976 13.7876 2.57584 -0.000947917 0.000434957 0.00117571
705 1 6.52448 16.3274 2.63867 0.000628943 -0.0028157 0.00155226
706 1 5.83738 15.1052 2.16983 0.00930052 0.00439175 -0.0012207
707 1 4.41677 15.184 4.18353 -0.00237213 0.000568346 -0.0104488
708 1 6.56825 13.8459 4.24706 -0.00367874 -0.000299896 -0.000603893
709 1 6.57308 16.3971 4.21181 0.00809383 0.00367181 0.00402797
710 1 8.74142 15.0947 2.65356 0.00513799 -0.000524338 0.00381864
711 1 7.28749 15.0926 4.75545 0.00683081 -0.0020798 -0.00158966
712 1 9.5225 13.8939 4.7392 0.00454549 -0.000242675 0.00367216
713 1 9.4788 16.4044 4.68692 -0.00618531 0.00238006 -0.00223847
714 1 8.71497 15.1345 4.25058 -0.00183188 0.00247364 -0.000209336
715 1 7.26279 15.1398 6.33914 -0.00245571 -0.00257423 -0.00629748
716 1 9.40775 13.8553 6.26821 0.00559498 0.00385426 0.00309289
717 1 9.52874 16.3829 6.2148 0.00170371 -0.00113931 0.00503829
718 1 11.6531 15.1648 4.77437 0.00313787 0.00541728 -0.000668728
719 1 10.1737 15.0924 6.8455 0.00367472 0.00272952 -0.00436573
720 1 12.3174 13.8584 6.84537 -0.00123362 0.000828097 -0.00220264
721 1 12.3768 16.4092 6.78903 -0.00132255 0.00741771 -0.00949986
722 1 11.6398 15.0884 6.30365 0.00323443 -0.000329876 0.0014495
723 1 10.1657 15.1249 8.37162 0.000204345 -0.00325013 -0.00082826
724 1 12.3409 13.8813 8.38731 -0.00167925 0.00411311 0.00621915
725 1 12.4397 16.3896 8.3316 -0.00584757 -0.00616485 -0.00298033
726 1 14.5452 15.1665 6.80387 -0.00486617 0.00118769 -0.00843497
727 1 13.0859 15.1323 8.8714 0.00196549 0.00134202 -0.00453843
728 1 15.2416 13.9003 8.86097 -0.00172162 -0.0056559 -0.00592535
729 1 15.222 16.4581 8.85081 -0.0073886 0.010501 -0.00649097
730 1 14.5194 15.1276 8.3788 0.00463501 -0.0074013 0.00453429
731 1 13.1172 15.1244 10.4454 0.0012359 -0.00852275 0.00568105
732 1 15.3279 13.8568 10.4217 0.00838136 -0.000459878 0.00278601
733 1 15.2844 16.4489 10.3994 -0.00261487 -0.00200824 -0.00124623
734 1 17.4631 15.0889 8.86035 0.00146866 -0.00239885 0.000888501
735 1 15.9854 15.1725 10.9184 -0.00116858 -0.000404497 -0.0115547
736 1 18.1717 13.8644 10.9561 -0.0061563 -0.0020689 0.00192539
737 1 18.2074 16.3953 10.8947 -0.00253747 0.00196046 0.00266409
738 1 17.4477 15.1045 10.427 0.00152649 0.00784352 0.00328716
739 1 15.9947 15.159 12.4633 -0.00253147 0.00247465 0.00131797
740 1 18.1837 13.8696 12.525 -0.00357625 -0.00160572 0.00477255
741 1 18.2193 16.3692 12.4747 -0.00261466 0.0105227 0.000443666
742 1 20.3524 15.1242 10.8482 0.00449761 -0.000207597 -0.00346441
743 1 18.9612 15.0978 13.0492 -0.0046262 0.00690429 0.00842214
744 1 21.0923 13.8593 12.9609 -0.000642469 0.00878565 0.0042916
745 1 21.1135 16.3586 12.9314 -0.00592938 -0.00108615 0.00224108
746 1 20.3904 15.0655 12.4806 0.00885638 0.00307749 -0.00284651
747 1 18.9483 15.1485 14.7269 -9.63836e-05 0.00049478 0.00306681
748 1 21.1491 13.8506 14.5022 -0.000919998 -0.000808731 0.00295577
749 1 21.0623 16.3354 14.5064 -0.00479231 0.00617823 -0.00177159
750 1 2.22267 3.81646 10.35 -0.00441212 0.00253051 -0.000508484
751 1 2.17373 1.30604 10.3823 0.00189443 -0.00470859 3.87599e-05
752 1 1.52269 17.6709 0.603056 -0.00392283 -0.00171564 0.00259336
753 1 0.0177522 17.658 2.67139 -0.00119129 -0.00596107 0.000732307
754 1 2.16571 16.3931 2.65783 0.00214531 0.00110593 0.000605879
755 1 2.16765 18.8923 2.65665 0.0155052 -0.00375164 0.0030718
756 1 1.43997 17.6273 2.09141 -0.00281674 0.00275912 -0.00944317
757 1 21.828 17.6102 4.2305 0.000911765 -0.00539549 0.00261971
758 1 2.17247 16.3766 4.17826 -0.00182064 0.00144553 0.0091814
759 1 2.20572 18.8771 4.16811 -0.00423164 0.000452882 0.0117049
760 1 4.3406 17.5927 2.61095 0.000913379 -0.00207632 -0.00378449
761 1 2.92621 17.6466 4.69865 0.00361534 -0.0091825 -0.000469299
762 1 5.12759 16.4088 4.73301 0.0176077 -0.0078488 -0.0101776
763 1 5.09796 18.9008 4.74792 0.0041098 0.00514024 -0.00204832
764 1 4.31417 17.6172 4.2311 -0.00421349 0.00852035 -0.00417606
765 1 2.90724 17.6492 6.20733 0.00493266 0.00983421 -0.00641182
766 1 5.08479 16.4002 6.25804 0.00585502 0.00506442 -0.00299979
767 1 5.0651 18.9408 6.28328 0.00755841 0.000694507 -0.00276278
768 1 7.28825 17.6069 4.72871 -0.00749211 -0.0015749 0.00402232
769 1 5.79076 17.644 6.78724 -0.00896906 -0.00177271 -0.00313144
770 1 8.01416 16.3597 6.80927 -0.000415086 -0.00090682 0.00150917
771 1 8.01455 18.9389 6.78617 0.00359139 0.00669529 -0.00276656
772 1 7.25525 17.6455 6.29778 0.00693644 -0.00632518 -0.0068811
773 1 5.80703 17.6493 8.30578 0.0059166 0.00131887 -0.00360315
774 1 8.04224 16.3855 8.3264 0.0110837 -0.00520705 -0.00107504
775 1 8.0322 18.9172 8.32112 -0.00662216 -0.00214936 0.00733466
776 1 10.1561 17.647 6.77514 -0.00205313 -0.000468544 -0.00504291
777 1 8.79563 17.655 8.85124 -0.0107438 -0.000237178 -0.00165594
778 1 10.9529 16.4194 8.83384 0.000755098 -0.00677583 -0.00182803
779 1 10.937 18.8859 8.90879 0.00418789 -0.00861273 -0.00591493
780 1 10.2285 17.6472 8.39063 -0.00151988 0.000870439 0.00466897
781 1 8.78433 17.6608 10.3964 -0.0032037 0.00276003 0.000615094
782 1 10.926 16.3454 10.4212 -0.000539644 -0.00521291 -0.00361056
783 1 10.9386 18.8846 10.4244 0.00308016 0.00985755 -0.00603707
784 1 13.1193 17.6501 8.88394 -0.00516397 -0.00131551 -0.00214654
785 1 11.6644 17.6325 10.913 0.00618462 0.00177548 0.0066146
786 1 13.8236 16.4122 10.9516 0.00931683 0.0030008 0.00071745
787 1 13.8814 18.9268 10.938 0.00860655 -0.00231507 0.00247131
788 1 13.1676 17.6556 10.4027 -0.0093184 0.00843079 0.00449632
789 1 11.6817 17.6603 12.4369 0.00329842 0.00614287 0.00048513
790 1 13.8161 16.3869 12.4756 -0.000992499 -0.00635212 0.00661778
791 1 13.8588 18.9169 12.5407 0.000320411 -0.00222939 -0.00723346
792 1 16.0418 17.6991 10.9187 -0.00835372 -0.00203075 -0.00167678
793 1 14.5822 17.6692 13.0569 0.0110881 -0.0107294 0.00212773
794 1 16.7714 16.3823 12.9859 -0.00466066 -0.000217456 -0.00497209
795 1 16.7914 18.8993 13.0086 0.00250533 -0.00411317 -0.00701086
796 1 16.095 17.6983 12.5124 -0.00178307 0.00200724 -0.0017253
797 1 14.6071 17.6729 14.6408 0.00661028 -0.00091314 0.00691873
798 1 16.7623 16.428 14.4525 -0.00316336 0.00404105 -0.00108345
799 1 16.8278 18.9505 14.4507 -4.56518e-05 0.00469385 0.00495981
800 1 18.9569 17.6552 13.0032 -0.00768405 0.00205296 0.00301493
801 1 17.4122 17.6337 15.0582 -0.00397958 -0.00327081 0.00284917
802 1 19.6875 16.3961 15.0172 -0.0022346 0.00111404 0.00263439
803 1 19.7146 18.9151 15.0984 -0.00229848 -0.00828114 0.000300292
804 1 18.9298 17.654 14.6344 0.00573076 0.00349216 -0.00443108
805 1 16.847 17.6795 16.6166 0.00487218 0.00578264 -0.000109576
806 1 20.244 16.3923 16.6601 -0.00367002 0.0073347 -0.00162389
807 1 20.2987 18.9147 16.6219 0.0106598 -0.00258087 -0.0095899
808 1 0.801404 17.6247 17.344 0.00262906 -0.00328242 -0.00629135
809 1 0.000700489 2.51835 10.395 0.0114792 -0.00326744 -0.00292264
810 1 0.00203138 20.1757 2.6437 -0.00674351 -0.00594006 0.00375758
811 1 0.721413 18.9457 4.70456 0.00373844 -0.00270912 0.00230989
812 1 0.721786 21.4095 4.72667 0.00474821 0.00309518 0.00373174
813 1 21.8016 20.1729 4.23056 9.27978e-05 0.00893991 0.00230233
814 1 0.724182 18.9699 6.24143 -0.00680765 -0.00186206 0.00495388
815 1 0.685077 21.4673 6.29238 -0.00587626 -0.00874244 0.000729148
816 1 2.91688 20.1632 4.74726 -0.00226284 0.00091814 0.00560537
817 1 1.43069 20.1988 6.80299 0.00203077 -0.0109412 0.000900446
818 1 3.61065 18.8318 6.745 0.00133837 -0.00404655 -0.00253861
819 1 3.56714 21.4214 6.82697 -0.00355044 -0.0031244 -0.00491348
820 1 2.86985 20.1362 6.2549 0.00369804 0.0106465 -0.000112788
821 1 1.45094 20.1906 8.32815 0.00252947 -0.00396524 -0.00120082
822 1 3.62383 18.878 8.30846 -0.00559191 0.00811923 0.000726982
823 1 3.61411 21.4464 8.32617 0.00220265 0.00184155 0.00154453
824 1 5.84428 20.1827 6.79626 -0.00510806 -0.00469041 0.00293231
825 1 4.39103 20.1167 8.8159 -0.00506502 0.00271408 0.00304538
826 1 6.5584 18.8988 8.83654 -0.00114482 -0.00159344 0.00251643
827 1 6.57262 21.4144 8.87804 0.00328136 -0.0014116 -0.00637149
828 1 5.86231 20.1443 8.31987 0.00866574 -0.00318665 -0.00345486
829 1 4.36547 20.1062 10.3541 -0.00781571 0.00458534 0.0058447
830 1 6.53454 18.9017 10.3591 -0.00173179 0.00539186 -0.00233617
831 1 6.52621 21.4266 10.4349 -0.00825548 0.00916798 0.0018879
832 1 8.7661 20.1844 8.82491 0.00788339 -0.00464402 -0.00179606
833 1 7.27349 20.1905 10.8416 -0.00415027 -0.000334082 0.0102826
834 1 9.47483 18.8791 10.9502 0.00990195 0.00895469 -0.00144054
835 1 9.46175 21.3789 10.9384 0.00128597 -0.0107149 -0.00651265
836 1 8.74448 20.1276 10.4344 0.0020528 -0.00496903 0.00218961
837 1 7.28447 20.1841 12.434 0.00108106 0.00424081 -0.0115266
838 1 9.47173 18.9045 12.5076 -0.00217566 0.00877828 -0.00309458
839 1 9.4629 21.3658 12.476 -0.002129 -0.00285285 0.00805206
840 1 11.6902 20.1368 10.925 0.00717147 -0.00144436 0.00089225
841 1 10.175 20.1634 12.9975 0.000638648 -0.00121971 -0.00085819
842 1 12.3899 18.8914 13.0174 -0.00516744 -0.002154 -8.01231e-05
843 1 12.3716 21.4527 12.9398 -0.00220736 -0.00216576 -0.000584711
844 1 11.6785 20.1269 12.4627 -0.0045084 -0.00225666 0.010784
845 1 10.1965 20.202 14.6132 0.000756554 0.00104446 0.00209451
846 1 12.3379 18.9221 14.4824 0.00284407 0.000353889 -0.0100576
847 1 12.3986 21.4394 14.4417 -0.000924396 0.00143327 -0.00838481
848 1 14.5757 20.205 13.1069 -0.0032897 -0.00130988 -0.0162958
849 1 12.978 20.1355 15.0628 0.00797892 0.00519307 -0.00330231
850 1 15.343 18.9438 15.06 -0.00287387 0.00356718 0.00724501
851 1 15.3557 21.4795 15.0887 0.00804637 -0.000345311 -0.00377279
852 1 14.5581 20.1407 14.6933 -0.000281249 0.000578737 -0.00503069
853 1 12.3928 20.1697 16.5909 0.000170334 0.00228413 -0.0086487
854 1 15.9076 19.0053 16.5781 -0.00299735 -0.0038471 0.00194264
855 1 15.8979 21.4807 16.7124 0.00755109 -0.00314437 0.00249404
856 1 17.4357 20.2159 15.0654 -0.00857981 -0.000204262 -0.00950985
857 1 18.2384 20.2145 17.3548 0.000963451 -0.00274044 -0.0076333
858 1 18.9303 18.9511 17.3176 0.00885267 0.00146081 0.00193642
859 1 19.0192 21.3865 17.3468 0.00477598 0.00441223 0.0021147
860 1 16.8867 20.2347 16.6238 -0.00175667 -0.000661408 -0.00197613
861 1 0.783725 20.1434 17.3886 -0.000579158 -0.0106216 -0.00494001
862 1 1.46009 2.54893 8.32691 -0.0113289 0.0102465 -0.0056813
863 1 2.14314 3.76878 8.84683 -0.00286644 -0.00144522 -0.00310314
864 1 2.13365 21.4453 8.85315 0.000709247 -0.00457558 0.00526712
865 1 2.14471 1.29708 8.87622 -0.00704184 0.00129253 -0.00314345
866 1 21.8038 2.54083 8.82858 -0.00978397 0.00294036 -0.00453387
867 1 2.18202 21.3516 10.3997 0.000273588 -0.00241392 0.0053567
868 1 1.49378 2.50712 6.76131 0.000276205 0.000711928 -0.00084844
869 1 0.822258 22.659 17.3205 0.000156221 0.00899962 -0.00175894
870 1 5.09154 21.3737 10.9399 -0.00350472 -0.00148345 -0.00689256
871 1 16.8684 0.0259466 16.6781 0.00409114 9.7076e-05 -0.00728409
872 1 18.9822 1.25418 17.3987 0.00567511 -0.00461925 -0.00157425
873 1 5.11696 21.4403 12.5009 -0.00390824 0.00235161 -0.0024956
874 1 18.2761 22.6398 17.4208 0.00517299 -0.00310057 -0.00106833
875 1 17.4165 22.6655 15.0547 0.00641617 -0.00682835 -0.00096486
876 1 8.00353 21.4015 12.9406 0.000521711 0.0140263 -0.00145043
877 1 16.0577 1.25342 16.8872 0.00450545 0.0112674 -0.00233418
878 1 12.5217 22.6679 16.5743 -0.00322973 -0.000694331 -0.00448071
879 1 8.02398 21.4399 14.4756 0.00395161 0.00342871 -0.00894998
880 1 14.5637 0.00985538 14.5638 0.00252529 -0.003733 -0.00696791
881 1 15.2758 1.29736 14.9158 0.00148983 -0.0102899 0.00822412
882 1 10.915 21.4221 15.0676 -0.00752043 0.0102889 0.00143835
883 1 13.0038 0.0080171 15.0542 0.00769856 0.00902087 -0.0030413
884 1 14.5544 22.6687 13.0043 -0.00296785 0.000848272 -0.0037738
885 1 11.5123 21.3769 16.6652 -0.00816016 0.00523774 0.00703908
886 1 12.4143 1.31149 14.4279 -0.00803049 0.00155194 0.00174901
887 1 10.1656 0.0475271 14.564 0.000361446 0.00653858 -0.00290575
888 1 14.5687 21.4373 17.2837 -0.00961499 -0.00428123 0.000828912
889 1 11.6365 0.00454549 12.4409 -0.0013443 0.00015246 0.00566136
890 1 12.424 1.28704 12.9303 -0.00445495 0.00694506 -0.00514825
891 1 13.1001 8.43448e-10 -3.35915 0 0 0
892 1 15.2834 1.26055 -3.35929 0 0 0
893 1 13.1 1.05965e-09 -2.03663 0 0 0
894 1 15.2834 1.26055 -2.03646 0 0 0
895 1 17.4668 2.057e-09 -3.35915 0 0 0
896 1 16.0114 4.83473e-10 -1.46214 0 0 0
897 1 18.1945 1.26055 -1.46193 0 0 0
898 1 17.4667 1.33008e-09 -2.03663 0 0 0
899 1 16.0522 22.6616 0.0430852 -0.00172932 0.00553266 0.00698701
900 1 18.2035 1.26884 0.0652646 -0.00169329 -0.00765806 0.000135876
901 1 20.378 22.69 -1.46214 0 0 0
902 1 18.9045 22.6731 0.579597 0.00127761 8.35033e-05 -0.00668843
903 1 21.1218 1.23551 0.588159 0.0056518 -0.00640141 -0.00460791
904 1 20.4401 0.02397 0.016418 0.00336971 0.00156634 0.00133447
905 1 18.9512 22.6838 2.09784 -0.0041188 0.00164592 -0.00286646
906 1 21.1304 1.25698 2.12643 0.00514619 -0.00297164 0.00483289
907 1 10.2137 22.6791 13.0074 -0.000416457 0.00109056 0.00666063
908 1 8.7334 2.52111 -3.35915 0 0 0
909 1 10.9167 1.26055 -3.35929 0 0 0
910 1 10.9167 3.78166 -3.35929 0 0 0
911 1 8.73333 2.52111 -2.03663 0 0 0
912 1 10.9167 1.26055 -2.03646 0 0 0
913 1 10.9167 3.78166 -2.03646 0 0 0
914 1 13.1001 2.52111 -3.35915 0 0 0
915 1 11.6447 2.52111 -1.46214 0 0 0
916 1 13.8278 1.26055 -1.46193 0 0 0
917 1 13.8278 3.78166 -1.46193 0 0 0
918 1 13.1 2.52111 -2.03663 0 0 0
919 1 11.6751 2.47802 0.0663025 0.000134981 0.00310738 0.0116193
920 1 13.9026 1.26743 0.0859228 0.000477515 0.00667452 0.0167438
921 1 13.8742 3.77126 0.0683617 0.00222258 0.00124661 0.00195215
922 1 16.0114 2.52111 -1.46214 0 0 0
923 1 14.5803 2.53186 0.560018 -0.00148366 -0.00646851 -0.00343855
924 1 16.7579 1.27572 0.570833 -0.00523202 -0.00525484 -0.00341249
925 1 16.7299 3.74458 0.602809 -0.00833499 0.000564721 -0.00398696
926 1 15.9993 2.48852 0.0789452 -0.00247092 -0.00565553 -0.00464574
927 1 14.5614 2.47782 2.15129 -0.00991479 0.00272029 -0.000481877
928 1 16.7232 1.26328 2.15243 -0.00509467 -0.00126391 -0.00237654
929 1 16.7069 3.7736 2.14836 -0.00259362 -0.00211628 -0.00419214
930 1 18.9589 2.53028 0.590991 0.0105609 0.00150573 -0.00114957
931 1 17.4659 2.48007 2.65046 -0.00220106 0.00381762 0.00561359
932 1 19.7033 1.21824 2.66733 -0.000991601 0.000484022 0.00985374
933 1 19.6205 3.67937 2.6282 0.00390274 -0.00338232 -0.00399077
934 1 18.892 2.41844 2.13896 -0.00574789 -0.00282987 0.000819358
935 1 17.4647 2.50758 4.1362 -0.00566296 -0.00299646 0.00512784
936 1 19.6517 1.29196 4.24455 -0.00444009 -0.00870053 -0.00132016
937 1 19.5944 3.78416 4.20805 -0.0043318 -0.0076225 0.00635215
938 1 11.673 22.6605 10.9445 -0.00144823 0.00663217 -2.00102e-05
939 1 20.3399 2.54394 4.7106 0.00343343 0.00315908 -0.0017034
940 1 9.43382 1.21522 12.4309 -0.00799058 -0.00573853 -0.00117336
941 1 20.3574 2.57427 6.27118 0.000360113 -0.00133636 -0.00102552
942 1 4.36671 5.04222 -3.35915 0 0 0
943 1 6.55001 3.78166 -3.35929 0 0 0
944 1 6.55001 6.30277 -3.35929 0 0 0
945 1 4.36664 5.04222 -2.03663 0 0 0
946 1 6.55001 3.78166 -2.03646 0 0 0
947 1 6.55001 6.30277 -2.03646 0 0 0
948 1 8.7334 5.04222 -3.35915 0 0 0
949 1 7.27798 5.04222 -1.46214 0 0 0
950 1 9.46108 3.78166 -1.46193 0 0 0
951 1 9.46108 6.30277 -1.46193 0 0 0
952 1 8.73333 5.04222 -2.03663 0 0 0
953 1 7.30344 5.05493 0.0696923 -0.00331771 0.000755928 0.00402329
954 1 9.44411 3.77717 0.0658781 -0.00389661 0.00576617 -0.00635807
955 1 9.43454 6.29652 0.115265 0.000875484 -0.000324316 -0.000897082
956 1 11.6447 5.04222 -1.46214 0 0 0
957 1 10.1554 5.05419 0.549398 -0.00338795 -0.00683303 -0.003219
958 1 12.3892 3.74437 0.59544 -0.00293135 -0.000706009 0.00587064
959 1 12.3552 6.26933 0.60958 0.00582781 0.00111404 0.000898744
960 1 11.6343 5.00041 0.0544326 0.00395973 -0.0027228 0.00100261
961 1 10.1731 5.04644 2.13795 0.00279712 -0.00270791 -0.00700982
962 1 12.3759 3.81363 2.17367 0.00580077 0.00961916 -0.00550651
963 1 12.3581 6.37765 2.12527 0.00262701 -0.00379241 0.0101611
964 1 14.5562 5.06844 0.595617 -0.00318228 0.00334147 -0.00416208
965 1 13.0931 5.10508 2.64188 -0.00437765 -0.00699466 0.000607169
966 1 15.2572 3.69223 2.61391 0.000823079 -0.00562953 0.0051246
967 1 15.2766 6.23952 2.65564 -0.00669926 -0.00364285 -0.00102583
968 1 14.539 5.02442 2.14449 0.00142308 0.00183016 -0.00638644
969 1 13.0676 5.08646 4.16347 0.00284942 0.00351697 0.0083043
970 1 15.287 3.77527 4.20055 0.00101222 0.00721741 0.00453001
971 1 15.2705 6.31959 4.2196 0.00417174 -0.00518149 -0.00483941
972 1 17.4369 5.01403 2.67104 0.00514506 0.00165839 0.00392384
973 1 15.9641 4.97963 4.68986 -0.00050645 -0.00589805 0.000288745
974 1 18.1856 3.8175 4.73974 -0.0067249 -0.00526463 -0.00151745
975 1 18.1737 6.27909 4.67612 -0.000786848 -0.00169308 -0.00443667
976 1 17.4308 5.05157 4.18654 -0.00105954 -0.00167582 -0.0112544
977 1 15.9437 4.99707 6.27718 -0.000757277 -0.0011788 2.12581e-05
978 1 18.183 3.7573 6.25849 -0.00237006 0.00196709 -0.00212446
979 1 18.1572 6.297 6.20172 0.00184716 0.010088 -0.00476504
980 1 20.38 5.04313 4.75124 -0.00364193 -0.00354961 -0.00019208
981 1 18.9658 5.04079 6.77688 0.000844633 0.00700262 0.00342706
982 1 21.1687 3.81959 6.77572 -0.00303651 0.00096048 -0.00957374
983 1 21.1622 6.33459 6.77182 -0.00955919 -0.00422098 -0.00435448
984 1 20.4363 5.06777 6.27556 0.00519485 -0.000291933 -0.00238098
985 1 18.8841 5.07472 8.3234 0.00652765 -0.00348088 -0.00311893
986 1 21.125 3.82956 8.33641 -0.00148443 -0.00265611 -0.0130034
987 1 21.1162 6.30649 8.30525 0.00252159 0.00572421 -0.000996796
988 1 7.33653 22.6507 12.4853 0.00171229 0.00366695 -0.00415754
989 1 8.71805 22.6304 10.4212 -0.00392183 0.00987535 0.00147152
990 1 1.88943e-05 7.56333 -3.35915 0 0 0
991 1 2.18332 6.30277 -3.35929 0 0 0
992 1 2.18332 8.82388 -3.35929 0 0 0
993 1 21.8334 7.56333 -2.03663 0 0 0
994 1 2.18332 6.30277 -2.03646 0 0 0
995 1 2.18332 8.82388 -2.03646 0 0 0
996 1 4.36671 7.56333 -3.35915 0 0 0
997 1 2.91129 7.56333 -1.46214 0 0 0
998 1 5.09439 6.30277 -1.46193 0 0 0
999 1 5.09439 8.82388 -1.46193 0 0 0
1000 1 4.36664 7.56333 -2.03663 0 0 0
1001 1 2.89706 7.52937 0.0511315 0.00356358 -0.00637393 0.00254723
1002 1 5.08807 6.32125 0.110641 -0.00344027 -0.00482052 -0.000352553
1003 1 5.1198 8.75883 0.0802603 -0.00705658 0.0055143 -0.00756439
1004 1 7.27798 7.56333 -1.46214 0 0 0
1005 1 5.77009 7.53877 0.586348 0.0009211 0.00514387 -0.0095705
1006 1 8.00125 6.34718 0.569079 -0.000281606 -0.00381001 0.00778052
1007 1 7.99541 8.82076 0.594736 -0.00620519 -0.0024609 0.00159836
1008 1 7.27865 7.53234 0.0578545 -0.00242547 0.000620163 -0.00182026
1009 1 5.79948 7.55854 2.14947 0.00337455 0.0028638 -0.00567352
1010 1 8.02591 6.30674 2.1483 -0.00565082 -0.00435641 0.00181557
1011 1 8.02473 8.83505 2.14482 -0.00376115 0.00421979 0.00370641
1012 1 10.1581 7.59039 0.577039 -0.00496923 -0.00181051 -0.000614447
1013 1 8.72851 7.51947 2.69714 -0.00175417 -0.00390366 0.00153362
1014 1 10.8931 6.33345 2.66037 -0.000332404 -0.00711676 0.00594697
1015 1 10.8475 8.84836 2.64716 -0.00187303 0.000679321 0.00261777
1016 1 10.1219 7.59536 2.13646 0.00496414 0.00168884 0.00467628
1017 1 8.76263 7.62025 4.28573 -0.000196591 0.00752364 -0.00459308
1018 1 10.9577 6.34449 4.23488 0.00345649 0.00217844 -0.00315577
1019 1 10.8931 8.85492 4.16339 0.00198105 0.00235476 0.00707846
1020 1 13.0954 7.61417 2.64507 -0.00546175 0.00106984 0.00396948
1021 1 11.6294 7.61774 4.69298 0.00271342 -0.00127241 0.00972778
1022 1 13.8361 6.30967 4.74021 -0.00075626 0.00104719 0.00287581
1023 1 13.8513 8.83516 4.73599 0.0104212 0.000855982 0.00554253
1024 1 13.0951 7.6405 4.21561 0.00300842 -0.00382259 -0.00313851
1025 1 11.6096 7.58279 6.26496 0.00407664 -0.000138125 0.0104628
1026 1 13.846 6.28602 6.26551 -0.00141297 -0.00165006 0.00366351
1027 1 13.867 8.84604 6.33255 -0.00632785 -0.00343863 -0.00335643
1028 1 15.994 7.56922 4.70399 -0.00313648 -0.00115527 0.0123037
1029 1 14.5612 7.57247 6.78368 0.000363929 -0.00326073 0.00588749
1030 1 16.717 6.23857 6.73578 -0.00975342 0.00232982 -0.000605891
1031 1 16.7488 8.83321 6.79398 -0.00163687 0.00754387 0.000724831
1032 1 16.0157 7.61841 6.29344 0.000280765 0.00452611 -0.00268997
1033 1 14.5479 7.57 8.37003 -0.00659301 0.0048015 0.00040101
1034 1 16.718 6.30151 8.29178 -0.00174301 0.0153309 0.000992195
1035 1 16.7228 8.80873 8.32626 -0.00446413 -0.00208313 -0.00994822
1036 1 18.9331 7.56781 6.78161 0.0102711 -0.00902047 -0.0103213
1037 1 17.5073 7.57494 8.8348 0.0020902 0.00277691 -0.00947523
1038 1 19.659 6.33894 8.83572 -0.00321107 0.00112673 -0.00388027
1039 1 19.7092 8.79096 8.82243 0.00111598 -0.00629689 -0.00346772
1040 1 18.9244 7.59109 8.26987 0.00297396 0.00596863 0.00191867
1041 1 17.4552 7.54894 10.378 0.00728426 -0.000173957 -0.00491826
1042 1 19.6746 6.33078 10.3873 -0.00356449 0.00507002 0.00224745
1043 1 19.6783 8.81989 10.4202 0.00480311 0.000480836 0.00397191
1044 1 9.45499 1.24856 10.9257 0.00486392 0.000288742 -0.006062
1045 1 20.3924 7.59063 10.9402 0.000574894 -0.00576592 0.00865826
1046 1 7.29631 0.00895503 10.9435 0.0060544 -0.00434672 -0.00527837
1047 1 20.3898 7.59522 12.4734 -0.00339987 -0.0004701 -0.00514803
1048 1 1.88938e-05 10.0844 -3.35915 0 0 0
1049 1 0.727698 8.82388 -1.46193 0 0 0
1050 1 0.727698 11.345 -1.46193 0 0 0
1051 1 21.8334 10.0844 -2.03663 0 0 0
1052 1 0.7589 8.87543 0.0296726 0.0102091 0.00247653 -0.00145034
1053 1 0.703528 11.3934 0.113759 1.65498e-05 -0.011723 -0.00106788
1054 1 2.91129 10.0844 -1.46214 0 0 0
1055 1 1.42502 10.1319 0.637067 0.00273338 -0.0070412 -0.00540367
1056 1 3.6179 8.79098 0.594091 -0.00577601 -0.00208565 3.92016e-05
1057 1 3.64961 11.3127 0.587421 0.00745633 0.000692475 0.00368882
1058 1 2.97305 10.0912 0.118708 0.000859939 0.0110715 -0.00425345
1059 1 1.43467 10.0756 2.11558 -0.00848887 -0.00677255 -0.00440134
1060 1 3.63793 8.79479 2.13538 0.00362373 0.00385925 -0.00162705
1061 1 3.59751 11.2983 2.14962 0.000460148 -0.00952172 -0.0045532
1062 1 5.82945 10.0607 0.652396 -0.00527372 0.00375845 -0.00717902
1063 1 4.41955 10.0644 2.6606 -0.00314734 -0.00172561 0.00685596
1064 1 6.5854 8.80463 2.63595 0.00569343 -0.00239529 -0.00195042
1065 1 6.62465 11.3324 2.70922 -0.00395399 -0.00347825 0.00396075
1066 1 5.84185 10.0862 2.15145 0.00497295 -0.00161395 0.00248946
1067 1 4.35251 10.1118 4.22075 -0.00572078 0.0105237 -0.00211528
1068 1 6.52656 8.81155 4.2149 -0.00660129 0.00159793 -0.0119387
1069 1 6.58138 11.3517 4.25864 0.00907348 -0.000182344 -0.00157139
1070 1 8.76071 10.0732 2.65692 -0.00123311 0.00160453 -0.00122894
1071 1 7.26795 10.1018 4.74345 0.00345298 0.000776842 0.00728861
1072 1 9.47077 8.85747 4.76842 -0.00707612 4.16596e-05 0.00696171
1073 1 9.42193 11.402 4.7964 0.00297022 0.00294153 -0.00661063
1074 1 8.77025 10.1207 4.22093 -0.00130533 -0.00150768 -0.00260506
1075 1 7.31834 10.059 6.33 -0.00190942 -0.000698239 0.00473358
1076 1 9.4844 8.86257 6.30627 0.00398552 0.00145297 -0.00213046
1077 1 9.4363 11.3592 6.34964 0.00273994 -0.0050441 0.00158214
1078 1 11.6484 10.0329 4.76258 -0.0012387 0.0014361 0.000101667
1079 1 10.1944 10.1402 6.80242 -0.00395422 0.00565189 0.00243471
1080 1 12.4142 8.84156 6.80074 -0.00265929 -0.00525498 -0.00181845
1081 1 12.3275 11.3418 6.8108 0.0143599 -0.00648511 -0.00307398
1082 1 11.6277 10.0722 6.33292 -0.00839103 0.00132602 -0.00303698
1083 1 10.2289 10.1074 8.38896 -0.00402805 -0.00281489 0.00543251
1084 1 12.3786 8.87701 8.34331 -0.000200157 -0.0067568 0.00123574
1085 1 12.3476 11.405 8.40714 0.00659945 0.00596123 0.00345248
1086 1 14.589 10.1239 6.82682 0.00101606 -0.000520715 -0.00188928
1087 1 13.0939 10.19 8.85259 0.00518423 0.00433081 -0.00063929
1088 1 15.2441 8.82495 8.86224 -0.00292147 0.00663809 -0.00450039
1089 1 15.3444 11.3952 8.91149 0.00380809 -0.0104266 -0.00504676
1090 1 14.536 10.1556 8.37434 0.0105904 -0.00242251 -0.000120104
1091 1 13.1442 10.116 10.4096 0.00404829 0.00818949 0.00247604
1092 1 15.3065 8.85841 10.3741 0.00462349 0.00258253 0.00189107
1093 1 15.289 11.322 10.4179 0.00690755 -0.00165195 0.000754904
1094 1 17.3968 10.0758 8.83597 -0.00698328 0.00186862 0.00138807
1095 1 15.9809 10.1428 10.9237 -0.00970496 -0.00155979 0.000311492
1096 1 18.2245 8.79613 10.8401 -0.00426929 -0.00196742 0.000821631
1097 1 18.2165 11.3512 10.943 -0.00687264 0.00597983 -0.00390034
1098 1 17.4711 10.1085 10.4236 0.00183483 -0.00732756 -0.00215906
1099 1 16.0143 10.15 12.5313 -0.00376003 -0.010702 0.00369169
1100 1 18.2422 8.80946 12.4385 -0.00290619 0.00223596 -0.00350942
1101 1 18.2319 11.3198 12.5197 -0.00210982 -0.00132371 0.0132073
1102 1 20.4299 10.0934 10.9027 -0.00259915 0.00405424 -0.00755504
1103 1 18.9822 10.0442 13.0144 0.00338235 -0.00661245 -0.00762629
1104 1 21.1709 8.80268 12.9934 0.00616277 -0.00759063 0.00606745
1105 1 21.0786 11.3627 12.9632 -0.00498167 0.00309965 0.00539742
1106 1 20.4044 10.062 12.4768 0.00250706 0.00737993 0.00505127
1107 1 18.9515 10.0833 14.6147 0.00526005 0.0115489 0.00432545
1108 1 21.1366 8.80742 14.5541 0.00358471 0.0026568 -0.0138329
1109 1 21.1272 11.3272 14.4898 0.00235129 -0.00102667 0.00767075
1110 1 8.74536 0.00604293 8.90534 0.0014218 0.00218768 0.00107588
1111 1 1.46691 12.6528 0.583323 -0.000993215 0.00142783 -0.00371275
1112 1 0.0383514 12.6688 2.69442 0.0026979 0.00272579 0.00579306
1113 1 2.15685 11.3573 2.65888 -0.000308806 0.000600515 -0.00596863
1114 1 2.23551 13.8771 2.6274 0.000465588 -0.0117577 -0.00477533
1115 1 1.46355 12.6619 2.17007 -0.0030064 0.00900045 -0.000568865
1116 1 0.01991 12.644 4.24148 0.00855361 0.00249545 -0.000363596
1117 1 2.15572 11.3774 4.15721 0.00456706 0.00561646 -0.000683586
1118 1 2.17871 13.8777 4.16997 -0.0098102 -0.000707694 0.0010766
1119 1 4.38483 12.572 2.67796 -0.000175212 -0.00316349 -0.00546246
1120 1 2.88188 12.6535 4.70657 0.00110151 0.00108239 0.00567639
1121 1 5.10044 11.3268 4.74841 0.00905482 0.00483333 -0.00475652
1122 1 5.12884 13.8965 4.69672 -0.00474894 -0.000582531 -0.00531962
1123 1 4.34218 12.6237 4.17313 0.00582997 -0.00142664 0.00471779
1124 1 2.94141 12.6036 6.26004 -0.00633484 -0.00334459 -0.00150887
1125 1 5.09835 11.3443 6.33015 -0.00498639 -0.00379592 0.00073824
1126 1 5.11482 13.8725 6.26484 0.00744283 0.00177102 0.00154001
1127 1 7.30048 12.5752 4.72822 0.00247661 -0.00583542 -0.0042373
1128 1 5.82899 12.6435 6.79427 -0.00840536 -0.00339364 -0.000577119
1129 1 7.99703 11.3585 6.81133 -0.00611612 -0.000758488 0.000413206
1130 1 7.97446 13.8655 6.82534 0.00478529 -0.00368763 0.00340124
1131 1 7.22538 12.6368 6.28106 -0.00319829 -0.0183759 -0.00924926
1132 1 5.88771 12.6541 8.3363 0.0117127 -0.00279773 0.00365287
1133 1 8.0015 11.306 8.32768 -0.00714521 0.000531587 0.0038072
1134 1 8.03143 13.8854 8.36393 0.000460417 -0.00606872 -0.00191129
1135 1 10.129 12.5776 6.77355 0.00508625 0.00571704 -0.000728848
1136 1 8.67605 12.6055 8.84162 -0.00361708 -0.00232684 -0.00122134
1137 1 10.9267 11.3429 8.91401 -0.00472172 -0.00624751 8.29593e-06
1138 1 10.8949 13.843 8.89911 0.00836374 0.000682193 -0.00320262
1139 1 10.175 12.6367 8.34909 0.00288548 -0.00176279 -0.000525782
1140 1 8.71332 12.5939 10.4023 0.00694406 0.00489415 0.003486
1141 1 10.9423 11.3625 10.433 0.00162486 0.00522607 -0.00358468
1142 1 10.9077 13.887 10.4284 0.00178138 -0.00709716 -0.00635555
1143 1 13.1038 12.6499 8.88832 -0.00394035 -0.00234591 0.00200004
1144 1 11.6322 12.6263 10.943 0.00412276 -0.000553097 0.000566769
1145 1 13.8492 11.3699 10.9215 -0.00418872 -0.00579776 0.00124309
1146 1 13.8502 13.8769 11.0033 -0.00764077 0.00176927 -0.00486183
1147 1 13.068 12.5799 10.4645 -0.00106426 -0.0063832 0.00325422
1148 1 11.6335 12.6776 12.5233 0.000681281 0.00112048 0.00153872
1149 1 13.8784 11.4018 12.5257 -0.00652525 -0.00180894 -0.00269367
1150 1 13.8644 13.8851 12.4992 -0.0113183 0.000199819 -0.00588629
1151 1 16.0292 12.5975 10.9392 -0.00239958 -0.000699648 -0.000253819
1152 1 14.5457 12.682 13.0426 -0.00464302 0.00693856 -0.000841218
1153 1 16.7909 11.388 12.9115 -0.00202224 0.00760077 -0.0025457
1154 1 16.7075 13.9345 13.0445 0.0125163 -0.00266975 0.000215001
1155 1 16.0138 12.6546 12.4674 -0.00276772 0.00536108 -0.00267082
1156 1 14.602 12.6443 14.6976 -0.0104987 0.00694273 -0.00293403
1157 1 16.7831 11.3905 14.4856 -0.000710348 0.0130484 -0.000910132
1158 1 16.7651 13.9008 14.5378 -0.000941621 0.00359571 0.002197
1159 1 18.9142 12.6462 13.1035 -0.0038081 0.00263818 -0.0037983
1160 1 17.4558 12.6256 15.0653 0.00329571 0.0063663 -0.00373577
1161 1 19.6686 11.3683 15.0576 0.00371993 0.0014363 0.00566735
1162 1 19.6727 13.8945 15.1047 0.00733055 0.000361987 -0.00287439
1163 1 18.9252 12.6825 14.659 -0.00277246 -0.00402411 0.00438651
1164 1 16.7997 12.6253 16.6494 0.00873192 -0.00961435 -0.000254029
1165 1 20.3038 11.3436 16.7091 0.00225923 -0.0015498 8.05089e-05
1166 1 20.2985 13.9022 16.6855 -0.00976324 0.000590742 0.00633573
1167 1 0.7547 12.6254 17.4141 -0.00464534 0.00786855 0.000368007
1168 1 6.55351 1.26059 10.4236 0.00396447 -0.00391066 -0.0056117
1169 1 0.019541 15.1408 2.64062 -0.00374626 0.00797072 0.00322995
1170 1 0.676513 13.9319 4.74364 -0.000898067 0.00489946 -0.00208051
1171 1 0.733122 16.3886 4.71158 0.00834866 0.00514156 -0.00658491
1172 1 21.8095 15.1638 4.16546 2.09616e-05 0.00429868 0.00100641
1173 1 0.704666 13.8515 6.28195 0.00212864 0.0124985 -0.00860689
1174 1 0.730111 16.3875 6.21888 -0.000358142 0.000929336 0.00482169
1175 1 2.93363 15.142 4.69737 -0.00629319 0.0076268 0.00521473
1176 1 1.43298 15.1113 6.81484 -0.00349056 0.00263516 -0.00457009
1177 1 3.60946 13.8659 6.77964 0.00220177 0.00317388 0.000409716
1178 1 3.64403 16.4021 6.80355 0.00362479 -3.53919e-05 0.00192767
1179 1 2.83337 15.1329 6.25324 0.0106209 -0.00412603 -0.00183351
1180 1 1.45868 15.0839 8.38013 -0.00013855 -0.00610712 0.00285889
1181 1 3.60267 13.8613 8.34384 0.00262963 0.000841543 -0.00310871
1182 1 3.61477 16.4077 8.30784 -0.00638138 -0.000489229 0.000692121
1183 1 5.83453 15.1671 6.78694 -0.0074495 -0.00800253 0.00586923
1184 1 4.34234 15.0906 8.8024 0.00656998 -0.00601507 -0.00972686
1185 1 6.56778 13.8501 8.85936 0.00482492 -7.19368e-05 -0.0090895
1186 1 6.57117 16.3992 8.82961 0.00401817 0.00576003 -0.00936107
1187 1 5.78133 15.1375 8.32861 0.00178702 -0.00325343 0.00252735
1188 1 4.33935 15.1574 10.3437 -0.000632255 0.000430173 -0.00207694
1189 1 6.53202 13.8715 10.4315 -0.00315095 -0.00299394 -0.00102256
1190 1 6.57144 16.3991 10.3617 -0.00291913 -0.00126869 -0.0114775
1191 1 8.68292 15.1216 8.90808 -0.00708593 0.00514008 0.00602241
1192 1 7.24227 15.1099 10.9299 -0.00798252 0.00711034 -0.00938876
1193 1 9.43112 13.8488 10.921 -0.00225288 0.00944199 -0.00497182
1194 1 9.45846 16.4368 10.96 0.00163757 0.0012355 0.000345647
1195 1 8.65549 15.1107 10.4195 0.00672103 0.0014705 -0.000597755
1196 1 7.22608 15.1636 12.5066 0.0025468 0.00577105 0.0111383
1197 1 9.43952 13.9939 12.4534 -0.00471095 -0.000915404 0.0093979
1198 1 9.48715 16.4602 12.5467 -0.00177527 -0.00196116 -0.00563405
1199 1 11.6708 15.1478 10.9189 -0.00218387 0.00136201 0.00183015
1200 1 10.1833 15.2184 13.0373 0.00165903 -0.000567806 -0.000948271
1201 1 12.3972 13.8942 12.9985 0.00578962 -0.00383575 0.00411875
1202 1 12.4032 16.3887 13.022 -0.00468237 0.00655151 -0.0109632
1203 1 11.6568 15.1335 12.4635 0.00839893 0.00477754 0.00106654
1204 1 10.2006 15.1864 14.5822 -0.00219508 -0.00415648 0.00481312
1205 1 12.4166 13.8656 14.5054 0.00106561 0.000812782 -0.00309079
1206 1 12.35 16.4202 14.5126 -0.00109097 -0.00110887 -0.0022629
1207 1 14.5343 15.1332 13.0813 0.00355011 -0.00324304 -0.00784161
1208 1 13.0053 15.1949 15.1029 0.00196447 -0.00325121 -0.00157561
1209 1 15.3223 13.8798 15.1876 -0.00314033 -0.00522194 -0.000876866
1210 1 15.3068 16.3924 15.0939 0.000508175 -0.00137034 -0.0063452
1211 1 14.6055 15.1776 14.7124 0.00802005 0.00365803 -0.0132994
1212 1 12.4699 15.1485 16.6163 -0.00224902 0.00621107 0.012514
1213 1 15.9334 13.8808 16.7044 0.000687731 -0.004456 -0.00880687
1214 1 15.8902 16.4012 16.643 -0.00225711 0.00210195 -0.00144154
1215 1 17.4548 15.1366 15.0448 -0.00599865 0.00350239 -0.0042153
1216 1 18.2351 15.1889 17.2514 0.012726 0.00410846 0.00568957
1217 1 18.9571 13.9136 17.3428 0.00793714 0.00238633 0.00940419
1218 1 18.9508 16.427 17.2704 0.0118669 -0.00845943 0.000321759
1219 1 16.8274 15.1183 16.6285 0.00290227 0.0101733 -0.00113959
1220 1 0.840244 15.1261 17.2622 -0.00252138 -0.00265555 -0.00161439
1221 1 1.47606 17.6236 6.72436 0.00604892 0.00730644 -0.0103436
1222 1 0.0142579 17.6414 8.82049 -0.00226974 0.00558696 -0.00641714
1223 1 2.12895 16.36 8.85256 -0.0131156 -0.00187614 -0.00851991
1224 1 2.16914 18.9113 8.83904 0.00654652 0.00290998 0.00450837
1225 1 1.48019 17.6104 8.32439 -0.0019108 0.0063116 -0.00961475
1226 1 21.7455 17.6216 10.3805 -0.0037514 -0.00274233 0.00269101
1227 1 2.17366 16.3912 10.3567 0.0120035 0.010145 -0.000747575
1228 1 2.20127 18.9054 10.3634 0.000956459 -0.00584006 0.00198194
1229 1 4.35554 17.6664 8.82611 0.00248769 -0.00904909 -0.00490221
1230 1 2.88046 17.635 10.8728 -0.00353465 -0.000322906 0.00616331
1231 1 5.07933 16.3403 10.9727 -0.0126262 0.00476857 0.000299581
1232 1 5.09136 18.8545 10.9124 0.0030209 -0.00466448 0.00359147
1233 1 4.36473 17.6005 10.449 -0.000642632 -0.00119393 0.00195563
1234 1 3.01717 17.5452 12.4804 0.000420547 0.000403969 0.000730255
1235 1 5.099 16.3262 12.4976 0.00451715 -0.00146865 -0.00302182
1236 1 5.10475 18.8745 12.4784 0.00599481 0.00606282 0.00105415
1237 1 7.32677 17.67 10.8778 0.00538589 0.0031852 0.00192485
1238 1 5.80765 17.6109 12.9674 0.00138572 -0.0012535 0.00134798
1239 1 8.01593 16.4223 12.9686 0.00607618 -0.00120875 0.00676485
1240 1 8.03115 18.8822 12.9608 -0.00169915 0.00670729 0.00595372
1241 1 7.3214 17.6828 12.4229 0.001628 0.00232772 0.00140574
1242 1 5.81528 17.6558 14.6022 0.00339362 0.00816274 -0.00473005
1243 1 8.0003 16.4458 14.4133 -0.000720147 -0.00439687 0.00680434
1244 1 8.00802 18.8603 14.4366 -0.00118715 0.00054459 0.00185657
1245 1 10.2408 17.6921 13.0633 -0.00444839 -0.00428993 0.00237705
1246 1 8.64745 17.6433 15.0321 -0.00437554 0.00892113 0.00189311
1247 1 10.8847 16.4261 15.0446 -0.0111318 -0.000388455 -0.0111496
1248 1 10.8462 18.9349 15.1284 0.00270602 0.00269497 -0.00106537
1249 1 10.1508 17.7404 14.6945 -0.00268435 0.00922571 0.00146791
1250 1 8.08287 17.6561 16.5384 -0.00414386 0.00196169 -0.000235744
1251 1 11.5225 16.4637 16.6357 -0.00987884 0.0057391 0.00153748
1252 1 11.5081 18.9677 16.6498 0.000968207 -0.00180102 -0.00276363
1253 1 13.0581 17.6498 15.0895 0.00207386 -0.00474671 0.000215254
1254 1 13.7885 17.6412 17.4652 -0.0032224 -0.002288 -0.00312609
1255 1 14.587 16.4261 17.3553 0.00194517 -0.00148366 0.00163022
1256 1 14.5972 18.9477 17.3805 -0.00242705 -0.00264785 -0.00126659
1257 1 12.4828 17.7003 16.6144 -0.00204525 0.000708362 0.00130446
1258 1 18.2207 17.73 17.2 0.00316269 0.00702653 -0.00838952
1259 1 21.7928 20.1758 8.79986 -0.000174153 0.0013906 0.000447685
1260 1 0.705271 18.8894 10.9172 0.00110506 -0.00201384 0.00539332
1261 1 0.736962 21.3302 10.9416 -0.00246173 -0.00187283 -0.00448339
1262 1 21.8332 20.1482 10.4194 0.00562566 0.00186084 0.00739692
1263 1 0.746013 18.9124 12.4346 0.00303655 -0.00470576 0.00130844
1264 1 0.787978 21.3621 12.4664 0.0062238 0.0102692 -0.0063187
1265 1 2.97027 20.1639 10.9234 -0.00160204 0.000771913 0.00592635
1266 1 1.50155 20.1383 13.0276 0.00681228 -0.00808498 -0.00664574
1267 1 3.6556 18.8688 12.9686 -9.87725e-05 0.00687394 -0.00265868
1268 1 3.66713 21.4463 12.9174 0.00113613 -0.00232176 -0.00744966
1269 1 2.95101 20.1474 12.4691 -0.00285059 -0.00752808 0.00140753
1270 1 1.52299 20.0963 14.6301 0.00732168 -0.00488282 -0.00117441
1271 1 3.66051 18.9378 14.4473 0.000373062 0.00845488 -0.00338287
1272 1 3.65029 21.5281 14.435 0.00287821 -0.00208571 -0.0090478
1273 1 5.8014 20.138 13.0514 -0.00101488 0.00674484 0.00138377
1274 1 4.28839 20.2043 14.9857 0.00155521 0.0130674 -0.00943425
1275 1 6.56955 18.9113 15.0679 -0.00886958 -0.00466967 -0.00573291
1276 1 6.58805 21.4109 15.0276 0.000347937 -0.000196428 0.00428402
1277 1 5.827 20.1621 14.6353 0.00289358 0.00254855 -0.00110232
1278 1 3.77431 20.288 16.5553 0.000249474 0.000214314 0.00135909
1279 1 7.12014 18.967 16.6111 -0.00565375 -0.00660854 0.000841906
1280 1 7.06568 21.3478 16.562 -0.00504229 0.00360432 0.000685526
1281 1 8.65343 20.1744 15.0371 -0.00740871 -0.00131524 0.00348007
1282 1 9.45253 20.0822 17.3574 -0.000107719 -0.00501636 -0.00236545
1283 1 10.1696 18.8977 17.3957 0.0074744 0.0074075 0.00251361
1284 1 10.0991 21.3741 17.3283 0.000601648 -0.00294687 -0.00425729
1285 1 8.07838 20.1399 16.631 0.00493759 -0.00143084 -0.007006
1286 1 13.8345 20.205 17.3212 -0.00165507 -0.00159224 0.000345621
1287 1 4.34491 22.6404 10.3909 -0.00433768 -0.00641062 -0.00165096
1288 1 5.75618 22.6275 8.39188 -0.000310803 -0.00957551 6.58894e-05
1289 1 2.2347 21.4627 15.0708 0.00212076 0.00128114 -0.00765057
1290 1 6.48338 1.26259 8.87277 0.000501066 0.000755125 -0.00652017
1291 1 4.33398 0.0079195 8.8543 0.00517599 0.00691715 0.00117042
1292 1 2.91773 21.4803 16.6664 -0.000568487 -0.00593651 0.00591615
1293 1 5.87559 22.6307 6.76795 -0.00257102 0.00111914 -0.00194673
1294 1 3.62515 1.27133 8.39562 0.0039313 -0.00574099 -0.0139225
1295 1 5.81734 21.4265 17.2911 -0.00324719 0.00573041 -0.005264
1296 1 1.47152 0.0299645 8.35164 0.0137207 0.00103717 -0.0106429
1297 1 2.91049 0.00628408 6.29619 0.000783026 -0.00205934 -0.00604969
1298 1 4.36671 2.51383e-09 -3.35915 0 0 0
1299 1 6.55001 1.26055 -3.35929 0 0 0
1300 1 4.36664 1.26057e-09 -2.03663 0 0 0
1301 1 6.55001 1.26055 -2.03646 0 0 0
1302 1 8.7334 22.69 -3.35915 0 0 0
1303 1 7.27798 6.09316e-11 -1.46214 0 0 0
1304 1 9.46108 1.26055 -1.46193 0 0 0
1305 1 8.73333 22.69 -2.03663 0 0 0
1306 1 7.24327 0.0139884 0.0636432 0.00376938 -9.61374e-05 -0.0043789
1307 1 9.47673 1.26429 0.0884836 0.0025543 0.00212864 0.00836699
1308 1 11.6447 22.69 -1.46214 0 0 0
1309 1 10.2035 0.0058711 0.651314 -0.00545256 -0.00465572 -0.000560535
1310 1 12.4068 1.26962 0.567451 0.00310333 0.0112148 -0.000462559
1311 1 11.6771 0.0355187 0.0778896 0.00432932 -0.00618117 -0.0124777
1312 1 10.2272 0.0406887 2.21705 -0.0049695 0.00530639 -0.00298843
1313 1 12.3426 1.28985 2.12554 0.00866667 -0.00558587 -0.00387806
1314 1 14.6164 22.6469 0.592473 0.00236729 0.000558996 -0.00143228
1315 1 13.0836 0.00662008 2.62812 -0.00974158 0.00101062 -0.00327945
1316 1 15.2844 1.19819 2.62229 -0.00729966 0.00507124 0.00405669
1317 1 14.593 22.6788 2.16909 0.00439974 -0.00683517 -0.00253654
1318 1 13.1214 22.6311 4.1507 -0.00490145 -0.00162744 -0.0052707
1319 1 15.2354 1.2971 4.21006 -0.0062508 0.00644037 -0.00248129
1320 1 17.503 22.6751 2.63266 0.00933032 -0.000373122 0.000221161
1321 1 16.0248 0.070262 4.74989 0.00305536 0.00116488 0.00211723
1322 1 18.1961 1.27489 4.71462 -0.0076763 0.00205023 0.00278516
1323 1 17.4593 0.0128611 4.2305 -0.00197237 -0.0018723 0.00879671
1324 1 15.9924 0.0631582 6.29563 0.00433208 -0.00361599 0.00188838
1325 1 18.2348 1.29258 6.28665 -0.0115596 -0.00215922 -0.00113803
1326 1 20.3767 22.6516 4.71253 -0.00649391 -0.00123892 -0.00638327
1327 1 18.8998 0.0129256 6.77316 0.0080293 -0.00603167 -0.00447115
1328 1 21.1259 1.24381 6.7271 -0.00323019 -0.00612182 -0.0015066
1329 1 20.4152 22.6507 6.23117 -0.000999734 -0.00540936 -0.0053151
1330 1 18.9408 0.0501061 8.31006 -0.00970508 0.00563784 -4.85592e-05
1331 1 21.0918 1.23699 8.37814 -0.0034256 -0.00570336 -0.0098239
1332 1 3.72254 1.27099 6.77435 -0.00298243 0.000288338 -0.00461001
1333 1 1.40096 0.0587932 6.75352 0.00397405 0.00294712 -0.00682989
1334 1 1.88925e-05 2.52111 -3.35915 0 0 0
1335 1 2.18332 1.26055 -3.35929 0 0 0
1336 1 2.18332 3.78166 -3.35929 0 0 0
1337 1 21.8334 2.52111 -2.03663 0 0 0
1338 1 2.18332 1.26055 -2.03646 0 0 0
1339 1 2.18332 3.78166 -2.03646 0 0 0
1340 1 4.36671 2.52111 -3.35915 0 0 0
1341 1 2.91129 2.52111 -1.46214 0 0 0
1342 1 5.09439 1.26055 -1.46193 0 0 0
1343 1 5.09439 3.78166 -1.46193 0 0 0
1344 1 4.36664 2.52111 -2.03663 0 0 0
1345 1 2.91855 2.46314 0.107304 0.0116388 0.00143251 0.00652602
1346 1 5.12421 1.32128 0.0959718 -0.00276672 0.00615993 -0.000370122
1347 1 5.05543 3.77352 0.0680698 -0.00712922 0.00081936 0.00104664
1348 1 7.27798 2.52111 -1.46214 0 0 0
1349 1 5.82422 2.56397 0.605621 0.00381968 0.0044233 0.00458164
1350 1 7.94318 1.28479 0.626085 -0.0040215 -0.00917852 6.78667e-05
1351 1 7.9767 3.80016 0.622548 0.0046562 0.000336956 0.0041121
1352 1 7.25451 2.53555 0.0932585 -0.000804896 4.99137e-05 0.00244224
1353 1 5.81605 2.49184 2.15297 0.00566975 -0.00432756 -0.00345696
1354 1 7.98798 1.2799 2.11937 0.00103086 -0.00164976 0.00526152
1355 1 8.01948 3.78095 2.16132 0.00425083 0.00547933 5.03353e-05
1356 1 10.166 2.51865 0.621025 0.0017854 0.00778371 0.000197611
1357 1 8.70139 2.53988 2.64193 0.00380026 0.000429734 -0.00647631
1358 1 10.8564 1.29524 2.64767 -0.00082351 -0.000490636 -0.0038324
1359 1 10.9086 3.80416 2.67778 0.000283764 0.00270446 0.00251301
1360 1 10.1668 2.52902 2.18358 -0.00811092 0.00460737 -0.014375
1361 1 8.72683 2.53917 4.2101 -0.00875603 -4.85745e-05 -0.00481006
1362 1 10.8726 1.25031 4.22847 -0.00349798 0.00714441 0.00511845
1363 1 10.8966 3.80529 4.18705 0.00246025 0.00805267 0.00238688
1364 1 13.069 2.56296 2.65822 -0.000130982 0.00405653 -0.00411642
1365 1 11.7053 2.44567 4.68879 -0.00495906 0.00267672 -0.00147569
1366 1 13.8318 1.23259 4.73214 0.00115219 0.000239034 0.00672086
1367 1 13.8091 3.81281 4.7175 -0.0035842 -0.00248217 -0.00683208
1368 1 13.1001 2.4927 4.22901 0.00295766 0.002028 -0.0116491
1369 1 11.6491 2.49536 6.28788 -0.00616154 -0.00185816 0.000600037
1370 1 13.8779 1.31189 6.30973 -0.00328023 0.000163378 0.00599501
1371 1 13.7804 3.85242 6.25924 -9.41443e-05 -0.000152994 0.00360518
1372 1 16.0172 2.53837 4.69627 -0.00220127 0.00677433 0.00103169
1373 1 14.5798 2.51962 6.82491 -0.00129691 8.2806e-05 0.00621913
1374 1 16.8323 1.28862 6.77874 0.00388051 -0.00226256 -0.00209415
1375 1 16.7337 3.75844 6.79812 0.00869574 -3.52474e-05 -0.00248147
1376 1 15.9924 2.53805 6.24751 -0.0106167 0.00965295 -0.00550213
1377 1 14.6099 2.51384 8.368 0.00425141 -0.00512456 0.0048712
1378 1 16.7584 1.28496 8.35502 0.00581193 0.0020825 0.00747602
1379 1 16.7301 3.76478 8.3459 -0.00175905 0.0106731 0.00158761
1380 1 18.9116 2.52969 6.77428 0.00075798 -0.00816602 -0.00230822
1381 1 17.4825 2.52995 8.88969 0.00955903 0.00106603 -0.00896062
1382 1 19.6398 1.25703 8.85549 0.00626929 -0.00617085 -0.000587957
1383 1 19.6481 3.82617 8.87018 0.0127575 0.00576479 0.00653771
1384 1 18.9014 2.56162 8.40699 0.00570309 -0.00177307 0.000690698
1385 1 17.5026 2.54581 10.4766 -0.00305719 0.00252192 -0.00473159
1386 1 19.7223 1.26931 10.4753 0.00131204 -0.00671933 0.00458189
1387 1 19.6526 3.8235 10.439 -0.00107514 -0.00364379 0.00353789
1388 1 2.85384 22.6136 4.70037 -0.00160969 0.00564473 -0.000447434
1389 1 20.391 2.50489 10.8845 0.000241648 -0.000942104 -0.00026575
1390 1 0.762617 1.26104 6.26072 0.00136107 -0.00619536 -0.00332884
1391 1 20.372 2.49905 12.4521 -0.00508541 0.000107247 -0.00402374
1392 1 1.88933e-05 5.04222 -3.35915 0 0 0
1393 1 0.727698 3.78166 -1.46193 0 0 0
1394 1 0.727698 6.30277 -1.46193 0 0 0
1395 1 21.8334 5.04222 -2.03663 0 0 0
1396 1 0.704251 3.74735 0.113801 -0.0021995 -0.00252242 0.00701865
1397 1 0.721901 6.29196 0.0582002 -0.00321606 0.00449447 -0.00092547
1398 1 2.91129 5.04222 -1.46214 0 0 0
1399 1 1.37934 4.97817 0.587298 -0.00379495 0.0022735 0.00487262
1400 1 3.66502 3.75845 0.610277 0.0012602 -0.0127409 -0.00216725
1401 1 3.61623 6.31183 0.586553 -0.00923965 -0.00123106 0.00168902
1402 1 2.84116 5.06345 0.0258016 -0.00179736 -0.000160751 0.00360782
1403 1 1.40069 5.02325 2.09094 0.00209168 -0.00166458 -0.00100975
1404 1 3.6781 3.77581 2.14038 -0.00255531 0.00137083 -0.000932736
1405 1 3.60689 6.25654 2.12771 -0.00520663 -0.00118069 -0.00100625
1406 1 5.86673 4.99299 0.63929 -0.00123712 -0.00609528 -0.00121022
1407 1 4.33681 5.0343 2.69125 0.00925369 0.000398701 -0.00482239
1408 1 6.54424 3.78576 2.69063 6.90714e-05 -0.00167019 -0.0044668
1409 1 6.5414 6.26766 2.67091 0.00756922 0.00404554 -0.00523606
1410 1 5.80491 5.01694 2.14589 0.00678343 6.99634e-05 -0.00539593
1411 1 4.3521 4.98851 4.22594 0.00232884 0.0103447 -0.00336567
1412 1 6.58097 3.77744 4.16624 0.00430609 -0.00375386 -0.00147588
1413 1 6.54931 6.39283 4.24126 0.00402471 -0.00918105 0.00630514
1414 1 8.78106 5.06436 2.69598 -0.0104715 -0.000511192 -0.00608858
1415 1 7.28256 5.13039 4.73435 -0.000568329 -0.00341333 -0.0100724
1416 1 9.45535 3.81215 4.71335 -0.0012016 0.00364134 -0.000484781
1417 1 9.43122 6.36556 4.74747 -0.0023773 0.00479607 0.00632355
1418 1 8.77994 5.10325 4.22033 0.000286973 -0.00431778 0.00222451
1419 1 7.2256 5.06274 6.2964 0.000757264 -0.00388816 -0.00538205
1420 1 9.48381 3.78806 6.27942 0.00435573 0.00459696 0.0103797
1421 1 9.46651 6.29322 6.31109 -0.00149837 0.00292771 -0.00261327
1422 1 11.6351 5.08072 4.70118 -0.000478646 -0.00583774 -0.00214218
1423 1 10.1784 5.05917 6.78428 0.00133815 0.00119086 -0.00529972
1424 1 12.3761 3.77554 6.7851 0.00119971 0.000840162 -0.00536691
1425 1 12.3576 6.31054 6.74147 -0.00147434 0.00883161 0.00864789
1426 1 11.6286 5.06189 6.20447 0.00188616 0.00163302 0.0021322
1427 1 10.1393 5.03395 8.32333 -0.00010127 0.0016596 0.00334898
1428 1 12.3238 3.80174 8.33387 0.00226966 -0.00136389 -0.00417322
1429 1 12.3808 6.29573 8.29866 -0.00287208 -0.00279711 -0.00415562
1430 1 14.5137 5.02861 6.8306 -8.45642e-05 -0.00204703 -0.000324528
1431 1 13.1291 5.08756 8.84173 -0.00102199 -0.00561999 0.00336391
1432 1 15.255 3.74147 8.92078 0.00161615 0.00318944 0.00615593
1433 1 15.2998 6.30014 8.82297 -0.000639681 0.000348545 0.0124246
1434 1 14.5439 5.06098 8.34336 -0.00794074 0.00302579 0.00283645
1435 1 13.0658 5.07143 10.3861 -0.00399619 0.00238952 -0.00223534
1436 1 15.2567 3.78688 10.4561 0.00751078 -0.00651951 0.0054363
1437 1 15.3173 6.28276 10.3737 0.00832481 0.00223515 -0.00354128
1438 1 17.4731 5.00478 8.84117 0.00269652 -0.00190592 -0.000491427
1439 1 16.0786 5.05549 10.9419 0.0024435 -0.00293987 0.00196588
1440 1 18.1944 3.77476 10.9436 0.00400748 0.00656684 -0.00279603
1441 1 18.2303 6.33747 10.9225 0.00593221 4.36324e-05 -0.00136041
1442 1 17.5171 5.06641 10.4295 0.0106158 0.00212753 0.000599077
1443 1 16.006 5.07794 12.5369 0.000212603 -0.00321317 0.000294012
1444 1 18.2451 3.77119 12.497 -0.0038513 0.00534962 -0.00194935
1445 1 18.2536 6.303 12.5197 -0.00204214 -0.00937711 0.0054536
1446 1 20.4257 5.04342 10.921 -0.00388381 0.00206507 0.00121424
1447 1 18.9763 5.08563 13.0611 -0.00220477 -0.00715057 0.00173713
1448 1 21.0974 3.80546 12.961 -0.00443581 -0.00823261 -0.00122117
1449 1 21.126 6.30846 13.0004 -0.00417804 -0.00390153 0.00206099
1450 1 20.3669 5.04218 12.4522 0.00144773 0.00457302 0.00757976
1451 1 18.939 5.07494 14.647 -0.00795748 0.00748077 0.000757785
1452 1 21.109 3.76057 14.441 -0.00288022 -0.00536975 0.000456359
1453 1 21.115 6.26135 14.4724 0.00483597 -0.00875997 0.0014656
1454 1 21.8121 22.6519 4.20506 -0.00987222 0.00445686 -0.00548457
1455 1 1.45776 7.54446 0.616306 0.000581277 0.00465443 -0.000987968
1456 1 21.8065 7.61247 2.58898 0.00153459 0.00432695 0.000911576
1457 1 2.15927 6.28161 2.63604 0.0162354 0.00518472 -0.00173513
1458 1 2.19901 8.79931 2.65192 0.00475573 -0.00786769 -0.00585271
1459 1 1.41329 7.55532 2.15436 -0.00299861 -0.00121505 0.0041969
1460 1 21.767 7.57621 4.17063 0.00382483 -0.00272498 -0.00421664
1461 1 2.08384 6.23174 4.18837 -0.00472759 0.0016051 0.00498899
1462 1 2.1758 8.83049 4.12993 -0.0075371 -0.00668112 0.00752569
1463 1 4.38313 7.52271 2.65431 0.00203385 0.00309296 -0.00309569
1464 1 2.85094 7.56131 4.68523 -0.00412804 0.00377339 -0.000886194
1465 1 5.08626 6.32661 4.73932 -0.00384442 -0.00776288 -0.00574433
1466 1 5.08481 8.83491 4.75673 0.00288934 -0.0108542 -0.00258895
1467 1 4.32147 7.52473 4.19487 -0.00469441 -0.00486719 0.000712031
1468 1 2.90682 7.48631 6.30922 0.00478496 -0.0009543 0.00322619
1469 1 5.05478 6.29633 6.27737 0.00434422 0.00247604 -0.00944801
1470 1 5.00637 8.84297 6.23442 0.000435239 -0.000352786 -0.00471145
1471 1 7.28855 7.57167 4.77589 -0.00644874 0.00276729 0.00243666
1472 1 5.77144 7.59943 6.7834 0.00401541 -0.0031043 0.00651729
1473 1 7.95698 6.34372 6.78267 0.00374908 0.00234415 -0.00392097
1474 1 8.00383 8.81314 6.837 0.00393681 0.00216102 -0.0035526
1475 1 7.23354 7.55996 6.27638 -0.0039559 -0.00551576 -0.000234658
1476 1 5.80024 7.5441 8.33839 0.00898278 -0.00363504 -0.00462655
1477 1 7.98395 6.30545 8.304 0.0018304 0.00625474 -0.00393372
1478 1 8.01182 8.83 8.39241 -0.000484474 -0.00127738 -0.00333997
1479 1 10.2169 7.58418 6.86316 -0.000692247 -0.000324329 0.00432364
1480 1 8.76816 7.5472 8.88376 0.00133376 0.00265046 0.00359673
1481 1 10.9528 6.21366 8.8318 -0.00525504 -0.00106281 0.00120249
1482 1 10.9986 8.85381 8.92909 0.00369945 0.00620398 -0.00560114
1483 1 10.207 7.53685 8.40862 -0.00303717 -0.00668858 0.00119063
1484 1 8.78575 7.52692 10.4377 -0.00182816 -0.00229664 -0.000662045
1485 1 10.9079 6.24613 10.3915 -0.00667265 0.00583809 0.00410773
1486 1 10.9836 8.8424 10.4342 -0.00911576 -0.00435929 -0.000575678
1487 1 13.1045 7.5935 8.86927 -0.00272549 0.000674766 0.00156328
1488 1 11.6629 7.578 10.9906 0.00695908 -0.000910333 -0.00288926
1489 1 13.8232 6.31527 10.9288 0.00803511 0.00124166 -0.00711505
1490 1 13.821 8.87348 10.9439 -0.0087812 -0.00344688 -0.00691944
1491 1 13.0878 7.5701 10.3926 0.00962101 0.00679524 0.00500975
1492 1 11.6656 7.57495 12.5332 -0.00145571 -0.00172493 0.0045974
1493 1 13.8067 6.34624 12.5381 -0.00593909 0.00230738 -0.00538321
1494 1 13.8824 8.88809 12.5014 -0.000509274 0.000191885 0.0103421
1495 1 15.9678 7.59021 10.9247 -0.00417004 -0.00189994 -0.0022978
1496 1 14.5649 7.54829 12.994 0.000395728 -0.00181474 0.00180357
1497 1 16.7883 6.31902 12.9865 -7.48744e-07 -0.00464696 -0.00379464
1498 1 16.7961 8.87021 12.8327 0.00148717 0.00268331 -0.00449552
1499 1 16.0214 7.64187 12.4258 0.000478992 -0.00186914 0.00181735
1500 1 14.6399 7.60615 14.6131 0.000495505 0.00404924 -0.0057325
1501 1 16.8221 6.37469 14.4849 -0.00489296 0.00398343 -0.000702715
1502 1 16.7727 8.84813 14.4289 0.00447486 0.00718314 0.000623359
1503 1 18.9404 7.61184 13.0538 0.00188025 -0.00208374 -0.00259789
1504 1 17.4558 7.57001 14.9869 0.00488208 0.000170261 -0.00204996
1505 1 19.755 6.27192 15.0613 -0.0055862 -0.000268174 -0.00650392
1506 1 19.6873 8.80883 15.113 -0.000824393 -0.00287714 -0.00277825
1507 1 18.9416 7.53459 14.5933 -0.00316914 0.00271841 -0.000960441
1508 1 16.895 7.61186 16.5704 -0.00241562 0.00257072 0.00165355
1509 1 20.3018 6.26773 16.668 -0.00673876 0.00447759 0.00383678
1510 1 20.2722 8.73239 16.7133 0.00566412 -0.00498639 0.000732481
1511 1 0.721964 1.2342 4.7047 -0.00228728 -0.00920483 -0.000884537
1512 1 0.778044 7.47628 17.4385 0.00143405 0.00643942 -0.00154791
1513 1 0.0023974 22.652 2.65908 -0.000294415 -0.00300513 -0.000740056
1514 1 21.8001 10.0896 2.61674 -0.00470397 -0.00584399 0.0122835
1515 1 0.714304 8.82896 4.67119 0.00300567 0.00953004 0.00835034
1516 1 0.755129 11.3844 4.67183 -0.000564478 0.00508493 0.000146046
1517 1 0.0404327 10.1051 4.15013 0.00825143 -0.0116567 0.00795567
1518 1 0.696239 8.80031 6.2151 -0.00385499 0.00893405 0.00255061
1519 1 0.760335 11.3647 6.25575 0.00690431 0.00176769 0.00122723
1520 1 2.9417 10.1465 4.66144 0.00269649 -0.00139723 -0.000105925
1521 1 1.43475 10.0647 6.73048 -0.00726001 -0.00243479 0.00238513
1522 1 3.55739 8.81428 6.75433 -0.00300285 -0.00707704 -0.000709137
1523 1 3.60488 11.3434 6.81411 -0.00708616 0.00131511 -0.00363163
1524 1 2.89963 10.1284 6.22855 -0.000248201 -0.00574048 0.00581262
1525 1 1.44314 10.1042 8.2797 -0.00449278 0.00980814 0.00728942
1526 1 3.62581 8.78564 8.29157 -0.00129992 -0.00313516 -0.00206671
1527 1 3.60752 11.3661 8.38904 -0.00532221 -0.00153998 -0.0127629
1528 1 5.76027 10.0633 6.77895 -0.000165159 0.0126938 0.00499984
1529 1 4.32253 10.0593 8.88186 0.00886386 -0.00579901 0.000396782
1530 1 6.54361 8.81428 8.79987 0.00850524 0.00766669 -0.00129966
1531 1 6.54874 11.3532 8.85022 0.00499378 -0.0078471 0.000952019
1532 1 5.76911 10.0762 8.34878 -0.00527455 0.000286721 -0.00706213
1533 1 4.35567 10.0812 10.4548 0.00140291 -0.00348155 0.00444214
1534 1 6.55444 8.80783 10.3798 0.000995637 -0.00436723 -0.000957566
1535 1 6.57352 11.2635 10.379 0.00699748 0.00100778 -0.00167909
1536 1 8.7358 10.0634 8.91355 -0.00206874 0.00361327 -0.000495307
1537 1 7.32648 10.0757 10.9413 0.00348769 0.00290867 -0.00628833
1538 1 9.51027 8.78978 10.9915 -0.00674815 -0.00966624 -0.0114709
1539 1 9.44904 11.3479 10.9777 -0.00590134 0.000679315 -0.00658064
1540 1 8.72615 10.08 10.4961 0.00249462 0.00553971 0.00115789
1541 1 7.2997 10.0929 12.452 -0.00171889 -0.00292121 0.001182
1542 1 9.47561 8.8467 12.5411 0.00376619 -0.00726008 7.93245e-06
1543 1 9.48826 11.3404 12.5216 -0.00736051 0.00206385 -0.00767654
1544 1 11.6801 10.0977 10.9768 -0.0021699 -0.0104861 -0.000674743
1545 1 10.1852 10.0802 13.0873 -0.00115701 -0.00103565 0.00261971
1546 1 12.3664 8.83766 13.0129 -0.00688346 0.0066741 -0.00139532
1547 1 12.4368 11.3417 13.0254 -0.0011465 -0.00152063 -0.00490002
1548 1 11.6498 10.1081 12.5154 0.00419064 0.000723296 -0.0128896
1549 1 10.2063 10.0686 14.6477 0.00258958 0.00182793 -0.00665745
1550 1 12.4381 8.85017 14.4884 -0.0124171 0.000232748 -0.00618019
1551 1 12.4305 11.3093 14.4622 0.000402118 -0.00163881 -0.0028906
1552 1 14.6038 10.1874 13.0538 0.00389358 -0.00426256 0.00501167
1553 1 13.092 10.1026 15.0646 -0.00535398 -0.0053878 0.00500449
1554 1 15.3602 8.85922 15.1035 -0.00132209 0.00106238 -0.00333395
1555 1 15.3562 11.4295 15.0991 0.00589356 0.000875121 0.000703903
1556 1 14.5883 10.104 14.6381 -0.0028735 -0.00210857 -0.00228477
1557 1 12.541 10.0318 16.5546 -0.00780458 -0.00230237 0.00179284
1558 1 15.9323 8.85367 16.6766 -0.00438133 0.00449985 0.00689399
1559 1 15.7918 11.4196 16.6189 -0.010088 0.00191684 -0.00236838
1560 1 17.478 10.1233 15.0348 0.00256676 0.000120914 0.000398042
1561 1 18.2419 10.0643 17.3791 0.00148279 -0.00040324 0.00152897
1562 1 18.9678 8.81522 17.3654 0.0050843 0.0123682 0.00343227
1563 1 18.9243 11.3196 17.3764 -0.00213411 -0.00366719 0.00232081
1564 1 16.869 10.1014 16.6217 0.00748852 0.00777322 -0.00539369
1565 1 0.742275 10.0134 17.3935 0.00454439 0.00835882 -0.000713275
1566 1 1.46093 12.6306 6.83948 -0.00208333 0.00153306 -0.00390083
1567 1 0.0342651 12.6197 8.91395 -0.00160569 -0.0089986 0.00217004
1568 1 2.16675 11.3368 8.88071 -0.00576359 -0.00183706 -0.00454908
1569 1 2.16532 13.8304 8.87925 -0.0101734 -0.0132395 0.00303505
1570 1 1.44387 12.6172 8.36363 -0.00221084 -0.00407361 0.00205526
1571 1 0.0200383 12.61 10.4512 0.0012244 -0.00257466 -0.00356823
1572 1 2.17555 11.3458 10.4269 0.00433482 -0.0086899 0.00347848
1573 1 2.20574 13.8094 10.3914 -0.00843596 0.00869673 6.69653e-06
1574 1 4.36871 12.5812 8.84638 -0.00672376 0.00256586 -0.00459217
1575 1 2.94008 12.6148 10.8894 0.000223549 0.00370729 -0.00374425
1576 1 5.15746 11.2812 10.9445 0.00282008 -0.00404814 -0.00182054
1577 1 5.05047 13.8542 10.9053 0.00832354 -0.00271784 0.000282191
1578 1 4.38597 12.5607 10.3942 -0.00300118 -0.00133158 -0.00319588
1579 1 2.89221 12.5953 12.4741 -0.00328158 -0.0021053 -0.000139895
1580 1 5.10586 11.302 12.4567 0.00645287 -0.00230147 0.00799537
1581 1 5.09831 13.8047 12.4529 0.00356711 0.0112377 -0.000946792
1582 1 7.22313 12.5987 10.9168 -0.00639127 -0.000487268 -0.000680356
1583 1 5.80892 12.5772 13.0258 -0.00741527 -0.00231754 0.00532839
1584 1 8.03747 11.339 12.9784 -0.00901697 -0.000588084 -0.00334656
1585 1 7.98713 13.9305 12.9524 0.00565908 0.00224352 0.00136515
1586 1 7.2155 12.6066 12.4711 -0.00111679 0.00216355 -0.0110548
1587 1 5.85788 12.5643 14.5926 0.0174224 0.00600876 0.00369439
1588 1 8.00564 11.3163 14.46 0.00338454 -0.0053465 0.00585535
1589 1 8.0421 13.8538 14.4318 -0.00168939 -0.00535104 -0.00530812
1590 1 10.189 12.6108 13.0232 0.00549682 -0.00247866 -0.00183395
1591 1 8.62746 12.5714 15.0105 0.00028351 0.0018012 0.00773557
1592 1 10.9529 11.349 15.0826 -0.00293052 -0.00275966 -0.00342332
1593 1 10.9364 13.9367 15.0239 0.00505989 0.00272806 0.00285503
1594 1 10.1609 12.5776 14.591 0.00319288 -0.00389427 -0.0113646
1595 1 8.12801 12.5517 16.6423 -0.00327373 0.000724631 0.00380566
1596 1 11.6034 11.336 16.6816 0.00883411 0.00306001 0.00600406
1597 1 11.4526 13.8662 16.6634 0.00182229 -0.00141918 0.00198361
1598 1 13.0589 12.6258 15.0487 -0.00524137 -0.00232248 0.00577336
1599 1 13.7318 12.5734 17.4198 0.00145906 -0.0046182 -0.00136135
1600 1 14.5042 11.3599 17.4115 0.00389521 -0.00596762 -8.95663e-05
1601 1 14.5424 13.8358 17.4717 3.26017e-05 -0.00105016 0.00812904
1602 1 12.467 12.6234 16.595 0.0156812 -0.000320409 -0.000709461
1603 1 18.1741 12.672 17.3566 0.00425445 -0.00368813 0.00159521
1604 1 21.8106 15.0963 8.8546 -0.00222378 0.00892619 0.006573
1605 1 0.790414 13.8258 10.9214 0.00210535 -0.000265606 -0.00992293
1606 1 0.744888 16.39 10.856 0.00368627 0.00568884 -0.00546466
1607 1 0.0423977 15.1056 10.4486 0.00166755 0.00894219 -0.00499738
1608 1 0.712494 13.8412 12.4655 -0.00090533 -0.000583605 0.00831734
1609 1 0.772899 16.3761 12.5141 0.00190778 -0.00993246 -0.00278241
1610 1 2.87345 15.1148 10.9143 0.0107183 0.0034832 -1.05875e-05
1611 1 1.44777 15.1353 13.0248 0.00168745 0.000228629 -0.00207338
1612 1 3.63623 13.8205 12.9674 -0.00643083 0.00557636 -0.00153983
1613 1 3.71133 16.3262 12.9932 0.00301621 0.000806469 -0.00648145
1614 1 2.914 15.1045 12.4377 -0.0014794 -0.00485442 -0.00340674
1615 1 1.47712 15.1566 14.6723 0.00549158 -0.00124304 -0.00738704
1616 1 3.63704 13.8463 14.4834 0.00445069 -0.00419172 0.00517026
1617 1 3.63394 16.359 14.5071 -0.00129193 0.000892385 -0.00263775
1618 1 5.80812 15.0593 13.0481 0.00928477 0.00472503 0.00127641
1619 1 4.3114 15.1034 15.0954 -0.00448273 -0.000496509 -0.00379212
1620 1 6.56566 13.841 15.0582 0.00558291 -0.00476706 -0.00280774
1621 1 6.57783 16.3579 15.0264 0.00605666 -0.0001147 -0.00712636
1622 1 5.79062 15.0957 14.6113 0.00539131 0.00808421 0.00397706
1623 1 3.80694 15.1456 16.6735 0.00078058 0.000852374 -0.0047171
1624 1 7.17106 13.852 16.5792 0.00746653 -0.000340637 0.00561594
1625 1 7.17498 16.4617 16.6207 0.00463765 -0.00317623 -0.000109499
1626 1 8.68231 15.1985 15.0414 0.00148239 -0.00771373 0.00109611
1627 1 9.49926 15.1755 17.2824 -0.0020826 -0.00971386 -0.00533885
1628 1 10.1361 13.9137 17.3462 0.0028517 0.00134169 0.000117905
1629 1 10.1678 16.4311 17.2322 -0.00218389 0.00646889 0.00291164
1630 1 8.1431 15.1561 16.5137 0.00113622 -0.0021911 0.00400489
1631 1 13.8858 15.1611 17.3833 -0.00575265 0.00306291 -0.00363007
1632 1 1.43759 17.5882 13.0436 0.00576589 0.00385916 -0.00343015
1633 1 21.7538 17.6423 15.0538 -0.00585124 -0.00267788 0.0139798
1634 1 2.20977 16.3929 15.0484 0.000911213 -0.00460376 -0.00635604
1635 1 2.21231 18.8273 15.0971 0.00442193 -0.00124276 0.00504783
1636 1 1.44348 17.6238 14.6064 0.00360197 -0.00670138 0.0010817
1637 1 21.2278 17.6559 16.6284 -0.00253257 0.00205127 0.00872208
1638 1 2.87528 16.4381 16.6181 -0.00553594 -0.00512909 0.000882234
1639 1 2.81106 18.9117 16.6887 0.00416733 0.00287877 0.0012144
1640 1 4.3424 17.6631 14.9791 -0.000453045 0.000506727 0.00357924
1641 1 5.0818 17.6294 17.352 -0.00566867 -0.00326098 -0.00826122
1642 1 5.88091 16.3555 17.37 0.0149049 -0.0121472 -0.00325032
1643 1 5.73479 18.8758 17.327 0.00347598 0.00661994 0.0055112
1644 1 3.79636 17.6675 16.5827 0.00351683 0.00487239 0.0100892
1645 1 9.51954 17.6773 17.2422 -0.000407076 -0.000661726 -0.00334079
1646 1 0.0150499 20.0566 15.0698 0.00339158 -0.00453983 -0.00725023
1647 1 1.50844 18.9428 17.391 -0.00211299 -0.0078605 -0.00556477
1648 1 1.52549 21.3843 17.3625 -0.00108788 -0.00612361 0.00361934
1649 1 21.3595 20.1344 16.5657 0.00418486 0.0107634 0.0010473
1650 1 5.04832 20.173 17.2297 -0.00159547 0.00311144 -0.000845722
1651 1 1.88916e-05 22.69 -3.35915 0 0 0
1652 1 0.727698 1.26055 -1.46193 0 0 0
1653 1 21.8334 1.87751e-10 -2.03663 0 0 0
1654 1 0.719023 1.24259 0.0358411 0.00482015 -0.00272343 0.00755495
1655 1 2.91129 5.12908e-10 -1.46214 0 0 0
1656 1 1.42354 0.000721785 0.590999 -0.000236992 -0.000402701 0.000106197
1657 1 3.64065 1.207 0.613283 0.00822745 0.00178607 0.00287868
1658 1 2.929 0.0218045 0.123029 0.00347223 0.00504727 -0.0015054
1659 1 1.41709 22.6886 2.14066 0.00548022 -0.00397327 0.00467864
1660 1 3.67612 1.22159 2.166 0.0140487 0.00116979 0.0014213
1661 1 5.78439 0.0531036 0.629808 -0.000358801 -0.00263787 -0.00364328
1662 1 4.37527 22.6574 2.67542 0.00308331 -0.00166989 0.000434852
1663 1 6.55936 1.25093 2.63249 -0.000875119 0.00415029 -0.00368495
1664 1 5.8234 22.6349 2.18385 -0.000356886 -0.00254807 0.00584298
1665 1 4.35606 22.6818 4.20902 0.00158428 0.00526713 0.00213977
1666 1 6.54722 1.25543 4.1659 0.00507189 0.000798572 -0.00427165
1667 1 8.68238 0.0161163 2.70761 -0.00171372 0.000669038 0.00735009
1668 1 7.23424 0.03298 4.69354 0.00241175 0.0037185 0.00518663
1669 1 9.46301 1.25366 4.75819 -0.00824571 0.00837748 -0.00438275
1670 1 8.67369 0.0388538 4.22408 -0.00698026 -0.00514502 0.0036028
1671 1 7.29138 0.0517317 6.26124 -0.000586374 -0.00317812 -0.00987324
1672 1 9.47683 1.19437 6.27423 -0.00127073 0.00629423 -0.0110604
1673 1 11.6668 22.6429 4.75267 0.006421 -0.00189262 0.00806364
1674 1 10.1496 22.6487 6.84467 -0.000501411 -0.0102478 -0.0025134
1675 1 12.382 1.27677 6.76825 -0.00324171 -0.00772495 0.00450529
1676 1 11.6603 22.6711 6.29585 -0.00628165 0.00126074 0.00782677
1677 1 10.1311 22.6587 8.35239 -0.00553068 0.0046502 -0.00113398
1678 1 12.371 1.27356 8.34036 -0.00469883 0.0018115 0.00652413
1679 1 14.5477 0.0149747 6.85527 0.00498275 -0.00237074 -0.00164814
1680 1 13.1606 0.0119938 8.88009 0.00448411 -0.00117582 0.00187702
1681 1 15.3375 1.26258 8.8667 0.000723839 0.000391759 -0.00152253
1682 1 14.5744 0.0381812 8.39056 -0.00793567 0.00457004 -0.00611881
1683 1 13.1241 22.6792 10.4211 0.00613828 -0.00154615 -0.00582822
1684 1 15.3724 1.26898 10.4048 0.00241364 -0.000962655 0.0034969
1685 1 17.483 0.10156 8.85148 -0.00869368 -0.00575437 0.00758322
1686 1 16.1056 22.6894 10.948 -0.0013955 -0.00563248 0.00654119
1687 1 18.2939 1.28827 11.0014 -0.00638952 -0.00137036 -0.00277087
1688 1 17.4988 0.0354588 10.3775 -0.00496364 -0.0013902 0.00207845
1689 1 16.0062 22.6567 12.4999 0.00331059 -0.00310796 0.000488082
1690 1 18.24 1.28709 12.4855 -0.0022087 -0.00664953 -0.00424509
1691 1 20.4313 22.6892 10.9405 -0.0103004 0.00306535 0.00418462
1692 1 19.0168 0.0216372 13.096 -0.0102195 -0.00974677 0.00297243
1693 1 21.1881 1.27483 12.975 -0.000588644 -0.00825764 -0.00276047
1694 1 20.4173 22.6509 12.4885 0.000211391 -0.00281085 -0.000263127
1695 1 18.96 22.6821 14.6723 0.0019089 -0.00243058 0.0024594
1696 1 21.1411 1.2638 14.484 0.00245727 0.00677556 0.00401909
1697 1 5.16488 15.0882 17.267 -0.00218837 0.00346934 -0.0109418
1698 1 21.21 15.1609 16.7307 0.00192198 0.00321777 -0.000950701
1699 1 1.47904 2.45049 0.600078 -0.00659107 -0.00764184 -0.00182968
1700 1 21.7998 2.51759 2.73075 0.00576787 -0.00054068 -0.00374617
1701 1 2.18447 1.24268 2.68347 -0.00164781 0.00652095 7.99179e-05
1702 1 2.17559 3.7853 2.58964 2.79685e-06 0.010049 -0.00360999
1703 1 1.44914 2.5298 2.15883 -0.01316 -0.00899443 -0.0106492
1704 1 21.8247 2.54905 4.20571 -0.00196845 -0.00258438 0.000371922
1705 1 2.18101 1.22312 4.19719 -0.00110239 0.000268119 -0.00162507
1706 1 2.22541 3.72485 4.17114 0.00640575 -0.00358358 -3.86019e-05
1707 1 4.40582 2.49449 2.70515 0.0064477 -0.00181946 0.00124627
1708 1 2.9248 2.51013 4.71612 0.00350141 0.00501022 -0.00332551
1709 1 5.11972 1.24533 4.70862 0.00273495 0.00469044 -0.00924062
1710 1 5.11278 3.73837 4.74199 -0.000886784 0.00764903 -0.0109463
1711 1 4.37832 2.48397 4.20565 -0.000482848 0.00386075 0.00438852
1712 1 2.9325 2.48369 6.27404 0.00180827 0.00818311 0.000467588
1713 1 5.13248 1.24488 6.22122 -0.00235282 -0.00633751 -0.00262606
1714 1 5.11513 3.72812 6.26816 -2.43427e-05 -0.00308412 0.00163746
1715 1 7.32029 2.54725 4.69877 -0.00177331 -0.0103196 0.00178604
1716 1 5.87578 2.54332 6.82205 -0.0011544 -0.0068464 -0.00127818
1717 1 8.02141 1.29549 6.82199 0.00135157 -0.00146503 -0.00423975
1718 1 7.98979 3.78992 6.74564 0.00387434 0.00144014 0.00188876
1719 1 7.27559 2.5544 6.26267 0.00597276 0.00615814 0.00137534
1720 1 5.80085 2.47582 8.30877 0.00125183 -0.00445926 -0.00194204
1721 1 7.95107 1.3012 8.32074 -0.0106836 -0.000744132 -0.000365812
1722 1 8.01864 3.81959 8.34556 0.00203429 0.00321334 -0.00647098
1723 1 10.181 2.48248 6.77391 0.000756399 0.00239366 0.00239195
1724 1 8.71975 2.50937 8.89648 -0.000389377 -0.00990622 0.00202212
1725 1 10.8647 1.25922 8.86284 -0.00322455 0.00496628 0.00215283
1726 1 10.8839 3.77557 8.87676 -0.00280059 -0.00668746 -0.00255943
1727 1 10.1301 2.5062 8.31145 0.00263069 -0.00393899 -0.00788572
1728 1 8.71371 2.522 10.4711 -0.00774589 -0.00114521 -0.0003516
1729 1 10.9234 1.29002 10.346 0.00459927 0.00452291 -0.00215713
1730 1 10.9062 3.75977 10.4248 0.00103741 0.0106349 0.000962324
1731 1 13.0858 2.54811 8.83761 0.0106048 0.000549787 0.000672175
1732 1 11.6176 2.55478 10.8729 -0.0076375 -0.00041907 -0.00390523
1733 1 13.9275 1.30386 10.9427 -0.00259983 -0.0020336 -0.00527668
1734 1 13.782 3.78702 10.9725 -0.00384439 -0.00678959 0.00161779
1735 1 13.1037 2.52378 10.3697 -0.000164324 -0.002654 0.00326652
1736 1 11.6379 2.47658 12.3932 0.00179384 -0.00360795 -0.000790173
1737 1 13.9026 1.28661 12.4467 -0.00476365 -0.000975709 -0.00613035
1738 1 13.8718 3.80513 12.5049 -0.00447942 -0.00696401 0.00230189
1739 1 16.0479 2.57811 10.9445 0.00276212 -0.00424767 0.0111133
1740 1 14.5776 2.5573 13.0073 0.00206379 -0.00852993 -0.00180561
1741 1 16.7894 1.23031 13.009 -0.00254128 -0.00676934 0.00738201
1742 1 16.7911 3.77034 13.0066 -0.00838248 0.00658405 0.0126756
1743 1 16.0281 2.53641 12.5521 0.00580748 0.00685884 0.0055603
1744 1 14.5863 2.58059 14.6023 0.00581349 -0.00591785 -0.0132961
1745 1 16.7493 1.25771 14.5712 0.00510409 -0.00824049 -0.00937238
1746 1 16.8234 3.83542 14.4794 -0.00335786 0.0037283 -3.49586e-05
1747 1 18.9361 2.4875 13.0377 -0.0113696 -0.00124166 -0.00263984
1748 1 17.4663 2.5411 15.101 0.000593309 0.0032127 0.00557863
1749 1 19.6895 1.26029 15.12 -1.07302e-05 -0.00565451 -0.00083469
1750 1 19.7261 3.78904 15.0761 -0.00336237 -0.00382637 0.0142509
1751 1 18.9366 2.52546 14.6434 -0.00453122 0.00177289 -0.00820593
1752 1 16.9038 2.55096 16.6309 0.0140824 0.000652757 -0.00492695
1753 1 20.3053 1.26251 16.6852 0.00799546 0.00156378 -0.00892965
1754 1 20.3651 3.73913 16.6216 0.000133299 0.000907675 0.0041979
1755 1 0.799796 2.48957 17.3478 0.00351636 -0.000307085 0.00627495
1756 1 1.47629 16.3642 17.286 -0.00916539 0.00591613 -0.00476151
1757 1 21.7974 5.01797 2.64946 0.015385 0.00398298 -0.000213116
1758 1 0.773975 3.75528 4.65382 -0.0050793 -0.00211188 -0.00133693
1759 1 0.73583 6.2158 4.67378 0.00413685 0.00843626 -0.00130556
1760 1 0.00399805 4.99988 4.22591 -0.00292137 -0.00865264 0.0091821
1761 1 0.767316 3.7834 6.26521 -0.000384273 0.00327241 0.00475901
1762 1 0.767162 6.27815 6.24297 0.000712935 -0.00176317 0.000347347
1763 1 2.94209 5.006 4.69651 0.0131637 0.00851696 0.00342016
1764 1 1.47476 5.01335 6.75593 -0.00405908 -0.00624092 -0.00105087
1765 1 3.65954 3.7427 6.8498 -0.000778983 -0.00727886 0.00589338
1766 1 3.59155 6.2438 6.76166 0.00542528 -0.00631995 0.00884534
1767 1 2.93521 4.93716 6.23297 0.0062213 -0.0056356 0.000180861
1768 1 1.45945 5.05933 8.31417 -0.00326785 0.00521071 -0.00184345
1769 1 3.66916 3.76029 8.38866 0.00202913 -0.00188332 0.00187809
1770 1 3.63422 6.26334 8.35319 -0.00570705 0.002945 0.00594695
1771 1 5.79655 5.0476 6.81757 0.00945169 0.00335211 0.00505871
1772 1 4.37487 5.04505 8.89733 0.00678776 -0.0109269 -0.00374678
1773 1 6.52792 3.7603 8.87654 -0.00442032 -0.00634385 0.010409
1774 1 6.5163 6.29764 8.82869 0.00451583 0.00455082 -0.00540046
1775 1 5.82428 5.02785 8.31015 0.00544381 -0.00866206 0.00495226
1776 1 4.37696 5.07016 10.3828 0.00488201 -0.00355849 -0.00628699
1777 1 6.51484 3.75383 10.4251 -0.00368159 0.000173342 0.00120052
1778 1 6.56702 6.24671 10.3813 -0.00174538 -0.00375569 -0.00173154
1779 1 8.70755 5.04063 8.91952 0.00336482 0.00394752 -0.00476141
1780 1 7.21222 4.99534 10.8997 -0.000342123 -0.00235895 0.00399553
1781 1 9.49529 3.78284 10.9961 0.00814461 0.00903222 -0.000784897
1782 1 9.49224 6.25479 10.9705 0.00255792 -0.00489299 -0.00717214
1783 1 8.71308 5.00661 10.4699 3.45834e-05 0.000404147 0.0026921
1784 1 7.29863 5.0371 12.4882 -0.0023851 0.00609637 0.000810497
1785 1 9.50815 3.87284 12.5365 -0.00407752 0.00321137 0.000450534
1786 1 9.47427 6.34326 12.5459 0.0012592 -0.00102741 0.00319081
1787 1 11.662 5.07179 10.9376 -0.0024935 -0.00118794 -0.00100262
1788 1 10.2672 5.06346 13.0517 0.00258576 0.00650967 0.00576728
1789 1 12.4221 3.8184 12.9539 -0.00481838 -0.00570342 0.00283001
1790 1 12.401 6.33049 13.0219 -0.00642639 -0.000472818 -0.0057597
1791 1 11.6916 5.02501 12.5036 0.000463663 -0.00502383 -0.00137777
1792 1 10.226 4.99403 14.6412 0.00173155 0.00783927 0.0035131
1793 1 12.3894 3.79345 14.5151 0.00318312 -0.000711906 0.000981478
1794 1 12.3661 6.3164 14.4648 0.00226856 0.00906372 -0.000186397
1795 1 14.5972 5.04317 13.039 0.00159386 -0.00141397 0.00110083
1796 1 13.0315 5.06319 15.1185 -0.00334566 0.00394214 0.00669614
1797 1 15.3722 3.81218 15.059 0.00332161 -0.00410497 0.00875908
1798 1 15.36 6.36373 15.1098 -7.85723e-05 0.000482924 -0.00581271
1799 1 14.5893 5.13096 14.6716 -0.00715979 0.0108061 -0.00420249
1800 1 12.4286 4.94931 16.6538 0.00336759 -0.0095526 -0.00804035
1801 1 15.8608 3.73496 16.58 -0.00399479 0.00455926 0.00666818
1802 1 15.9319 6.30692 16.6629 -0.00539487 -0.00794335 -0.00219368
1803 1 17.4177 5.09505 15.0626 2.38934e-05 -0.00240895 -0.00289265
1804 1 18.1741 5.0545 17.2986 0.00447269 0.00444325 -0.0120645
1805 1 18.9295 3.74604 17.3308 -0.00476155 0.00140376 -0.00768976
1806 1 18.9177 6.28062 17.367 -0.00193125 0.00335216 -0.00584065
1807 1 16.8656 5.07922 16.6101 0.00450727 0.0098427 -0.00605719
1808 1 0.74588 4.96923 17.3589 0.00735034 0.00265766 -0.00268749
1809 1 1.43464 7.48897 6.75952 -0.00711123 0.00610432 -0.0126198
1810 1 21.828 7.59413 8.85263 -0.000864513 -0.00947577 0.00574124
1811 1 2.12494 6.34289 8.88891 -0.00344078 0.001841 0.00462743
1812 1 2.17594 8.80643 8.80684 -0.00639661 0.000882285 -0.0084911
1813 1 1.39945 7.59236 8.28761 -0.00383928 0.00196642 -0.00435646
1814 1 21.8328 7.57106 10.4303 -0.0051349 0.00353349 -0.00579995
1815 1 2.15098 6.38197 10.3497 0.00234629 0.00673481 -0.00552971
1816 1 2.24525 8.84212 10.3602 -0.013029 -0.00500821 -0.00366473
1817 1 4.31949 7.49868 8.84737 -0.000620523 -0.0112309 0.00461299
1818 1 2.89788 7.59429 10.9024 -0.00505151 -0.00568866 0.00224291
1819 1 5.11496 6.30412 10.9712 0.0013371 0.00215606 0.00174399
1820 1 5.07567 8.83968 10.8989 0.00240232 -0.00616311 -0.00547765
1821 1 4.36858 7.6085 10.3891 0.00995025 0.000289032 0.00854279
1822 1 2.96103 7.60471 12.4084 0.00120073 0.00211742 0.00321622
1823 1 5.16226 6.30541 12.5159 0.000259326 0.00573236 -0.00438666
1824 1 5.14899 8.88221 12.5401 -0.00449538 -0.00124898 -0.00291623
1825 1 7.28461 7.52529 10.9171 0.00355775 -0.0102304 -0.00302092
1826 1 5.84161 7.56067 12.9975 -0.00011194 4.36519e-05 -0.00806881
1827 1 8.02096 6.28566 12.9364 0.0143777 -7.76265e-05 -0.00557331
1828 1 8.03183 8.76238 12.9493 0.00989027 0.0035588 -0.00517978
1829 1 7.27717 7.52911 12.4098 -0.00169052 0.00168462 -0.0003773
1830 1 5.83095 7.53635 14.6618 0.00554539 0.00623603 0.00321587
1831 1 8.0649 6.3216 14.4654 0.00290437 0.000131165 -0.0101912
1832 1 7.96018 8.84662 14.4882 -0.00189683 -1.27586e-05 -0.00332723
1833 1 10.1708 7.526 13.071 0.0048849 -0.0029405 -0.00919488
1834 1 8.66191 7.56988 15.0656 6.5736e-05 0.00749777 -0.00280449
1835 1 10.9567 6.32077 15.0916 -0.000447507 -0.00712505 0.00471918
1836 1 11.0112 8.84867 15.0296 0.00308257 -0.000485695 -0.00511121
1837 1 10.1834 7.51969 14.6737 -0.00347621 0.00161302 -0.0120177
1838 1 8.14767 7.60286 16.5592 -0.00195857 -0.00774864 -0.00306925
1839 1 11.4931 6.24274 16.6513 -0.00533997 0.000893117 0.000217818
1840 1 11.5191 8.8535 16.5843 0.00833098 -0.00274739 0.00473056
1841 1 13.0636 7.53053 15.0474 0.00308183 -0.0032041 -0.00447415
1842 1 13.8128 7.50464 17.3871 -0.00424775 -0.00815505 0.00124684
1843 1 14.5297 6.24956 17.3472 -0.00403131 0.00086961 0.000103071
1844 1 14.5911 8.79186 17.3971 -0.00519049 0.000238103 0.000110522
1845 1 12.4856 7.51039 16.6557 0.000218931 0.00574336 -0.00438784
1846 1 18.2453 7.58338 17.2927 0.00222302 0.00441394 0.00259669
1847 1 0.0194266 10.0976 8.84186 0.00641422 0.00033382 -0.00320006
1848 1 0.753274 8.84914 10.9069 0.00301685 -0.00132493 -0.00154742
1849 1 0.73395 11.315 10.9519 -0.0044678 -0.00720375 0.0040732
1850 1 0.028701 10.1004 10.4287 0.0031113 -0.00332702 0.00441448
1851 1 0.748278 8.8441 12.521 -0.0141611 0.00247643 4.22799e-05
1852 1 0.696293 11.3407 12.5125 -0.000169359 -0.00271199 0.00657394
1853 1 2.90291 10.0655 10.9644 0.018978 -0.00525979 -0.000895531
1854 1 1.45317 10.0603 13.0184 -0.00382604 -0.000651758 -0.00401681
1855 1 3.71331 8.85156 13.0128 0.000304436 0.00145192 -0.00476537
1856 1 3.63669 11.3396 12.944 0.00361382 -0.00254295 0.0022812
1857 1 2.9307 10.0903 12.4911 -0.000246058 -0.000618606 -0.00837023
1858 1 1.4853 10.0993 14.6513 0.00218884 0.000160199 0.00431758
1859 1 3.65531 8.88508 14.5578 0.000762103 0.00769748 0.00236606
1860 1 3.68003 11.3649 14.4553 -0.000262697 0.00326045 0.00881881
1861 1 5.8334 10.1028 13.052 0.00513266 -0.000355315 0.00280831
1862 1 4.31723 10.1123 15.0803 0.000970571 -0.0166054 -0.00265361
1863 1 6.53218 8.81809 15.0925 0.000911867 -0.00413088 -0.00535808
1864 1 6.59765 11.3386 15.0599 -0.00300831 0.00621994 0.00146943
1865 1 5.77332 10.0662 14.6635 -0.00659617 -0.00221088 0.000269541
1866 1 3.75899 10.0789 16.6293 -0.00910452 0.00810759 0.00173198
1867 1 7.11911 8.8605 16.7128 0.000713654 -0.0119585 -0.000354382
1868 1 7.15066 11.3335 16.6228 0.00085073 -0.0117675 -0.00383126
1869 1 8.72866 10.0926 15.0063 -0.00159639 -0.0048211 0.00137675
1870 1 9.47149 10.1026 17.4057 -0.000657039 0.000849194 0.000612929
1871 1 10.2301 8.77854 17.3138 0.00709212 0.00414726 -0.00492732
1872 1 10.2121 11.3523 17.3393 0.00981607 -0.00309253 0.00180116
1873 1 8.07771 10.1184 16.6055 0.00718619 0.00373571 -0.00313249
1874 1 13.8247 10.0539 17.3731 0.00838671 0.00662305 0.00520694
1875 1 1.40852 12.577 13.0421 0.000873153 -0.0093067 0.00117132
1876 1 21.7277 12.5687 15.0411 -0.00488241 0.00424348 0.000403941
1877 1 2.2604 11.398 15.0651 -0.00342185 -0.00309953 -0.00126694
1878 1 2.25849 13.8663 15.0683 0.00526798 -0.00582785 -0.00629571
1879 1 1.47723 12.5923 14.6284 -0.00738182 -0.00340869 -0.00692137
1880 1 21.2061 12.6358 16.5576 0.00184091 -0.00329092 0.0059982
1881 1 2.81715 11.3649 16.6086 0.00164481 0.00364129 -0.00733105
1882 1 2.90924 13.8947 16.6601 -0.00742911 0.00536981 -0.00397094
1883 1 4.35849 12.6286 14.9924 -0.0063739 -0.000871572 -0.00206329
1884 1 5.11464 12.5242 17.2805 0.00904402 0.00494101 -0.000833598
1885 1 5.85476 11.2689 17.3579 0.00536536 0.0121381 -0.00574185
1886 1 5.82053 13.8109 17.2309 -0.00417801 0.00248315 -0.00315249
1887 1 3.77675 12.6329 16.6816 0.00273734 0.00247732 -0.00500488
1888 1 9.44831 12.6051 17.3333 0.00906673 0.00422199 0.000236243
1889 1 21.8267 15.0504 15.0857 -0.00570715 0.00322362 0.00182504
1890 1 1.5649 13.864 17.2954 0.00491774 0.0049134 0.0012643
1891 3 18.9223 20.1689 22.2286 0 0 0
1892 3 21.1057 18.9083 22.2286 0 0 0
1893 3 21.1057 21.4294 22.2286 0 0 0
1894 3 16.739 21.4294 22.2286 0 0 0
1895 3 18.9223 15.1267 22.2286 0 0 0
1896 3 21.1057 13.8661 22.2286 0 0 0
1897 3 21.1057 16.3872 22.2286 0 0 0
1898 3 14.5556 17.6478 22.2286 0 0 0
1899 3 16.739 16.3872 22.2286 0 0 0
1900 3 16.739 18.9083 22.2286 0 0 0
1901 3 18.9223 17.6478 22.2286 0 0 0
1902 3 10.1889 20.1689 22.2286 0 0 0
1903 3 12.3724 18.9083 22.2286 0 0 0
1904 3 12.3724 21.4294 22.2286 0 0 0
1905 3 14.5556 20.1689 22.2286 0 0 0
1906 3 8.00566 21.4294 22.2286 0 0 0
1907 3 18.9223 10.0844 22.2286 0 0 0
1908 3 21.1057 8.82388 22.2286 0 0 0
1909 3 21.1057 11.345 22.2286 0 0 0
1910 3 14.5556 12.6055 22.2286 0 0 0
1911 3 16.739 11.345 22.2286 0 0 0
1912 3 16.739 13.8661 22.2286 0 0 0
1913 3 18.9223 12.6055 22.2286 0 0 0
1914 3 10.1889 15.1267 22.2286 0 0 0
1915 3 12.3724 13.8661 22.2286 0 0 0
1916 3 12.3724 16.3872 22.2286 0 0 0
1917 3 14.5556 15.1267 22.2286 0 0 0
1918 3 5.82219 17.6478 22.2286 0 0 0
1919 3 8.00566 16.3872 22.2286 0 0 0
1920 3 8.00566 18.9083 22.2286 0 0 0
1921 3 10.1889 17.6478 22.2286 0 0 0
1922 3 1.4555 20.1689 22.2286 0 0 0
1923 3 3.63897 18.9083 22.2286 0 0 0
1924 3 3.63897 21.4294 22.2286 0 0 0
1925 3 5.82219 20.1689 22.2286 0 0 0
1926 3 18.9223 5.04222 22.2286 0 0 0
1927 3 21.1057 3.78166 22.2286 0 0 0
1928 3 21.1057 6.30277 22.2286 0 0 0
1929 3 14.5556 7.56333 22.2286 0 0 0
1930 3 16.739 6.30277 22.2286 0 0 0
1931 3 16.739 8.82388 22.2286 0 0 0
1932 3 18.9223 7.56333 22.2286 0 0 0
1933 3 10.1889 10.0844 22.2286 0 0 0
1934 3 12.3724 8.82388 22.2286 0 0 0
1935 3 12.3724 11.345 22.2286 0 0 0
1936 3 14.5556 10.0844 22.2286 0 0 0
1937 3 5.82219 12.6055 22.2286 0 0 0
1938 3 8.00566 11.345 22.2286 0 0 0
1939 3 8.00566 13.8661 22.2286 0 0 0
1940 3 10.1889 12.6055 22.2286 0 0 0
1941 3 1.4555 15.1267 22.2286 0 0 0
1942 3 3.63897 13.8661 22.2286 0 0 0
1943 3 3.63897 16.3872 22.2286 0 0 0
1944 3 5.82219 15.1267 22.2286 0 0 0
1945 3 1.4555 17.6478 22.2286 0 0 0
1946 3 18.9223 4.24084e-09 22.2286 0 0 0
1947 3 21.1057 1.26055 22.2286 0 0 0
1948 3 14.5556 2.52111 22.2286 0 0 0
1949 3 16.739 1.26055 22.2286 0 0 0
1950 3 16.739 3.78166 22.2286 0 0 0
1951 3 18.9223 2.52111 22.2286 0 0 0
1952 3 10.1889 5.04222 22.2286 0 0 0
1953 3 12.3724 3.78166 22.2286 0 0 0
1954 3 12.3724 6.30277 22.2286 0 0 0
1955 3 14.5556 5.04222 22.2286 0 0 0
1956 3 5.82219 7.56333 22.2286 0 0 0
1957 3 8.00566 6.30277 22.2286 0 0 0
1958 3 8.00566 8.82388 22.2286 0 0 0
1959 3 10.1889 7.56333 22.2286 0 0 0
1960 3 1.4555 10.0844 22.2286 0 0 0
1961 3 3.63897 8.82388 22.2286 0 0 0
1962 3 3.63897 11.345 22.2286 0 0 0
1963 3 5.82219 10.0844 22.2286 0 0 0
1964 3 1.4555 12.6055 22.2286 0 0 0
1965 3 10.1889 1.45974e-09 22.2286 0 0 0
1966 3 12.3724 1.26055 22.2286 0 0 0
1967 3 14.5556 5.40042e-09 22.2286 0 0 0
1968 3 5.82219 2.52111 22.2286 0 0 0
1969 3 8.00566 1.26055 22.2286 0 0 0
1970 3 8.00566 3.78166 22.2286 0 0 0
1971 3 10.1889 2.52111 22.2286 0 0 0
1972 3 1.4555 5.04222 22.2286 0 0 0
1973 3 3.63897 3.78166 22.2286 0 0 0
1974 3 3.63897 6.30277 22.2286 0 0 0
1975 3 5.82219 5.04222 22.2286 0 0 0
1976 3 1.4555 7.56333 22.2286 0 0 0
1977 3 1.4555 22.69 22.2286 0 0 0
1978 3 3.63897 1.26055 22.2286 0 0 0
1979 3 5.82219 22.69 22.2286 0 0 0
1980 3 1.4555 2.52111 22.2286 0 0 0
