ITEM: TIMESTEP
0
ITEM: NUMBER OF ATOMS
1890
ITEM: BOX BOUNDS pp pp mm
0.0000000000000000e+00 2.1833448247381568e+01
0.0000000000000000e+00 2.2689985001334318e+01
-3.8596448281022617e+00 4.9403453799708949e+01
ITEM: ATOMS id type x y z vx vy vz
1 1 2.93315 22.686 17.0003 0.00292441 -0.00101469 0.00301058
2 1 21.8225 22.6667 16.6586 0.000905755 -0.00407686 0.00537436
3 1 0.707542 1.2774 17.0182 -0.00532745 0.000955669 -0.0103238
4 1 19.6501 21.4294 -3.50139 0 0 0
5 1 0.0273573 22.6579 14.9686 0.00262244 0.00187925 0.00728529
6 1 19.6501 21.4294 -1.95753 0 0 0
7 1 2.81836 5.09348 17.0336 0.00761566 -0.0131814 0.00478176
8 1 0.00659495 5.07116 16.7577 -0.00307033 -0.0122376 0.00188
9 1 0.702361 6.29774 17.0028 -0.000350024 -0.00302304 0.00523097
10 1 0.705649 3.80331 17.0625 -6.9243e-05 0.0072227 0.00360235
11 1 0.00941559 5.00183 15.0507 -0.00535489 0.00395961 -0.00095418
12 1 7.28939 2.48058 16.95 0.00368471 0.0117347 0.000868199
13 1 17.4668 17.6478 -3.50139 0 0 0
14 1 19.6501 16.3872 -3.50139 0 0 0
15 1 19.6501 18.9083 -3.50139 0 0 0
16 1 17.4668 17.6478 -1.95753 0 0 0
17 1 19.6501 16.3872 -1.95753 0 0 0
18 1 19.6501 18.9083 -1.95753 0 0 0
19 1 4.37986 2.43116 16.7087 0.0117386 0.00729938 0.00340552
20 1 20.3779 17.6478 -1.44291 0 0 0
21 1 5.08311 3.71716 17.033 0.00341744 0.00154947 -0.000458412
22 1 20.4262 17.6868 0.113694 -0.00597737 -0.00154049 0.00971476
23 1 13.1001 20.1689 -3.50139 0 0 0
24 1 15.2834 18.9083 -3.50139 0 0 0
25 1 15.2834 21.4294 -3.50139 0 0 0
26 1 13.1001 20.1689 -1.95753 0 0 0
27 1 15.2834 18.9083 -1.95753 0 0 0
28 1 15.2834 21.4294 -1.95753 0 0 0
29 1 17.4668 20.1689 -3.50139 0 0 0
30 1 16.0112 20.1689 -1.44291 0 0 0
31 1 18.1945 18.9083 -1.44291 0 0 0
32 1 18.1945 21.4294 -1.44291 0 0 0
33 1 17.4668 20.1689 -1.95753 0 0 0
34 1 15.9921 20.2218 0.135696 0.00455118 0.00509701 0.0074161
35 1 18.1877 18.9253 0.134939 0.00848795 -0.00257826 0.00529075
36 1 18.1764 21.4697 0.116879 -0.00367552 0.00841316 0.00733699
37 1 20.3779 20.1689 -1.44291 0 0 0
38 1 18.9314 20.1839 0.634686 -0.0115536 0.0037455 0.00768832
39 1 21.1111 18.9197 0.586914 -0.00628713 -3.97009e-06 -0.0018494
40 1 21.1202 21.4437 0.607546 0.00458738 -0.00375412 0.00391271
41 1 20.4432 20.1395 0.0776048 0.00289153 -0.00101928 -0.00550426
42 1 18.9569 20.1248 2.1122 -0.00095508 0.00769656 0.00362754
43 1 21.1065 18.9293 2.17383 0.00293501 0.00372492 -0.00112736
44 1 21.1266 21.4715 2.1435 -0.00646217 -0.00405896 -0.00534604
45 1 5.13117 1.22018 17.0606 0.00327214 0.00800536 0.00306123
46 1 2.8968 2.49339 17.0953 -0.00256907 -0.00100375 0.00463248
47 1 4.35455 2.50656 15.0647 0.00120481 -0.000587613 0.00171723
48 1 10.9167 21.4294 -3.50139 0 0 0
49 1 2.1327 3.798 16.7406 0.000394144 0.00823032 -0.000858785
50 1 10.9167 21.4294 -1.95753 0 0 0
51 1 2.21057 1.22435 16.7321 -0.00337511 -0.00167146 0.00201263
52 1 0.00941421 2.55144 16.7028 0.00391063 0.00222877 0.000809457
53 1 13.8279 21.4294 -1.44291 0 0 0
54 1 1.42277 2.46227 14.5636 0.00258594 -0.00149739 -0.00147802
55 1 2.18811 3.69119 15.0899 0.00669031 -0.011146 0.00397427
56 1 13.8208 21.4698 0.0627768 -0.00506623 -0.00214559 0.00044079
57 1 2.20883 1.25163 15.078 0.00146406 0.00466564 0.00228312
58 1 0.0137362 2.46364 15.1287 0.00145036 0.000753312 -0.00468748
59 1 16.7696 21.461 0.66843 0.00657681 0.00449208 -0.00683979
60 1 1.43527 2.46254 13.0182 0.00583417 0.00568878 0.000551969
61 1 11.7621 0.0358037 17.006 0.00619204 0.000326566 -0.00116926
62 1 16.7897 21.4573 2.14404 0.00042065 -0.00056994 0.00373794
63 1 8.79828 22.6836 16.6238 -0.00526337 0.00269507 -0.00998347
64 1 9.45792 1.26441 16.971 0.000438177 -0.00946227 0.00569768
65 1 19.6541 21.4169 2.66645 -0.00547562 0.00422636 -0.0055485
66 1 7.32602 0.0310593 17.048 -0.000920485 0.000582439 0.00675168
67 1 8.7883 22.6678 15.0345 0.00148342 -0.00555552 -0.00105427
68 1 19.6801 21.4603 4.17571 -0.00306897 -0.00684519 -0.0066276
69 1 6.58724 1.22451 16.6353 -0.00741685 0.00824888 0.00143394
70 1 4.33806 22.6816 16.6565 0.00288838 0.000172807 0.00802807
71 1 5.79502 0.0257271 14.4884 0.00376623 -0.000733029 0.00642213
72 1 6.56781 1.30454 14.9667 -0.00140203 0.00646653 0.00548197
73 1 4.41578 0.027843 15.0438 -0.000636704 0.00163043 -0.00560912
74 1 17.4668 12.6055 -3.50139 0 0 0
75 1 19.6501 11.345 -3.50139 0 0 0
76 1 19.6501 13.8661 -3.50139 0 0 0
77 1 17.4668 12.6055 -1.95753 0 0 0
78 1 19.6501 11.345 -1.95753 0 0 0
79 1 19.6501 13.8661 -1.95753 0 0 0
80 1 5.76062 0.00279461 12.9712 -0.00412678 -0.00396332 0.0090292
81 1 20.3779 12.6055 -1.44291 0 0 0
82 1 3.63095 1.28416 14.5846 -0.00256587 0.0055512 0.00257745
83 1 20.3675 12.5973 0.127732 0.00621165 0.00897943 -0.00535699
84 1 13.1001 15.1267 -3.50139 0 0 0
85 1 15.2834 13.8661 -3.50139 0 0 0
86 1 15.2834 16.3872 -3.50139 0 0 0
87 1 13.1001 15.1267 -1.95753 0 0 0
88 1 15.2834 13.8661 -1.95753 0 0 0
89 1 15.2834 16.3872 -1.95753 0 0 0
90 1 17.4668 15.1267 -3.50139 0 0 0
91 1 16.0112 15.1267 -1.44291 0 0 0
92 1 18.1945 13.8661 -1.44291 0 0 0
93 1 18.1945 16.3872 -1.44291 0 0 0
94 1 17.4668 15.1267 -1.95753 0 0 0
95 1 15.997 15.1401 0.0862454 -0.00404585 -0.00798151 0.000429143
96 1 18.2349 13.8583 0.119406 0.00171545 0.0138938 -0.00267406
97 1 18.2238 16.4096 0.0961609 -0.00338179 -0.00543159 -0.00764511
98 1 20.3779 15.1267 -1.44291 0 0 0
99 1 18.92 15.1002 0.607354 -0.000999286 -0.0028696 0.00760393
100 1 21.1249 13.901 0.60387 0.00086063 -0.00433576 0.00364597
101 1 21.1243 16.3877 0.615025 0.00777013 -0.00889082 -0.000613501
102 1 20.4327 15.169 0.120533 0.00495217 -0.00758013 0.00833476
103 1 18.9145 15.1361 2.15345 -0.00186262 -0.00999077 -0.00573145
104 1 21.1 13.8942 2.18738 0.00182263 0.00388535 -0.00143446
105 1 21.1355 16.368 2.12898 -0.00667234 0.000466239 0.00575177
106 1 1.50412 22.5873 14.5028 0.00105784 -0.000657528 -0.00375984
107 1 8.73338 17.6478 -3.50139 0 0 0
108 1 10.9167 16.3872 -3.50139 0 0 0
109 1 10.9167 18.9083 -3.50139 0 0 0
110 1 8.73338 17.6478 -1.95753 0 0 0
111 1 10.9167 16.3872 -1.95753 0 0 0
112 1 10.9167 18.9083 -1.95753 0 0 0
113 1 13.1001 17.6478 -3.50139 0 0 0
114 1 11.6445 17.6478 -1.44291 0 0 0
115 1 13.8279 16.3872 -1.44291 0 0 0
116 1 13.8279 18.9083 -1.44291 0 0 0
117 1 13.1001 17.6478 -1.95753 0 0 0
118 1 11.6503 17.6526 0.094717 -0.000360982 -0.00162099 0.0027547
119 1 13.7858 16.4159 0.105256 0.00189609 0.003158 0.0033271
120 1 13.8341 18.9283 0.118926 -0.00293725 -0.00875548 -0.00203126
121 1 16.0112 17.6478 -1.44291 0 0 0
122 1 14.5548 17.6383 0.563486 -0.00650207 -0.00452461 0.00534251
123 1 16.7174 16.4362 0.64855 -0.00514998 -0.0116223 0.00578836
124 1 16.7344 18.9548 0.621491 0.00280399 0.00991397 0.00937631
125 1 16.001 17.6836 0.117998 -0.00626163 0.0013006 0.00274663
126 1 14.5081 17.7024 2.13656 -0.00114014 0.00873891 0.00538069
127 1 16.6917 16.3931 2.16482 0.00167023 0.000386151 -0.000380469
128 1 16.7287 18.9023 2.13639 0.0049809 0.00400166 0.00398511
129 1 18.9201 17.6893 0.584656 0.00337747 0.00673013 0.00700186
130 1 17.4183 17.6483 2.64757 -0.00244709 -0.0124687 0.0134215
131 1 19.6322 16.3846 2.67761 -0.00010792 0.000434093 -0.00849844
132 1 19.6479 18.9259 2.63547 -0.00115775 -0.00840949 0.00480266
133 1 18.8822 17.6377 2.14379 -0.00278236 -0.000417207 -0.00235202
134 1 17.4329 17.5781 4.18027 0.00686304 -0.00634832 0.00428341
135 1 19.544 16.3488 4.15752 -0.000968545 -0.00387645 0.0115965
136 1 19.5879 18.9092 4.18229 0.00738535 -0.0121174 -0.000430084
137 1 2.94551 0.00685319 12.4708 0.00543945 -3.32203e-08 -0.00288789
138 1 20.3318 17.6198 4.68889 0.0131303 0.000146578 -0.00593676
139 1 3.59962 1.27661 13.0139 -0.00599476 0.00967426 0.00277742
140 1 20.3604 17.6614 6.22234 -0.00186461 0.00159992 0.0116633
141 1 4.36669 20.1689 -3.50139 0 0 0
142 1 6.55003 18.9083 -3.50139 0 0 0
143 1 6.55003 21.4294 -3.50139 0 0 0
144 1 4.36669 20.1689 -1.95753 0 0 0
145 1 6.55003 18.9083 -1.95753 0 0 0
146 1 6.55003 21.4294 -1.95753 0 0 0
147 1 8.73338 20.1689 -3.50139 0 0 0
148 1 7.27782 20.1689 -1.44291 0 0 0
149 1 9.46116 18.9083 -1.44291 0 0 0
150 1 9.46116 21.4294 -1.44291 0 0 0
151 1 8.73338 20.1689 -1.95753 0 0 0
152 1 7.2921 20.1375 0.0950161 -0.000364491 -0.00024026 -0.00545529
153 1 9.4471 18.8458 0.108447 0.000913594 0.00278811 -0.000531499
154 1 9.4597 21.4408 0.130575 -0.0091342 -0.00205095 -0.00785368
155 1 11.6445 20.1689 -1.44291 0 0 0
156 1 10.1618 20.2146 0.598013 -0.0018285 0.00189381 0.00141011
157 1 12.3732 18.9446 0.572356 -0.00180099 0.00443687 0.00032665
158 1 12.3509 21.4034 0.6145 -0.0133832 0.00534183 0.00414716
159 1 11.6202 20.1965 0.125428 0.00707924 0.00290987 -0.00119653
160 1 10.1229 20.1911 2.1814 0.000154768 -0.00472171 0.000258757
161 1 12.3501 18.9429 2.15961 -0.00351378 -0.00107979 -0.0010238
162 1 12.3042 21.3908 2.19643 0.00637897 -0.000609264 0.00313996
163 1 14.5466 20.2356 0.593751 0.00293025 0.0018873 0.00183521
164 1 13.0522 20.1338 2.71467 -0.0026082 -0.0072879 0.00540488
165 1 15.2389 18.923 2.57269 0.000365349 -0.00154577 -0.00163578
166 1 15.3038 21.4122 2.65449 0.00717689 -0.0011914 0.00220405
167 1 14.5038 20.2096 2.1199 -0.000658318 0.000268035 -0.00492682
168 1 13.0836 20.1702 4.21877 0.00233076 0.00356206 0.0020689
169 1 15.322 18.9165 4.16151 -0.00197519 -0.00386496 0.000743373
170 1 15.2726 21.4271 4.16511 0.0018519 -0.00566069 -0.00539158
171 1 17.5079 20.1278 2.63445 0.00132334 -0.00314357 -0.00274931
172 1 16.0305 20.1414 4.69066 -0.00831007 0.00234828 -0.00195435
173 1 18.1796 18.9142 4.72653 0.00630473 -0.00298405 -0.0019907
174 1 18.2335 21.3729 4.71533 0.00563278 -0.0024322 0.00207245
175 1 17.4878 20.1289 4.19012 0.00678912 0.00337287 0.00688822
176 1 15.9674 20.1464 6.20842 -0.00382252 -0.00384893 0.00223417
177 1 18.2 18.9168 6.26577 -0.00663194 0.00629879 0.00237618
178 1 18.1692 21.4381 6.27515 4.67454e-05 -0.0108075 0.00446282
179 1 20.3616 20.1181 4.70373 -0.00403064 -0.0101211 -0.0100804
180 1 18.8984 20.1668 6.77266 0.00485725 -0.0107031 0.00875497
181 1 21.092 18.9237 6.75567 -0.00298407 -0.00757123 0.00129919
182 1 21.0562 21.4279 6.772 -0.00327787 0.00369922 0.000407842
183 1 20.3364 20.1909 6.28676 -0.00171803 0.000612193 0.00575715
184 1 18.8693 20.1887 8.34629 -0.0111055 0.00233905 -0.000647171
185 1 21.1275 18.9107 8.32017 -0.00154473 0.00309159 0.00359364
186 1 21.0792 21.4344 8.29278 0.00622199 -0.00245347 0.00762666
187 1 1.46014 22.6777 13.0025 -0.00394625 0.00628367 0.000885825
188 1 2.91192 0.0356812 10.9272 -0.00243511 -0.00314361 0.00431752
189 1 0.730303 1.22544 12.5426 -0.00247569 4.86583e-05 -0.00241842
190 1 2.18334 21.4294 -3.50139 0 0 0
191 1 21.7925 22.678 10.3702 -0.00721709 -0.00358875 0.00141479
192 1 2.18334 21.4294 -1.95753 0 0 0
193 1 0.691664 1.25775 10.9189 -0.00276857 -0.00549055 0.00331151
194 1 0.00325242 0.0155596 8.87371 0.00431181 0.00531317 0.00624485
195 1 5.09447 21.4294 -1.44291 0 0 0
196 1 2.93171 10.0981 16.9862 0.000206034 0.000953241 -0.00683956
197 1 21.8062 10.1359 16.6616 -0.00881992 0.00201116 -0.00261412
198 1 5.10292 21.42 0.162708 0.000246771 0.00256171 0.000316818
199 1 0.676606 11.3705 17.0235 -0.000611751 -0.00658216 0.000467603
200 1 0.721906 8.85062 17.0857 -0.000437193 0.00564568 0.00680622
201 1 7.9945 21.4752 0.60854 -0.00476896 0.00541032 0.00120033
202 1 0.0422438 10.0823 14.9908 0.00403365 -0.00240658 0.0100789
203 1 7.25508 7.46896 17.0439 0.00162008 0.00357908 -0.00256531
204 1 7.93716 21.5074 2.14602 -0.00737361 0.00121153 -0.00480786
205 1 4.3975 7.57951 16.6973 -0.00521056 -0.00144793 0.00523584
206 1 5.09244 8.82961 17.0795 -0.00826478 0.00797846 0.00447306
207 1 10.8595 21.4149 2.70193 0.00280479 0.00273463 0.00771434
208 1 5.07774 6.27098 17.0606 0.0119865 0.00218366 -0.00215778
209 1 2.90309 7.58083 17.0974 0.00162795 0.000393433 -0.00931423
210 1 10.9034 21.4133 4.21351 -0.00451924 -0.00120313 0.00157658
211 1 4.36768 7.60801 15.0565 -0.00981478 -0.00304213 -0.0106456
212 1 2.2081 8.90974 16.652 -0.00335289 -0.0119683 0.00190278
213 1 13.7919 21.4259 4.69536 0.00203006 -0.00124758 -0.00298986
214 1 2.09382 6.30084 16.6838 0.00572453 -0.000795474 0.00651813
215 1 21.7962 7.59979 16.6788 0.012349 0.000546402 -0.00213516
216 1 13.8195 21.4784 6.22132 0.00261553 -0.00341819 -0.000494837
217 1 1.44816 7.58163 14.5983 0.00125219 -0.00234382 0.00796299
218 1 2.1662 8.85995 15.0971 -0.00237176 0.00209672 -0.000602683
219 1 16.7413 21.375 6.79148 0.0101129 0.000670066 -0.00428786
220 1 2.09594 6.28606 15.0601 0.000910313 0.00397925 0.00150526
221 1 0.00219847 7.57971 15.0908 -0.00140143 0.00255316 0.0116997
222 1 16.727 21.3917 8.32712 0.0022961 0.00760442 0.000136638
223 1 1.43835 7.56262 13.0491 -0.0021546 0.00220527 -0.00423405
224 1 11.6049 5.07187 17.0133 3.63282e-05 0.00552936 -0.000831053
225 1 19.6802 21.4676 8.89026 0.00219373 0.00671493 0.0104425
226 1 8.69131 4.96457 16.6501 -5.48945e-05 0.00253439 0.00243202
227 1 9.41944 6.25724 17.0259 -0.00662052 -0.00974705 0.00348479
228 1 19.6788 21.4515 10.4188 0.00413136 0.00491045 -0.00344097
229 1 9.41586 3.7553 17.0633 0.00180327 -8.10992e-06 5.92209e-05
230 1 7.29422 4.97442 17.0529 -0.00503954 0.00329161 0.00275297
231 1 8.7154 4.98567 14.9976 -0.0030481 -0.0044396 0.00139547
232 1 6.58035 6.22601 16.7695 0.00529003 0.00569143 0.00162925
233 1 6.52789 3.70881 16.6509 -0.00379579 0.00494255 0.000159311
234 1 4.33601 4.99624 16.7036 0.00157868 -0.00918247 0.0120205
235 1 17.4668 7.56333 -3.50139 0 0 0
236 1 19.6501 6.30277 -3.50139 0 0 0
237 1 19.6501 8.82388 -3.50139 0 0 0
238 1 17.4668 7.56333 -1.95753 0 0 0
239 1 19.6501 6.30277 -1.95753 0 0 0
240 1 19.6501 8.82388 -1.95753 0 0 0
241 1 5.78953 5.02946 14.5757 0.00509909 0.0058976 -0.0035276
242 1 20.3779 7.56333 -1.44291 0 0 0
243 1 20.4475 7.57508 0.0848362 -0.00145202 -0.00894158 -0.000912825
244 1 13.1001 10.0844 -3.50139 0 0 0
245 1 15.2834 8.82388 -3.50139 0 0 0
246 1 15.2834 11.345 -3.50139 0 0 0
247 1 13.1001 10.0844 -1.95753 0 0 0
248 1 15.2834 8.82388 -1.95753 0 0 0
249 1 15.2834 11.345 -1.95753 0 0 0
250 1 17.4668 10.0844 -3.50139 0 0 0
251 1 16.0112 10.0844 -1.44291 0 0 0
252 1 18.1945 8.82388 -1.44291 0 0 0
253 1 18.1945 11.345 -1.44291 0 0 0
254 1 17.4668 10.0844 -1.95753 0 0 0
255 1 15.9876 10.0679 0.0939918 -0.00279468 -0.000863479 0.00221763
256 1 18.173 8.80756 0.106949 -0.00249711 -0.00820804 0.00276561
257 1 18.1928 11.3318 0.14305 -0.00392633 0.00137101 0.00241257
258 1 20.3779 10.0844 -1.44291 0 0 0
259 1 18.9005 10.0754 0.641319 0.00619002 -0.00171834 0.0033892
260 1 21.1545 8.87094 0.661945 0.00204045 0.000692017 -0.00914119
261 1 21.061 11.3174 0.638701 -0.000780221 0.00366632 -0.00236777
262 1 20.3556 10.0906 0.178978 -0.000861407 0.00133262 -0.00751317
263 1 18.9212 10.0392 2.14562 -0.00758139 -0.0122685 0.00601846
264 1 21.167 8.89238 2.19895 0.001288 -0.00322812 0.00435696
265 1 21.0621 11.3736 2.21355 0.00427716 0.0115453 -0.00862904
266 1 6.49387 6.30319 15.0659 0.00219807 -0.00222666 -0.0075302
267 1 6.54672 3.72016 15.0423 -0.00581501 -0.00266257 0.00330597
268 1 8.73338 12.6055 -3.50139 0 0 0
269 1 10.9167 11.345 -3.50139 0 0 0
270 1 10.9167 13.8661 -3.50139 0 0 0
271 1 8.73338 12.6055 -1.95753 0 0 0
272 1 10.9167 11.345 -1.95753 0 0 0
273 1 10.9167 13.8661 -1.95753 0 0 0
274 1 13.1001 12.6055 -3.50139 0 0 0
275 1 11.6445 12.6055 -1.44291 0 0 0
276 1 13.8279 11.345 -1.44291 0 0 0
277 1 13.8279 13.8661 -1.44291 0 0 0
278 1 13.1001 12.6055 -1.95753 0 0 0
279 1 11.6697 12.6245 0.0494288 -0.000627667 -0.00972705 -0.0085067
280 1 13.8052 11.3414 0.0601772 0.00592848 -0.000476335 -0.00136114
281 1 13.7995 13.8841 0.117693 0.000881047 0.000834524 0.00269901
282 1 16.0112 12.6055 -1.44291 0 0 0
283 1 14.5293 12.6156 0.583828 0.00204438 0.0044599 -0.00419978
284 1 16.7644 11.414 0.623214 0.00010583 -0.000882105 -0.000679204
285 1 16.7455 13.8833 0.595954 5.26303e-05 0.0035031 0.0022083
286 1 15.9889 12.5987 0.0764113 0.0147945 0.00295971 0.000596502
287 1 14.5328 12.5971 2.13095 0.0040471 -0.00460739 -0.00328221
288 1 16.7332 11.3659 2.13415 -0.000669738 0.00738469 -0.0104255
289 1 16.7584 13.8549 2.13044 -0.00283182 -0.00281042 0.00121528
290 1 18.9144 12.6074 0.673082 0.000789678 0.00953144 0.00729689
291 1 17.4637 12.6363 2.69879 0.00441399 -0.00115946 -0.00158074
292 1 19.6208 11.3239 2.7323 0.00414723 0.000125775 -0.00139196
293 1 19.6315 13.8895 2.63604 -0.00692057 -0.00465237 0.00491923
294 1 18.9103 12.6329 2.18619 -0.00111426 0.00909354 0.00714231
295 1 17.4427 12.6316 4.22987 0.00120735 -0.00451327 -0.0121178
296 1 19.6161 11.3304 4.25141 -0.00342308 -0.000401013 0.000593781
297 1 19.6273 13.8909 4.17929 0.000883311 -0.00274945 0.00582595
298 1 4.27305 5.07513 15.102 0.00767333 -0.000276905 -0.00580214
299 1 20.3611 12.5913 4.74832 0.00112416 0.00757709 -0.00564373
300 1 20.3442 12.6622 6.27142 0.00068484 -0.0050463 0.00547568
301 1 4.36669 15.1267 -3.50139 0 0 0
302 1 6.55003 13.8661 -3.50139 0 0 0
303 1 6.55003 16.3872 -3.50139 0 0 0
304 1 4.36669 15.1267 -1.95753 0 0 0
305 1 6.55003 13.8661 -1.95753 0 0 0
306 1 6.55003 16.3872 -1.95753 0 0 0
307 1 8.73338 15.1267 -3.50139 0 0 0
308 1 7.27782 15.1267 -1.44291 0 0 0
309 1 9.46116 13.8661 -1.44291 0 0 0
310 1 9.46116 16.3872 -1.44291 0 0 0
311 1 8.73338 15.1267 -1.95753 0 0 0
312 1 7.3125 15.1587 0.0841147 0.0053734 0.00836096 0.00193007
313 1 9.495 13.8362 0.109225 0.00503776 -0.00374027 0.00759341
314 1 9.43799 16.3755 0.0740919 0.00816864 -0.0118516 -0.0011015
315 1 11.6445 15.1267 -1.44291 0 0 0
316 1 10.2328 15.164 0.609497 -0.000267363 0.00591568 0.00234432
317 1 12.3277 13.9467 0.616496 0.0102899 -0.000604899 0.000817111
318 1 12.3765 16.4521 0.668032 0.00609172 -0.00125701 0.00357684
319 1 11.5965 15.1868 0.128397 0.00655204 -0.00255822 -0.00559137
320 1 10.2169 15.1645 2.14132 0.00372725 0.00443118 0.00709179
321 1 12.3729 13.8984 2.1374 -0.00556917 -0.00346274 -0.00861077
322 1 12.3388 16.3878 2.19813 0.000626645 0.00772404 -0.0053823
323 1 14.5742 15.1301 0.607896 0.00243145 0.00794084 0.000557264
324 1 13.1031 15.134 2.63426 -0.0046313 0.00094928 -0.000377933
325 1 15.2592 13.8501 2.6203 -0.00584287 -0.00617904 -0.000491267
326 1 15.2395 16.424 2.66356 -0.0116072 0.00100554 -0.000319246
327 1 14.5233 15.1547 2.11527 -0.000170664 -0.00101509 0.00306538
328 1 13.0606 15.1711 4.22434 -0.00355864 -0.000121365 0.00655634
329 1 15.2079 13.855 4.14832 -0.000421785 0.00287093 0.00506811
330 1 15.2724 16.4072 4.22614 -5.93415e-05 -0.00307334 0.000193071
331 1 17.4766 15.1041 2.70032 0.00524931 0.0017388 0.00858736
332 1 15.9829 15.1031 4.75619 0.00840626 -0.00349744 -0.000614355
333 1 18.1511 13.8573 4.73084 -0.00368313 0.00397661 0.00629668
334 1 18.1584 16.3501 4.66279 0.00493448 0.00137546 0.00414961
335 1 17.4131 15.0579 4.21254 0.000225558 0.000235865 -0.00237521
336 1 15.9801 15.1648 6.25408 -0.00254553 0.00354676 0.00144763
337 1 18.1843 13.8586 6.26892 0.00105823 0.00913922 0.00226385
338 1 18.1734 16.3849 6.20871 -0.00450499 0.000973039 -0.00324161
339 1 20.3099 15.1255 4.75373 -0.0032594 0.00248642 0.00199076
340 1 18.8707 15.0827 6.74148 0.00630907 -0.00169781 0.00276199
341 1 21.1032 13.9068 6.78237 -0.000332693 6.59779e-05 0.00549941
342 1 21.0597 16.3728 6.76786 -0.00304216 -0.00211093 0.000281695
343 1 20.3051 15.1075 6.24789 -0.00240455 0.000399311 0.00257035
344 1 18.8915 15.1293 8.2675 -0.00216386 -0.00249142 -0.000395633
345 1 21.1794 13.8309 8.31675 -0.0113478 0.00354234 0.0111463
346 1 21.0554 16.4515 8.31892 -0.00239123 0.000178856 -0.00331213
347 1 5.77932 5.04006 13.0292 0.00306637 0.00492589 0.00403283
348 1 3.57812 6.35297 14.609 0.00234239 -0.00395343 -0.0108042
349 1 6.19194e-25 17.6478 -3.50139 0 0 0
350 1 2.18334 16.3872 -3.50139 0 0 0
351 1 2.18334 18.9083 -3.50139 0 0 0
352 1 1.94894e-24 17.6478 -1.95753 0 0 0
353 1 2.18334 16.3872 -1.95753 0 0 0
354 1 2.18334 18.9083 -1.95753 0 0 0
355 1 4.36669 17.6478 -3.50139 0 0 0
356 1 2.91113 17.6478 -1.44291 0 0 0
357 1 5.09447 16.3872 -1.44291 0 0 0
358 1 5.09447 18.9083 -1.44291 0 0 0
359 1 4.36669 17.6478 -1.95753 0 0 0
360 1 2.89581 17.6587 0.105929 0.00305164 -0.00326455 0.00634279
361 1 5.08001 16.3722 0.122075 0.00145758 -0.00498224 0.00192914
362 1 5.06986 18.8481 0.113429 -0.00503516 -0.00564022 0.000449519
363 1 7.27782 17.6478 -1.44291 0 0 0
364 1 5.82128 17.6049 0.623596 -0.00705005 0.00413477 0.000749346
365 1 8.02999 16.3915 0.619877 -0.00313616 0.00059666 0.00761326
366 1 8.00603 18.8988 0.635888 0.00181698 0.000258305 -0.00503104
367 1 7.32191 17.6414 0.0606207 3.17894e-05 -0.000582528 0.000456711
368 1 5.86959 17.6189 2.13869 -0.00339882 0.0020564 -0.00376919
369 1 8.02136 16.3765 2.18544 -0.00190414 0.00122375 0.0040092
370 1 8.02142 18.8976 2.16024 -0.0013393 -0.0133317 -0.00426506
371 1 10.1933 17.6506 0.604804 0.00562485 -0.00400018 -0.0021739
372 1 8.70836 17.6793 2.63776 0.00346541 -0.00293088 -0.00764531
373 1 10.9105 16.4163 2.70728 -0.00583014 0.00741659 -0.00211906
374 1 10.9112 18.9376 2.66694 7.23339e-06 -0.0105039 -0.00174028
375 1 10.2334 17.7068 2.19054 -0.00474945 -0.00503192 -0.00759684
376 1 8.78043 17.6312 4.17485 0.00761707 0.00353818 -0.00213039
377 1 10.906 16.3705 4.20548 9.44621e-05 -0.00393517 -0.00878486
378 1 10.9258 18.9427 4.21369 0.00506939 -0.00394531 -0.00125101
379 1 13.0793 17.6483 2.68076 -0.00323119 -0.00409163 -0.000858807
380 1 11.6532 17.6531 4.74524 -0.000412432 -0.00333399 -0.000330048
381 1 13.8307 16.3938 4.78101 0.00447947 -0.000969916 0.00313714
382 1 13.8014 18.906 4.72047 0.00321319 -0.00178976 -0.00694979
383 1 13.0829 17.6209 4.20517 0.0157849 -0.000598997 0.00137507
384 1 11.6906 17.6493 6.2637 -0.00899003 0.000119727 -0.00692558
385 1 13.8686 16.3895 6.26949 0.010135 -0.00305534 0.0149197
386 1 13.8136 18.92 6.23576 0.00143536 0.00114862 0.00124948
387 1 16.0088 17.6575 4.70522 0.00882661 0.00586787 -0.000986448
388 1 14.5801 17.663 6.77728 0.00759659 0.00249947 0.00320782
389 1 16.7621 16.3791 6.7262 0.00172728 0.00211962 -0.00431409
390 1 16.7382 18.8573 6.67847 0.00412057 0.00401113 0.00602338
391 1 16.0416 17.644 6.23419 -0.0034975 0.00812176 0.00420541
392 1 14.5845 17.6364 8.33183 3.00935e-05 -0.00485359 -0.00227105
393 1 16.7347 16.3266 8.28388 0.00451887 -0.00340543 -0.00293056
394 1 16.712 18.8807 8.22763 0.000104904 0.00520725 0.00626952
395 1 18.9063 17.6303 6.77895 0.00400678 0.0027348 -0.00172281
396 1 17.387 17.5867 8.80591 -0.00415106 -0.00177498 -0.00388793
397 1 19.6595 16.4007 8.84259 -0.00184479 0.0131147 0.00691664
398 1 19.5941 18.967 8.83351 -0.00415776 -0.00266565 -0.000827426
399 1 18.9092 17.6541 8.34295 0.00365679 0.00465336 -0.00317574
400 1 17.3837 17.6504 10.3103 -0.00438903 0.00313486 -0.00135316
401 1 19.6352 16.3826 10.3765 -0.0066457 -0.00616835 0.000742136
402 1 19.5932 18.9067 10.3589 -0.00429502 -0.00196496 -0.00611916
403 1 3.59136 3.7864 14.587 0.00274073 -0.00565285 0.00616315
404 1 20.3882 17.6248 10.8708 -0.00233782 -0.00463016 0.0021347
405 1 1.44417 4.94193 14.579 0.00859281 0.00819452 -0.00194492
406 1 20.389 17.6548 12.4592 -0.00264576 0.00139403 0.00319344
407 1 0 20.1689 -3.50139 0 0 0
408 1 0.727782 18.9083 -1.44291 0 0 0
409 1 0.727782 21.4294 -1.44291 0 0 0
410 1 2.66355e-24 20.1689 -1.95753 0 0 0
411 1 0.74611 18.8535 0.0911548 0.00180026 0.00598258 -0.00609444
412 1 0.729796 21.4507 0.128795 0.00289127 0.00346411 0.000680174
413 1 2.91113 20.1689 -1.44291 0 0 0
414 1 1.48695 20.2028 0.646069 0.00820506 -0.00871964 0.00796805
415 1 3.68403 18.9419 0.610303 -5.10571e-05 -0.00950048 -0.00300361
416 1 3.65461 21.4729 0.607648 0.00263439 -0.00145635 -0.000903761
417 1 2.93698 20.2189 0.0849936 -0.0109442 -0.00187111 7.03258e-05
418 1 1.4844 20.2398 2.17917 0.000928492 0.00631553 0.00429048
419 1 3.61799 18.9394 2.17314 0.00735348 -0.00385081 0.00104902
420 1 3.70028 21.4947 2.1563 -0.00523704 0.00394171 -0.00557318
421 1 5.83052 20.154 0.601877 -0.000345871 -0.00273993 -0.00263217
422 1 4.39186 20.1494 2.70196 -0.00274749 -0.00232142 -0.000799123
423 1 6.55875 18.8639 2.61854 0.00126103 0.00672021 0.00455154
424 1 6.54139 21.4208 2.6903 0.00159075 0.00760844 -0.0044761
425 1 5.81604 20.0998 2.16532 -0.000666755 0.00297934 0.00251404
426 1 4.34748 20.1983 4.23143 -0.001267 0.00714697 0.0093515
427 1 6.53775 18.832 4.23477 -0.00969321 -0.00646952 0.000706831
428 1 6.54076 21.4131 4.22124 -0.00686474 0.00600212 0.00119761
429 1 8.69491 20.2126 2.66057 -0.00137013 0.00295941 0.00613588
430 1 7.21387 20.1086 4.72525 -0.00952168 0.00975271 0.00693409
431 1 9.4702 18.9187 4.70789 0.00474184 -0.0033581 0.000135565
432 1 9.41606 21.4257 4.73822 0.00257663 -0.00300069 0.00296334
433 1 8.66696 20.1971 4.2211 -0.00296753 0.000336088 0.00145886
434 1 7.29326 20.0924 6.28398 0.00516467 0.00853076 -0.00293385
435 1 9.55192 18.8929 6.25571 0.00501233 0.0065032 -0.0115254
436 1 9.45197 21.403 6.25517 0.001544 -0.00390181 0.00797565
437 1 11.6585 20.1959 4.73835 -0.00156119 -0.00188107 -0.00282003
438 1 10.2286 20.1703 6.79849 -0.00457506 0.000783051 0.00367714
439 1 12.3548 18.9288 6.81531 -0.00505185 -0.00976538 0.000537824
440 1 12.388 21.4721 6.83156 -0.00373554 0.00163348 -0.00172044
441 1 11.6795 20.1835 6.33404 -0.00809174 0.00924036 -0.00427506
442 1 10.1976 20.1138 8.35172 -0.000902621 0.00403627 0.00221009
443 1 12.4284 18.8935 8.35987 -0.00611783 0.00359972 -0.00515798
444 1 12.4252 21.3666 8.36527 -0.00101188 -0.00560358 0.00409862
445 1 14.5297 20.168 6.74161 -0.000124518 0.00321689 -0.00609466
446 1 13.1729 20.2002 8.87002 0.00633207 0.00476117 -0.00271338
447 1 15.312 18.9473 8.83452 -0.00680175 -0.00162572 -0.00217227
448 1 15.2887 21.4502 8.8907 -0.0018226 0.000894893 -0.00126564
449 1 14.5872 20.1768 8.3198 -0.00240614 -0.00310617 -0.000917574
450 1 13.1152 20.1899 10.3977 0.00295433 0.00180376 0.00229523
451 1 15.2551 18.9137 10.3758 0.00271017 -0.00418524 -0.00317161
452 1 15.2293 21.4398 10.4217 -0.00183523 0.000174428 -0.00127968
453 1 17.4196 20.1804 8.84799 0.00201411 0.00802386 0.000117619
454 1 16.0006 20.1877 10.9161 -0.00157895 0.000122644 -0.00410913
455 1 18.1455 18.8819 10.8778 -0.00345259 0.00183382 -0.00706303
456 1 18.2123 21.4282 10.888 0.000483471 0.00239045 0.0112324
457 1 17.4359 20.1801 10.389 0.00453587 0.00602579 -0.000925126
458 1 16.0125 20.1253 12.4824 -0.000646505 0.00418829 0.0125615
459 1 18.2177 18.9056 12.4281 -0.00465796 0.00220124 -0.000231673
460 1 18.1872 21.4314 12.4971 0.0034828 -0.000633271 0.00539293
461 1 20.3409 20.1541 10.9107 -0.00376425 0.0060012 0.00507105
462 1 18.9161 20.1344 12.9787 -0.00011753 0.00308912 0.00132736
463 1 21.0709 18.9165 12.9938 0.000130724 0.00147318 0.0100868
464 1 21.1173 21.4104 13.0125 -0.00443098 -0.00399347 -0.00223339
465 1 20.3957 20.1879 12.4859 -0.00112042 0.0039168 -0.00310677
466 1 18.9208 20.1994 14.5359 0.0080013 0.00639685 -0.00214692
467 1 21.1151 18.8759 14.572 0.000927565 -0.00283385 0.00467552
468 1 21.0869 21.4641 14.5681 0.000489436 0.00161677 -0.000707089
469 1 2.9064 5.07377 12.5434 -0.00384872 -0.000635227 -0.00103667
470 1 3.67898 6.34902 13.0729 -0.00175041 0.00163079 -0.00916021
471 1 3.65585 3.8231 13.0731 0.00403252 0.00338571 0.00378562
472 1 1.48095 5.01763 13.0736 0.0107847 -0.00152348 0.00396544
473 1 2.20544 21.4559 2.69683 0.00203593 0.000878591 0.00601738
474 1 2.91331 5.02837 10.992 0.0064083 -0.00305749 0.00523869
475 1 0.740114 6.26168 12.5749 -0.000627772 -0.00298572 -0.00680951
476 1 2.17445 21.4205 4.28217 0.00589156 -0.000675364 0.00605201
477 1 0.763007 3.81501 12.4645 0.00177731 -7.08405e-05 -0.00290576
478 1 0.011078 5.09262 10.4649 0.00312695 0.00205392 0.0110224
479 1 5.09481 21.4352 4.76409 -0.000871985 -0.0057012 0.000172401
480 1 0.699347 6.32373 11.0386 -0.00914749 0.000102499 -0.00255519
481 1 0.717247 3.85191 10.9764 1.20233e-05 0.0098554 0.00446176
482 1 5.10948 21.3693 6.28993 0.00336421 0.00590606 -0.00351438
483 1 0.0726507 5.11325 8.92999 -0.000141108 0.00381319 0.0084351
484 1 16.0351 2.51445 16.9891 -0.00411746 -0.000560247 0.00154669
485 1 8.06739 21.3783 6.81014 0.0051484 0.00172911 -0.00123882
486 1 13.0798 2.53513 16.7128 0.00102122 0.000830099 0.00920551
487 1 13.8564 3.8083 17.0898 0.00410398 0.0039522 -0.0072452
488 1 7.98433 21.3947 8.30311 0.000373992 -0.00115626 -0.00066675
489 1 13.898 1.26287 17.002 0.00624599 -0.00347558 0.00607741
490 1 11.5645 2.50701 16.9922 -0.00616505 -0.00351585 -0.000487116
491 1 10.8931 21.3963 8.84844 0.00139997 0.00164407 0.00113771
492 1 13.0576 2.53565 15.1237 0.00373797 0.00335997 -0.00377268
493 1 10.8826 3.79623 16.6981 -0.00383234 0.00382876 0.00582838
494 1 10.8736 21.3763 10.4458 0.0021257 0.00319438 0.0101809
495 1 10.8963 1.23913 16.6998 0.00168783 -0.00624547 0.00341192
496 1 8.71323 2.46652 16.7337 0.00131897 0.000323343 0.00120643
497 1 13.8173 21.3958 10.9638 -0.00471458 -0.00289582 0.00306326
498 1 10.2356 2.53992 14.5493 0.00890688 0.00291369 0.000201237
499 1 10.8681 3.78774 15.0909 0.000192469 0.00254239 0.00445954
500 1 13.8379 21.4218 12.5135 -0.00665069 -0.00416656 0.00197627
501 1 10.9601 1.32062 15.025 0.000309041 0.00238081 0.00111635
502 1 8.73564 2.46694 15.039 -0.00531849 0.00233322 0.000653019
503 1 16.739 21.3854 12.9828 0.00246289 -0.00254054 -0.00226032
504 1 10.2267 2.54226 12.9673 -0.00721449 0.00180923 0.00170333
505 1 8.06512 3.77403 14.4819 0.000424152 0.00320757 -0.00162132
506 1 16.7563 21.4201 14.5503 -0.00355088 0.00285184 -0.00035378
507 1 8.04463 1.23388 14.5334 -0.00316463 0.00686004 0.00470802
508 1 5.87807 2.52193 14.521 -0.0079099 -0.00233942 0.000602521
509 1 19.6402 21.3791 15.0281 0.00811194 -0.00670935 0.0011338
510 1 7.2535 2.54532 12.4914 0.00319881 -0.00134593 0.0019473
511 1 7.99648 3.79118 12.9573 0.00472096 0.00640622 -0.00128963
512 1 19.6193 21.4347 16.7447 -0.0012999 0.00034739 0.000739921
513 1 8.00958 1.24286 12.9501 -0.00123484 -0.00586076 -0.00190641
514 1 5.8089 2.52631 13.0308 -0.00411887 -0.0029315 -0.000922369
515 1 7.26877 2.53066 10.9271 0.00386637 -0.00356493 0.00940574
516 1 5.0565 3.76471 12.5127 -0.000862986 -0.00061841 0.00323894
517 1 17.4668 2.52111 -3.50139 0 0 0
518 1 19.6501 1.26055 -3.50139 0 0 0
519 1 19.6501 3.78166 -3.50139 0 0 0
520 1 17.4668 2.52111 -1.95753 0 0 0
521 1 19.6501 1.26055 -1.95753 0 0 0
522 1 19.6501 3.78166 -1.95753 0 0 0
523 1 20.3779 2.52111 -1.44291 0 0 0
524 1 5.07035 1.23546 12.4592 0.0037726 -0.00665718 -0.00500218
525 1 20.3796 2.53573 0.0668104 0.00461704 -0.00449106 -0.00711887
526 1 13.1001 5.04222 -3.50139 0 0 0
527 1 15.2834 3.78166 -3.50139 0 0 0
528 1 15.2834 6.30277 -3.50139 0 0 0
529 1 13.1001 5.04222 -1.95753 0 0 0
530 1 15.2834 3.78166 -1.95753 0 0 0
531 1 15.2834 6.30277 -1.95753 0 0 0
532 1 17.4668 5.04222 -3.50139 0 0 0
533 1 16.0112 5.04222 -1.44291 0 0 0
534 1 18.1945 3.78166 -1.44291 0 0 0
535 1 18.1945 6.30277 -1.44291 0 0 0
536 1 17.4668 5.04222 -1.95753 0 0 0
537 1 16.0385 5.00212 0.0383407 -0.0019104 0.00160409 -0.000925682
538 1 18.207 3.78634 0.0573612 -0.00655029 -0.00101864 0.00499798
539 1 18.1713 6.30337 0.0836128 -0.00506721 0.00282943 0.00291419
540 1 20.3779 5.04222 -1.44291 0 0 0
541 1 18.8828 5.07026 0.548294 -0.000320085 0.000740114 -0.0130607
542 1 21.1324 3.81565 0.52557 0.000121599 0.000956034 -0.000784948
543 1 21.096 6.32549 0.626333 0.000410883 0.00594092 -0.00609921
544 1 20.2932 5.05371 0.0782063 0.00199814 0.00413357 -0.00929139
545 1 18.9734 5.06951 2.14335 0.00604678 0.0144567 -0.00238726
546 1 21.1004 3.80191 2.10647 0.000758732 0.000920372 -0.00499449
547 1 21.1756 6.31013 2.16621 -0.00374596 0.00158195 0.00327664
548 1 2.91485 2.52788 12.5495 0.00408994 -0.00304961 0.00903257
549 1 8.73338 7.56333 -3.50139 0 0 0
550 1 10.9167 6.30277 -3.50139 0 0 0
551 1 10.9167 8.82388 -3.50139 0 0 0
552 1 8.73338 7.56333 -1.95753 0 0 0
553 1 10.9167 6.30277 -1.95753 0 0 0
554 1 10.9167 8.82388 -1.95753 0 0 0
555 1 13.1001 7.56333 -3.50139 0 0 0
556 1 11.6445 7.56333 -1.44291 0 0 0
557 1 13.8279 6.30277 -1.44291 0 0 0
558 1 13.8279 8.82388 -1.44291 0 0 0
559 1 13.1001 7.56333 -1.95753 0 0 0
560 1 11.6091 7.5979 0.125637 -3.40282e-05 0.00136129 -0.00304082
561 1 13.848 6.26452 0.102701 0.0023626 0.00713289 0.00580433
562 1 13.8273 8.83927 0.0838827 -0.00147651 0.00587585 -0.00103343
563 1 16.0112 7.56333 -1.44291 0 0 0
564 1 14.5646 7.53213 0.666489 0.000211788 0.011448 -0.0130985
565 1 16.7293 6.27384 0.571868 0.005347 0.00141852 -0.00213275
566 1 16.7292 8.78059 0.66689 -0.00283909 0.00566202 0.00321632
567 1 15.9964 7.5628 0.110665 0.00292485 -0.00326045 -0.00159402
568 1 14.5623 7.54656 2.21472 -0.00534861 -0.00726034 0.00174755
569 1 16.7236 6.27945 2.1257 -0.00215311 -0.00792816 -0.00166207
570 1 16.7173 8.80024 2.15713 0.000452883 -0.00548863 -0.0003324
571 1 18.9589 7.55219 0.646446 -0.00078282 0.00301746 -0.00395669
572 1 17.4778 7.49764 2.69073 0.000362887 0.00444303 -0.00095604
573 1 19.6887 6.3184 2.6941 -0.00169426 -0.00290245 0.000173941
574 1 19.6901 8.81428 2.66002 -0.00114057 -0.00117323 0.00160655
575 1 18.9192 7.54407 2.1384 -0.00196361 -0.00448246 -0.00214664
576 1 17.4319 7.58112 4.20644 0.00222625 -0.00307183 0.00606074
577 1 19.6628 6.34572 4.24386 -0.000175093 0.00093345 0.00596368
578 1 19.6333 8.82453 4.20882 0.000860437 0.00144174 -0.000105017
579 1 20.3889 7.54144 4.7285 -0.00267634 -0.00322966 7.57437e-05
580 1 4.35554 2.47529 10.453 -0.000419762 0.00447162 -0.000847482
581 1 20.3978 7.57662 6.28843 0.00225118 -0.0045294 -0.00941558
582 1 4.36669 10.0844 -3.50139 0 0 0
583 1 6.55003 8.82388 -3.50139 0 0 0
584 1 6.55003 11.345 -3.50139 0 0 0
585 1 4.36669 10.0844 -1.95753 0 0 0
586 1 6.55003 8.82388 -1.95753 0 0 0
587 1 6.55003 11.345 -1.95753 0 0 0
588 1 8.73338 10.0844 -3.50139 0 0 0
589 1 7.27782 10.0844 -1.44291 0 0 0
590 1 9.46116 8.82388 -1.44291 0 0 0
591 1 9.46116 11.345 -1.44291 0 0 0
592 1 8.73338 10.0844 -1.95753 0 0 0
593 1 7.24704 10.0824 0.11737 0.00146655 0.00257048 0.0121366
594 1 9.46434 8.82123 0.0954889 -0.00234477 0.00341091 0.00694776
595 1 9.45789 11.326 0.071504 0.000689804 0.00246629 -0.0038775
596 1 11.6445 10.0844 -1.44291 0 0 0
597 1 10.218 10.0777 0.597995 0.00117099 -0.00314865 -0.00028695
598 1 12.3796 8.83738 0.592772 -0.00756049 -0.00166924 -0.00274681
599 1 12.3321 11.3038 0.5602 0.000576444 -0.00789328 -0.00110376
600 1 11.6329 10.0974 0.0836695 0.00331046 -0.00163994 0.00574668
601 1 10.1405 10.0701 2.19151 -0.00975962 -0.00511759 -0.00161456
602 1 12.4133 8.85519 2.1309 -0.00654649 0.00962473 0.00322968
603 1 12.3446 11.3346 2.10375 0.00710166 0.0038731 0.0010661
604 1 14.5162 10.1241 0.556002 0.00588242 0.0068402 -0.000874949
605 1 13.0726 10.1508 2.64103 0.000147811 0.0010962 -0.00509769
606 1 15.2356 8.80036 2.6364 0.00951743 -0.00586471 0.000887731
607 1 15.2812 11.3178 2.63769 -0.00673447 -0.00338905 0.004285
608 1 14.5351 10.1088 2.10891 0.00153492 0.0110018 -9.67174e-05
609 1 13.0684 10.0703 4.22627 0.00650295 -0.00752172 -0.000445467
610 1 15.2212 8.82689 4.16029 -0.0078934 -0.00753568 0.00210041
611 1 15.3045 11.2959 4.18461 0.00230211 -0.00877654 0.00243852
612 1 17.4556 10.0154 2.64805 0.0013791 0.00473854 0.00756374
613 1 15.9546 10.0564 4.74392 -0.00758094 -0.000939623 0.00188273
614 1 18.1907 8.8227 4.72594 -0.00795087 -0.00678919 0.000671392
615 1 18.115 11.31 4.7255 0.00625901 -0.00709278 0.00106029
616 1 17.4319 10.0616 4.25868 -0.00188237 0.00604108 0.00652114
617 1 16.0222 10.0048 6.25436 -0.00258012 0.00122671 0.00348854
618 1 18.194 8.82704 6.30788 0.0112653 -0.000525629 0.0124391
619 1 18.163 11.3067 6.27786 -0.0139602 0.00244711 -0.000192378
620 1 20.3605 10.0792 4.73991 0.0064219 0.00294337 -0.00549391
621 1 18.954 10.0543 6.8206 0.00135303 -0.00598862 0.0077225
622 1 21.0754 8.81549 6.79071 0.000300113 -0.00602188 -0.000581332
623 1 21.0751 11.3504 6.74071 -0.00909608 -0.00240081 -0.00555354
624 1 20.3622 10.0473 6.3017 0.00305351 0.00237661 -0.00341366
625 1 18.8836 10.1151 8.34489 0.000701007 0.0018604 0.00257217
626 1 21.0742 8.8642 8.3771 -0.00275079 -0.00683004 -0.00184414
627 1 21.1029 11.3244 8.32076 0.00308201 -0.00679181 0.00842266
628 1 5.06557 3.77046 10.9394 -0.000708576 0.0014162 -0.00261011
629 1 5.105 1.25104 10.9374 -0.00282795 0.00622937 0.00175615
630 1 1.97086e-22 12.6055 -3.50139 0 0 0
631 1 2.18334 11.345 -3.50139 0 0 0
632 1 2.18334 13.8661 -3.50139 0 0 0
633 1 3.89787e-24 12.6055 -1.95753 0 0 0
634 1 2.18334 11.345 -1.95753 0 0 0
635 1 2.18334 13.8661 -1.95753 0 0 0
636 1 4.36669 12.6055 -3.50139 0 0 0
637 1 2.91113 12.6055 -1.44291 0 0 0
638 1 5.09447 11.345 -1.44291 0 0 0
639 1 5.09447 13.8661 -1.44291 0 0 0
640 1 4.36669 12.6055 -1.95753 0 0 0
641 1 2.93894 12.6631 0.150071 -0.00982759 0.00331905 -0.00637633
642 1 5.08128 11.4135 0.104813 0.00258181 0.00294797 0.0019752
643 1 5.07721 13.8703 0.143114 0.00233333 -0.00686139 -0.0075598
644 1 7.27782 12.6055 -1.44291 0 0 0
645 1 5.84116 12.678 0.620994 -0.00248935 -0.000279296 -0.00665027
646 1 7.95058 11.3919 0.606445 -0.00767709 -0.00796142 -0.00490535
647 1 8.0722 13.899 0.634324 -0.006309 -0.00395808 -0.00372842
648 1 7.31403 12.6482 0.0622245 0.000999611 -0.00513 0.00102498
649 1 5.81402 12.6054 2.15746 -0.00210683 0.00311995 0.000762773
650 1 7.98624 11.3088 2.15717 -0.00315308 -0.00267115 0.00674183
651 1 8.01243 13.8651 2.19789 -0.00690259 0.00477517 0.00410735
652 1 10.1488 12.578 0.634822 -0.00610753 0.0010281 0.00118523
653 1 8.74907 12.6069 2.69687 0.00242693 0.0111917 0.0080035
654 1 10.8343 11.3198 2.6549 0.0052087 -0.00527989 0.00363561
655 1 10.9069 13.8782 2.66687 -0.000132381 -0.00176974 0.00960933
656 1 10.1839 12.6591 2.17769 -0.0111009 0.00735938 0.00812422
657 1 8.75146 12.6055 4.24935 -0.00622816 -0.00751697 0.00580904
658 1 10.9169 11.2913 4.21458 -0.00277421 0.000940512 0.00215195
659 1 10.9786 13.8396 4.18213 0.00897716 -0.000446146 -0.00303038
660 1 13.0572 12.6475 2.62498 -0.0116137 -0.00270146 -0.00306952
661 1 11.648 12.5729 4.68162 -0.000495834 -0.00492406 0.00263431
662 1 13.8623 11.303 4.73797 -0.00297578 0.00871429 -0.00704798
663 1 13.8063 13.9088 4.7136 -0.00436972 -0.00284229 -0.00285452
664 1 13.1114 12.6292 4.19053 0.00375342 -0.00656374 -0.00111646
665 1 11.6516 12.6049 6.23439 -0.00470025 0.00959346 0.000975308
666 1 13.8059 11.3251 6.22674 0.00199998 0.00903989 0.00289719
667 1 13.8333 13.8814 6.28492 0.0051412 -0.00655648 -0.000917231
668 1 16.0103 12.5895 4.70059 0.00326984 0.00767197 -0.00205883
669 1 14.5557 12.5558 6.74109 0.00730293 0.00601829 0.00476089
670 1 16.697 11.3078 6.7738 0.00367714 -0.00619807 -0.00243452
671 1 16.705 13.8622 6.78476 0.00477391 0.00541012 -7.65208e-05
672 1 15.9921 12.5932 6.24525 0.00457514 -0.00806609 0.00377568
673 1 14.5565 12.5965 8.29792 0.00871271 0.00398312 0.00133675
674 1 16.7218 11.362 8.3185 0.00396398 0.00202468 0.00304169
675 1 16.7582 13.8512 8.36711 0.00674574 -0.0038859 0.00342945
676 1 18.9075 12.5497 6.75597 -0.00205628 -0.00462648 -0.00701489
677 1 17.4706 12.6032 8.8438 -0.00186426 -0.00672984 0.00738698
678 1 19.6202 11.2947 8.87545 0.00237197 0.00238981 0.00128397
679 1 19.709 13.8802 8.81019 -0.00592909 0.00663942 -0.000303017
680 1 18.9525 12.6473 8.30109 -0.00356787 -0.00709629 0.0114077
681 1 17.4926 12.602 10.3753 0.000419143 0.00291517 -0.00142752
682 1 19.695 11.3079 10.4068 -0.000645085 0.00858004 -0.005907
683 1 19.6529 13.8685 10.3588 -0.00610285 0.000628755 -0.00089798
684 1 2.89082 2.49353 10.9419 -0.00666941 0.00485779 -0.00140145
685 1 20.3262 12.5727 10.9484 0.000178253 0.00593493 0.0016761
686 1 4.32182 2.52467 8.92312 0.00250727 -0.00140284 -0.000673488
687 1 20.3488 12.6975 12.4878 -0.00783765 -0.00461543 0.00566315
688 1 2.03014e-25 15.1267 -3.50139 0 0 0
689 1 0.727782 13.8661 -1.44291 0 0 0
690 1 0.727782 16.3872 -1.44291 0 0 0
691 1 2.5661e-24 15.1267 -1.95753 0 0 0
692 1 0.660268 13.881 0.0969642 -0.00569218 0.00308673 -0.00188982
693 1 0.753823 16.3648 0.0713914 0.00149436 -0.0015071 0.00241614
694 1 2.91113 15.1267 -1.44291 0 0 0
695 1 1.43491 15.1368 0.598358 -0.00372562 -0.000607124 -0.00817423
696 1 3.61513 13.914 0.613143 0.000887981 -0.00763481 0.00250655
697 1 3.59996 16.364 0.551966 -0.00203998 0.000598918 -0.00276341
698 1 2.9056 15.1595 0.021959 0.00203811 -0.00314005 0.00423168
699 1 1.40366 15.1637 2.16228 -0.00893025 0.000962439 0.00925846
700 1 3.61497 13.8744 2.17576 0.00448762 0.00288378 0.00203059
701 1 3.59595 16.3985 2.14329 -0.00638986 0.00167985 0.0020584
702 1 5.78871 15.131 0.63648 0.00154794 0.000405014 0.000337533
703 1 4.30151 15.171 2.65763 -0.00471545 -0.000696779 -0.00766908
704 1 6.54442 13.856 2.67316 -0.00130221 0.00818436 -0.000633483
705 1 6.53842 16.3438 2.67597 -0.00477146 -0.00328986 0.00379523
706 1 5.81579 15.1169 2.16495 -0.00233103 -0.00433051 -0.0097589
707 1 4.37023 15.1673 4.22604 0.00426521 0.00239679 -0.00349208
708 1 6.58357 13.8808 4.24643 -0.00393094 0.00183772 0.00496106
709 1 6.52086 16.3094 4.23106 0.00256621 0.00754602 0.00868081
710 1 8.74061 15.1378 2.64798 -0.00489127 -0.00945169 0.00570027
711 1 7.31043 15.1067 4.80692 0.00165704 0.00110035 -0.00490234
712 1 9.46974 13.8345 4.73247 0.002621 0.0091582 0.000614756
713 1 9.48033 16.3164 4.7114 -0.00269586 -0.00978095 0.00944032
714 1 8.74025 15.0784 4.25325 -0.0020503 -0.00335557 -0.000650756
715 1 7.24982 15.044 6.35958 -0.00379687 -0.0030369 0.000825027
716 1 9.46029 13.8769 6.31253 -0.000189137 0.00100036 -0.00233046
717 1 9.45921 16.3959 6.22719 -0.00754754 -0.000410753 0.00735447
718 1 11.6302 15.1329 4.72813 0.00214156 -0.0123744 -0.0035256
719 1 10.1772 15.1389 6.81723 0.00151648 0.00646979 0.00573277
720 1 12.3882 13.8727 6.79462 -0.0098427 -4.46998e-05 0.00919488
721 1 12.4468 16.4102 6.73163 -0.00307907 -0.00290477 -0.00375329
722 1 11.6818 15.0956 6.2773 -0.000493708 0.00183042 -0.000919427
723 1 10.2177 15.1322 8.35062 0.0118139 0.00544221 0.00490819
724 1 12.3802 13.8885 8.37807 -0.00115446 -0.00608666 0.00292323
725 1 12.4137 16.3534 8.25986 -0.00188804 -0.00390177 0.00322661
726 1 14.5766 15.1491 6.85321 0.00242328 -0.00447883 -0.00034858
727 1 13.0884 15.1737 8.90649 0.00485462 0.00259957 -0.0113895
728 1 15.2609 13.8856 8.86407 -0.000480906 0.00611914 -0.0048838
729 1 15.3 16.3854 8.87363 0.00267767 0.0046873 -0.003888
730 1 14.5239 15.1235 8.38564 0.00638033 0.00512101 -0.000606123
731 1 13.1668 15.1443 10.4664 0.00544417 -0.000789552 -0.000302067
732 1 15.3115 13.879 10.427 -0.00611003 -0.00255019 0.0053315
733 1 15.257 16.4236 10.3819 -0.00870334 0.0117274 -0.00191454
734 1 17.4845 15.1219 8.82999 -0.00270976 0.00242279 0.00250256
735 1 15.975 15.1429 10.9447 -0.00179112 -0.00581465 0.00621559
736 1 18.1934 13.9221 10.9113 -0.00208019 -0.00853748 0.000311576
737 1 18.1878 16.3647 10.906 -0.0108859 -0.00840061 0.0129824
738 1 17.4567 15.1011 10.4236 -0.00183615 -0.000274856 -0.000320268
739 1 16.0086 15.1814 12.4676 -0.00645218 -0.00193287 0.00255334
740 1 18.1996 13.88 12.5068 0.00251177 0.00289682 -0.00338558
741 1 18.2284 16.4297 12.4356 0.00167508 0.00284729 -0.00187184
742 1 20.3836 15.105 10.8333 -0.00531 -0.00156702 0.00521535
743 1 18.9413 15.1538 12.997 -0.00499859 0.00397828 -0.0027526
744 1 21.0794 13.9163 12.9905 -0.00962958 0.00298939 0.00939078
745 1 21.1211 16.4099 12.9564 0.00099332 -0.00938711 -0.00195597
746 1 20.3652 15.1359 12.4826 -0.00175815 0.0102376 -0.00250102
747 1 18.9729 15.1041 14.5525 -0.0021514 0.00317172 -0.00442369
748 1 21.1504 13.9023 14.5617 0.00186001 0.00307831 0.00715039
749 1 21.1563 16.4119 14.5828 0.0076255 0.00212097 0.00544379
750 1 2.15233 3.80749 10.4738 9.96644e-05 -0.00105088 0.00469119
751 1 2.15445 1.28352 10.431 0.000430147 0.00329983 -0.00765836
752 1 1.48493 17.648 0.640433 0.00640936 0.00150346 -0.0083965
753 1 21.7812 17.6771 2.64878 0.000659682 -0.00446593 -0.00696598
754 1 2.15091 16.3984 2.66781 0.00181133 -0.000532345 0.00444989
755 1 2.20643 18.8553 2.7004 -0.0105484 -0.00203262 0.000642675
756 1 1.44994 17.6196 2.18605 0.00370365 0.000344679 -0.00797301
757 1 21.8242 17.6609 4.17988 0.0011081 -0.00465001 -0.00319144
758 1 2.1139 16.3372 4.21546 -0.0077607 0.00153718 0.0052331
759 1 2.16206 18.8582 4.1959 0.00222847 -0.00306767 0.000932246
760 1 4.37528 17.6547 2.59732 0.00151577 -0.00451801 -0.00544995
761 1 2.87113 17.5759 4.70158 0.00424086 0.00435666 0.00501043
762 1 5.07652 16.411 4.6653 0.00355038 -0.000561009 0.00444042
763 1 5.08103 18.8943 4.70286 -0.0059709 0.00419275 -0.00170166
764 1 4.35532 17.6264 4.19194 0.00473867 0.00185861 0.00515623
765 1 2.87635 17.6425 6.23282 0.00397334 -0.00176586 0.00756199
766 1 5.11569 16.3297 6.25653 0.00140567 -0.0134348 0.00296944
767 1 5.07381 18.8851 6.29471 0.00169624 -0.00286826 0.00498123
768 1 7.30809 17.5889 4.74422 -0.00667185 0.00427776 0.000370581
769 1 5.8245 17.6019 6.80805 0.00242705 0.00154366 -0.0021105
770 1 8.01135 16.3808 6.84831 0.00336131 -0.000851637 -0.00511325
771 1 7.99944 18.8386 6.79178 0.00553495 -0.00206722 -0.000266863
772 1 7.30422 17.586 6.28144 0.00775532 0.00523646 0.000679832
773 1 5.79049 17.6547 8.34094 0.00410101 -0.00238883 0.00604674
774 1 7.98695 16.3845 8.32792 0.00849298 0.0104833 0.0018465
775 1 8.0258 18.8789 8.36013 -0.00767758 0.00589879 -0.00303952
776 1 10.2477 17.6137 6.73748 -0.00246401 -0.00240712 0.00259149
777 1 8.78058 17.5999 8.88452 -0.00310444 0.00577576 -0.00377998
778 1 10.9403 16.3535 8.88097 -0.00341464 0.00336391 0.00331885
779 1 10.9077 18.9238 8.85031 -0.00386702 -0.00794681 0.00165189
780 1 10.3015 17.6498 8.33222 0.00385738 -0.000209981 0.00719552
781 1 8.78408 17.6599 10.4125 0.0049386 0.00321087 0.00858502
782 1 10.9284 16.3671 10.3861 -0.00384687 0.00147131 -0.00199803
783 1 10.9155 18.9265 10.336 1.86014e-06 0.00335287 -0.00321117
784 1 13.1029 17.717 8.86225 0.00784833 -0.00400993 -0.00456078
785 1 11.6204 17.6242 10.9329 0.00604933 -0.000851063 -0.0032539
786 1 13.8423 16.4422 10.9282 -0.000804199 0.00848916 -0.00231964
787 1 13.8319 18.9532 10.9012 -6.85408e-06 0.00352593 0.000186361
788 1 13.101 17.6514 10.4009 0.00805117 0.000510853 0.00799012
789 1 11.6185 17.6447 12.452 0.00611382 -0.00583197 0.00379312
790 1 13.8297 16.4106 12.4561 -0.00919276 0.00916469 -0.00132143
791 1 13.8558 18.8481 12.4495 -0.00279281 -0.000550591 -0.000953342
792 1 16.0099 17.6175 10.8885 -0.000641081 0.00144984 -0.00772074
793 1 14.5853 17.6889 12.9505 0.000980385 -0.00665777 0.00471759
794 1 16.7848 16.3872 12.9769 0.00105214 -0.00533471 0.00432996
795 1 16.7328 18.9167 12.9446 0.00506371 0.00166874 0.000892889
796 1 16.0385 17.6415 12.4573 -0.00397694 -0.00986821 0.00788696
797 1 14.62 17.6275 14.4787 0.00299205 -0.0034391 0.00318774
798 1 16.7747 16.348 14.4862 -0.0027655 -0.000668894 0.00395201
799 1 16.7741 18.9276 14.5002 -0.00294118 0.00296977 -0.00466019
800 1 18.9616 17.6638 12.9442 -0.0016078 2.19631e-05 0.000930134
801 1 17.4841 17.6017 14.9182 0.00548108 -0.00985729 0.0030651
802 1 19.7188 16.4068 15.0473 -0.00917632 -0.000447658 -0.000727379
803 1 19.6713 18.8989 15.0353 0.00134735 0.00028555 -0.00330336
804 1 18.9523 17.6623 14.5281 0.00791068 0.0039219 0.00385416
805 1 17.4921 17.5963 16.5907 0.00718023 -0.00655315 -1.55221e-05
806 1 19.6054 16.3713 16.6382 -0.0137677 0.000933302 -0.00244285
807 1 19.6603 18.9332 16.6505 0.00255122 0.000201373 0.000707224
808 1 20.3622 17.6676 17.1284 -0.00638736 0.000815937 -0.00181505
809 1 0.0116674 2.49167 10.3951 0.00550841 0.00432396 0.00396693
810 1 0.0130895 20.1595 2.64191 0.000460644 -0.00435096 -0.00326258
811 1 0.749215 18.9173 4.75844 0.00600497 -0.000248017 0.00926319
812 1 0.698246 21.4435 4.72508 2.47591e-05 0.00187102 0.00322257
813 1 21.8097 20.1667 4.19858 -0.00165275 0.0069387 0.00159717
814 1 0.724429 18.9346 6.28768 0.00290108 -0.00235465 -0.00730187
815 1 0.674386 21.4617 6.28226 0.00480456 -0.00136792 -0.0016549
816 1 2.9154 20.1681 4.72472 -0.00239357 -0.00341215 -0.00506068
817 1 1.38412 20.198 6.77609 0.000302024 -0.00044894 -0.00552087
818 1 3.63807 18.9042 6.77689 -0.00618219 0.0011894 0.00470668
819 1 3.64222 21.4301 6.82346 0.00254627 -0.00545418 -0.000171116
820 1 2.91493 20.1766 6.25892 -0.00030054 -0.000610395 0.00936731
821 1 1.45288 20.2361 8.29495 0.0102149 -0.00541904 -0.0011469
822 1 3.64588 18.9085 8.34354 -0.0105561 -0.00761044 0.00938012
823 1 3.60261 21.384 8.37522 -0.00110279 -0.00552395 -0.000118151
824 1 5.83801 20.1195 6.82239 0.00327766 -0.00569178 -0.00117728
825 1 4.4064 20.1343 8.91483 0.00406754 0.00873356 0.00260437
826 1 6.56655 18.8736 8.88354 0.0131415 0.000277917 6.34466e-05
827 1 6.54866 21.412 8.87384 0.00183624 0.00714804 0.00565999
828 1 5.86108 20.1591 8.36415 0.00181184 0.000664642 0.000156202
829 1 4.41671 20.1397 10.4343 9.73957e-05 0.00793364 -0.0105024
830 1 6.54946 18.8657 10.4098 -0.00458839 -0.000273125 -0.00627479
831 1 6.56218 21.4807 10.447 0.000342542 -0.00855505 -0.00439746
832 1 8.74188 20.1438 8.84125 -0.00905861 0.0039008 -0.00076726
833 1 7.3248 20.2008 10.9664 -0.00153324 0.00394844 0.00554956
834 1 9.45385 18.9375 10.8934 -0.000233754 -0.000936048 0.00947191
835 1 9.43611 21.4333 10.9155 -0.00412863 0.00661307 0.000879989
836 1 8.72131 20.1639 10.3556 -0.000720022 -0.0025931 0.0106792
837 1 7.31927 20.2276 12.4879 -0.00343128 0.002121 0.00100229
838 1 9.52399 18.8992 12.4589 0.00334527 0.00469486 9.19819e-05
839 1 9.42046 21.4408 12.4786 0.00547259 -0.00335003 0.00660251
840 1 11.6792 20.1492 10.9153 -0.00153591 -0.00479297 -0.00374126
841 1 10.1424 20.1337 12.977 -0.00166521 0.00165333 -0.00236655
842 1 12.3689 18.9002 12.9553 0.0101252 0.00151436 0.00545862
843 1 12.3443 21.408 12.9628 -0.00381442 0.00227286 0.000783269
844 1 11.6808 20.1785 12.466 0.00398218 -0.00479242 0.00533576
845 1 10.1774 20.2472 14.5211 -0.00243825 0.00495286 0.000889168
846 1 12.3684 18.9413 14.599 -0.00569673 0.00655514 0.00851099
847 1 12.374 21.4749 14.534 -0.00357782 0.00661349 -0.00218719
848 1 14.5732 20.1698 12.9788 0.000552204 0.00066113 -0.00306309
849 1 13.1275 20.169 15.0468 -0.00290041 0.00294123 -0.00266257
850 1 15.3324 18.9781 15.0203 -0.00818255 -0.0025147 -0.00435916
851 1 15.3032 21.3967 15.0488 -0.000410803 -0.00423623 -0.007458
852 1 14.5296 20.1689 14.5433 0.00178632 -0.00506235 -0.00151368
853 1 13.0906 20.1842 16.7418 0.00199845 0.00375001 0.00494408
854 1 15.2809 18.8789 16.6326 -0.00596554 0.000394948 -0.00176752
855 1 15.2709 21.5177 16.6578 0.00194074 -0.00462968 -0.00380892
856 1 17.5071 20.188 15.0236 -0.00621276 -0.00266011 0.0110206
857 1 16.0039 20.2475 17.0013 -0.00390539 -0.00491888 0.00470503
858 1 18.1788 18.8522 17.0257 0.0105103 -0.00429497 -0.00676159
859 1 18.228 21.4352 17.0374 -0.00622821 0.0006576 0.00169927
860 1 17.4789 20.1439 16.721 -0.00351697 -0.00236934 0.00131825
861 1 20.4326 20.2011 17.0554 0.00326983 -0.00643964 -0.000548878
862 1 1.44723 2.57487 8.34638 -0.00233872 -0.00943308 -0.00470468
863 1 2.17678 3.78111 8.90489 0.00158259 0.00598701 0.00524738
864 1 2.2043 21.4359 8.84135 0.00401433 -0.00244451 -0.00764208
865 1 2.16598 1.29111 8.84454 -0.00541195 0.00837138 9.18001e-06
866 1 21.7979 2.46407 8.86246 -0.00081447 0.00623405 -0.00131566
867 1 2.16477 21.3946 10.4914 0.0019434 0.0128357 0.00645409
868 1 1.43485 2.55732 6.78708 0.00206461 -0.00169476 0.00364684
869 1 20.3722 0.00118718 17.0217 0.00268107 0.00068018 0.00642786
870 1 5.09247 21.3986 10.982 0.00308805 -0.00364955 0.000370959
871 1 17.4508 0.0359105 16.6922 0.00462885 0.00159424 0.00643543
872 1 18.1614 1.2606 17.0272 0.0013448 -0.00339447 0.0046575
873 1 5.12521 21.3859 12.4631 0.000522341 0.00132883 -0.0020064
874 1 16.0456 0.0583187 16.9726 0.00128819 0.000127612 -0.0082787
875 1 17.5193 0.00398479 14.9796 0.00248194 0.0109189 0.00476255
876 1 8.05096 21.4492 12.9812 0.00231101 0.00609081 0.00567039
877 1 15.3781 1.32278 16.6478 -0.00383729 0.000261044 0.0066506
878 1 13.1419 22.6564 16.6485 -0.00153646 0.00322278 -0.000210282
879 1 8.06924 21.43 14.521 0.0024708 -0.00100769 0.00459385
880 1 14.5848 0.00323831 14.6007 0.00537777 0.00299158 0.00200297
881 1 15.3094 1.32197 15.1216 0.00197184 -0.00598799 -0.00151295
882 1 10.9777 21.4963 15.0408 -0.00961591 0.00209595 -0.000447414
883 1 13.1611 0.0331963 15.0353 -0.00372822 -0.00758386 0.00567105
884 1 14.554 22.6795 13.0351 -0.0101591 -0.00204934 -0.00660666
885 1 10.9723 21.4586 16.7094 -0.00785262 -0.00633708 0.00120216
886 1 12.3867 1.2634 14.5254 -0.00214193 0.00506395 0.000621037
887 1 10.2267 0.0391998 14.5087 -0.00636408 -0.00207355 0.00831239
888 1 13.8161 21.4186 17.0237 -0.00188916 -0.00126761 0.00616644
889 1 11.6352 0.021915 12.4537 -0.00631258 -0.00400247 -0.00703111
890 1 12.3845 1.25049 12.9816 0.00141971 0.00270942 0.00961311
891 1 13.1001 1.16481e-22 -3.50139 0 0 0
892 1 15.2834 1.26055 -3.50139 0 0 0
893 1 13.1001 0 -1.95753 0 0 0
894 1 15.2834 1.26055 -1.95753 0 0 0
895 1 17.4668 1.29026e-22 -3.50139 0 0 0
896 1 16.0112 0 -1.44291 0 0 0
897 1 18.1945 1.26055 -1.44291 0 0 0
898 1 17.4668 0 -1.95753 0 0 0
899 1 16.0104 22.6688 0.0827728 -0.00419797 -0.00793318 0.00301537
900 1 18.1707 1.29289 0.125004 -0.00574429 0.00870268 0.00675665
901 1 20.3779 0 -1.44291 0 0 0
902 1 18.9193 0.0132309 0.639223 0.000362475 -0.0010172 0.0075999
903 1 21.1214 1.26078 0.539198 0.00665716 0.0051464 -0.000580962
904 1 20.3553 0.00727305 0.148524 -0.00275416 -0.00214239 0.00232137
905 1 18.9758 0.0162224 2.17329 -0.000863669 -0.000474803 0.0118632
906 1 21.1618 1.27204 2.18782 -0.00211695 0.00965731 -0.00615046
907 1 10.2279 22.671 13.0087 -0.0110169 0.011402 -0.00182
908 1 8.73338 2.52111 -3.50139 0 0 0
909 1 10.9167 1.26055 -3.50139 0 0 0
910 1 10.9167 3.78166 -3.50139 0 0 0
911 1 8.73338 2.52111 -1.95753 0 0 0
912 1 10.9167 1.26055 -1.95753 0 0 0
913 1 10.9167 3.78166 -1.95753 0 0 0
914 1 13.1001 2.52111 -3.50139 0 0 0
915 1 11.6445 2.52111 -1.44291 0 0 0
916 1 13.8279 1.26055 -1.44291 0 0 0
917 1 13.8279 3.78166 -1.44291 0 0 0
918 1 13.1001 2.52111 -1.95753 0 0 0
919 1 11.6458 2.53894 0.124923 -0.000133437 0.00131447 -0.00338099
920 1 13.8505 1.27655 0.105823 -0.00478965 0.00160951 0.00271834
921 1 13.8604 3.78979 0.0954006 -0.000977971 0.00223978 0.00197049
922 1 16.0112 2.52111 -1.44291 0 0 0
923 1 14.5579 2.49961 0.639448 0.0016342 0.00838481 0.0026092
924 1 16.7087 1.24745 0.626327 0.00690911 0.0028858 0.000681373
925 1 16.7008 3.7784 0.62746 0.00280883 -0.00673939 -0.00136562
926 1 16.0151 2.53627 0.125196 -0.00133522 0.00251246 0.00193116
927 1 14.5364 2.53065 2.20001 -0.00352076 -0.000402411 -0.00349143
928 1 16.7774 1.22984 2.14665 0.00313424 -0.00862823 0.00245395
929 1 16.7623 3.79439 2.18722 0.000112332 -0.00295281 0.00351643
930 1 18.8912 2.5448 0.643335 0.00567359 -0.00493666 0.00640543
931 1 17.4636 2.51283 2.70922 -0.00177678 0.00726085 -0.00453272
932 1 19.7079 1.33073 2.67335 -0.00571864 -0.00382266 -0.00591201
933 1 19.6547 3.78811 2.62428 -0.00347775 -0.000483368 -0.00552059
934 1 18.9044 2.56832 2.16282 -0.00999973 -0.0112626 0.00529607
935 1 17.4857 2.53427 4.24173 0.00707474 0.00189044 -0.00142809
936 1 19.6908 1.25562 4.2307 0.00521243 -0.00403201 -0.00645974
937 1 19.6429 3.82737 4.24026 0.00196361 -0.00108509 0.00804849
938 1 11.5975 22.6436 10.8926 -0.00712598 -0.00272835 -0.000946238
939 1 20.3623 2.56953 4.74186 0.00710081 0.000304396 -0.00604442
940 1 9.48687 1.2449 12.4892 0.00222518 -0.00273069 0.00534226
941 1 20.4125 2.60524 6.28531 0.00751256 0.00472568 0.00139082
942 1 4.36669 5.04222 -3.50139 0 0 0
943 1 6.55003 3.78166 -3.50139 0 0 0
944 1 6.55003 6.30277 -3.50139 0 0 0
945 1 4.36669 5.04222 -1.95753 0 0 0
946 1 6.55003 3.78166 -1.95753 0 0 0
947 1 6.55003 6.30277 -1.95753 0 0 0
948 1 8.73338 5.04222 -3.50139 0 0 0
949 1 7.27782 5.04222 -1.44291 0 0 0
950 1 9.46116 3.78166 -1.44291 0 0 0
951 1 9.46116 6.30277 -1.44291 0 0 0
952 1 8.73338 5.04222 -1.95753 0 0 0
953 1 7.23237 5.05804 0.0643403 9.34494e-05 -0.00711413 0.00236465
954 1 9.45132 3.77595 0.110554 -0.00317735 0.000753108 -0.00563501
955 1 9.49198 6.32484 0.0742756 0.00126623 0.00388371 9.87465e-05
956 1 11.6445 5.04222 -1.44291 0 0 0
957 1 10.1645 5.03694 0.559499 0.00121674 0.00852998 0.00641091
958 1 12.3799 3.7663 0.615173 0.00660772 0.00307284 -0.00301177
959 1 12.3966 6.29755 0.608289 -0.00428957 -0.00126302 -0.00757023
960 1 11.6518 4.9753 0.0679199 0.0107412 0.00167849 0.00317348
961 1 10.2351 5.05995 2.10177 0.0058116 -0.00655624 0.00406112
962 1 12.3325 3.74068 2.17558 0.00210495 0.00113508 0.00339654
963 1 12.4418 6.29059 2.15619 0.00190836 0.00402717 0.000697687
964 1 14.5782 5.02437 0.61906 -0.00728403 0.0114623 0.00301165
965 1 13.0899 5.02785 2.69552 -0.00619165 0.00534073 -0.000600853
966 1 15.3618 3.81071 2.69091 -0.012987 -0.00521579 -0.00221003
967 1 15.2968 6.26211 2.69768 -0.000670854 0.00178351 -0.00399299
968 1 14.5541 5.01866 2.17465 0.00560568 -2.42047e-05 0.00481084
969 1 13.0907 5.0139 4.22476 0.00131014 0.00346788 -0.00119491
970 1 15.3125 3.80254 4.21726 0.000250117 0.00817745 -0.00815178
971 1 15.2961 6.24863 4.2662 0.00304549 0.000556052 -0.00418948
972 1 17.4944 5.03203 2.6695 -0.00412397 0.00451384 -0.00109922
973 1 16.0298 5.03745 4.75141 0.00105466 0.00168352 -0.00785217
974 1 18.2394 3.75634 4.78559 0.00400156 -0.00625715 0.0031131
975 1 18.1757 6.30363 4.72424 -0.00145714 0.00301645 0.00823404
976 1 17.4805 5.01254 4.19818 -0.00260924 -0.00111364 0.000841615
977 1 16.0205 5.02323 6.25362 -0.00568221 -0.00198411 0.000906615
978 1 18.2173 3.75677 6.31264 0.000176792 -0.000365385 -0.00724847
979 1 18.1692 6.30427 6.2419 -0.00478139 0.00231869 0.00173823
980 1 20.3486 5.09627 4.7869 -0.00184908 0.00121248 -0.00434964
981 1 18.9428 5.08325 6.77286 -0.00083228 0.00438316 -0.00695578
982 1 21.1954 3.83938 6.84128 -0.00697732 0.0017839 -0.00163369
983 1 21.1119 6.29112 6.77755 0.00940291 -0.0011807 0.00157623
984 1 20.3836 5.08641 6.31137 -0.00165833 0.0056864 -0.00793226
985 1 18.8998 5.03421 8.3712 0.00272028 -0.00130418 -0.00390839
986 1 21.1333 3.83042 8.40621 -0.00524525 -0.000904401 0.00234102
987 1 21.1646 6.29541 8.41164 -0.000726284 -0.00359127 0.00845789
988 1 7.30678 22.6372 12.4528 0.000546393 -0.00303839 -0.00017602
989 1 8.75978 0.00108166 10.4426 0.00426287 0.0118029 -0.00203835
990 1 1.13891e-22 7.56333 -3.50139 0 0 0
991 1 2.18334 6.30277 -3.50139 0 0 0
992 1 2.18334 8.82388 -3.50139 0 0 0
993 1 2.66355e-24 7.56333 -1.95753 0 0 0
994 1 2.18334 6.30277 -1.95753 0 0 0
995 1 2.18334 8.82388 -1.95753 0 0 0
996 1 4.36669 7.56333 -3.50139 0 0 0
997 1 2.91113 7.56333 -1.44291 0 0 0
998 1 5.09447 6.30277 -1.44291 0 0 0
999 1 5.09447 8.82388 -1.44291 0 0 0
1000 1 4.36669 7.56333 -1.95753 0 0 0
1001 1 2.90042 7.60561 0.0538396 -0.00815249 -0.00677913 0.00337173
1002 1 5.05914 6.32782 0.134555 -0.00516778 0.00102197 -0.00125793
1003 1 5.12254 8.8742 0.0909832 0.00461864 0.00338004 -0.00417637
1004 1 7.27782 7.56333 -1.44291 0 0 0
1005 1 5.84433 7.58286 0.615807 -0.00505708 0.000147297 0.00450695
1006 1 7.99385 6.31272 0.604893 0.00254457 -0.00757964 0.00114023
1007 1 7.98372 8.87461 0.59128 0.00163775 -0.000844459 -0.0010517
1008 1 7.26662 7.57185 0.104677 0.00404917 0.01269 -0.00118666
1009 1 5.82573 7.64053 2.17306 -0.00570942 -0.00162263 -0.000751774
1010 1 8.02536 6.37389 2.10475 -0.00231475 0.000216036 -0.00287884
1011 1 8.01501 8.83742 2.15025 -0.0015936 -0.000304415 0.00462483
1012 1 10.1822 7.56065 0.658641 0.00659714 0.00967012 0.00241639
1013 1 8.70442 7.59126 2.6936 -0.00923654 -8.60047e-05 0.00830938
1014 1 10.9596 6.32455 2.69794 -0.00162378 -0.0107019 0.000324423
1015 1 10.9026 8.79815 2.69806 -0.00379225 -0.00242484 -0.0068528
1016 1 10.2282 7.54821 2.17819 -0.000912199 -0.00154437 -0.00783087
1017 1 8.73696 7.59203 4.2407 0.00277365 -0.0119475 0.00942845
1018 1 10.953 6.3352 4.17939 0.00419997 0.0093118 -0.00435089
1019 1 10.9189 8.85803 4.17669 0.000715499 0.00227237 0.00133826
1020 1 13.1166 7.53118 2.67874 0.0033151 0.00680626 -0.0013228
1021 1 11.6905 7.65199 4.74628 0.00992141 -0.000819018 0.000853625
1022 1 13.8307 6.33627 4.74417 0.00296933 0.0066014 0.00288404
1023 1 13.7851 8.84321 4.76834 0.00521787 0.00934754 -0.00385241
1024 1 13.092 7.59372 4.2471 -0.00280967 0.00184997 -0.0037739
1025 1 11.6703 7.53135 6.23145 -0.00775138 -0.0103963 -0.00210898
1026 1 13.81 6.29972 6.32915 0.00577499 -0.000699955 0.00213647
1027 1 13.7881 8.87845 6.32255 0.00641912 0.0068756 0.00341094
1028 1 15.9622 7.58403 4.7346 -0.00641184 0.00821799 0.00305805
1029 1 14.5285 7.57891 6.80453 -0.00564064 0.00499755 -0.00353985
1030 1 16.7258 6.31623 6.78712 0.00443598 -0.00111012 -0.00498938
1031 1 16.7248 8.79426 6.76389 0.00305991 -0.00399672 -0.000112452
1032 1 15.9813 7.53206 6.28208 0.00169107 0.000476011 0.0114451
1033 1 14.5204 7.57643 8.33725 -0.00470485 0.000310971 0.00295156
1034 1 16.7118 6.24481 8.35928 0.00568193 -0.00297347 -0.00399345
1035 1 16.7191 8.82997 8.35138 -0.000698711 -0.00630332 -0.00107724
1036 1 18.8823 7.59206 6.80113 -0.00583917 -0.00553896 0.00457713
1037 1 17.4315 7.53169 8.87421 -0.00361385 -0.0056939 0.0134672
1038 1 19.6772 6.36938 8.80621 0.00922039 0.00465308 0.00290347
1039 1 19.6611 8.84243 8.86925 -0.00603562 -0.00307628 0.00694112
1040 1 18.8755 7.5668 8.31709 0.00187214 -0.0103786 -0.00151284
1041 1 17.4859 7.57546 10.4329 0.00660889 -0.00245675 -0.00146444
1042 1 19.6294 6.34688 10.4221 0.00637437 -0.00373557 0.00452501
1043 1 19.6507 8.85179 10.4143 -0.00544971 -0.00218264 -0.00800281
1044 1 9.45721 1.30985 10.9182 -0.00351776 -0.00421549 0.00380099
1045 1 20.3857 7.60766 10.9603 -0.000781573 -0.00256726 0.00219726
1046 1 7.28021 0.0209318 10.9339 -0.00242592 0.000525814 -0.00176699
1047 1 20.3948 7.53929 12.4865 -0.00105829 0.00198993 -0.00464191
1048 1 1.1341e-22 10.0844 -3.50139 0 0 0
1049 1 0.727782 8.82388 -1.44291 0 0 0
1050 1 0.727782 11.345 -1.44291 0 0 0
1051 1 1.85149e-24 10.0844 -1.95753 0 0 0
1052 1 0.715219 8.84014 0.101251 0.00796938 -0.00408844 -0.00469675
1053 1 0.737357 11.3759 0.111863 0.0083606 -0.00708916 0.00569741
1054 1 2.91113 10.0844 -1.44291 0 0 0
1055 1 1.4382 10.093 0.638014 -0.00141023 -0.00553562 -0.00658402
1056 1 3.70946 8.9172 0.616356 -0.0105164 0.00963551 0.000992812
1057 1 3.63251 11.4232 0.609898 0.00216142 -0.00638028 -0.00117077
1058 1 2.90642 10.0997 0.154486 0.0072919 -0.00233603 -0.00189201
1059 1 1.456 10.1742 2.15957 0.0133178 0.00334269 -0.00393598
1060 1 3.66631 8.84474 2.12507 0.00627096 0.00206801 -0.00835933
1061 1 3.62522 11.3818 2.15318 0.00787388 0.00338454 -0.0013699
1062 1 5.76399 10.1511 0.62293 0.00308485 0.00685333 -0.00583948
1063 1 4.33207 10.103 2.72352 0.00668281 -0.0100303 -0.000847914
1064 1 6.54595 8.80575 2.62974 -0.00154903 -0.0110478 -0.00458062
1065 1 6.54936 11.3818 2.6905 0.00443985 0.0083644 -0.00301642
1066 1 5.76156 10.1299 2.1692 0.00913458 -0.00101683 -0.000447086
1067 1 4.31441 10.0782 4.26758 -0.00175206 0.0025484 0.00242043
1068 1 6.52802 8.81907 4.24656 -0.00224907 -0.00332775 0.00511012
1069 1 6.53586 11.328 4.217 0.00217808 0.0116261 0.0142903
1070 1 8.70039 10.1065 2.69124 -0.00352185 0.00182449 -0.00886165
1071 1 7.32395 10.0744 4.71685 -0.00456609 0.00348865 -0.00223933
1072 1 9.48439 8.84686 4.71819 0.00250288 0.00827123 -0.00245506
1073 1 9.47451 11.3615 4.73115 -0.00554903 0.00126773 0.0049102
1074 1 8.76589 10.0684 4.21445 -0.00197428 -0.00180507 0.00682255
1075 1 7.25732 10.0692 6.21836 -0.000982405 0.000628921 -0.000875905
1076 1 9.46754 8.85552 6.29323 0.00516572 -0.0069474 -0.00266722
1077 1 9.4738 11.3476 6.25343 -0.00945461 0.0052813 0.0058305
1078 1 11.6254 10.0737 4.69143 0.00684006 -0.00106512 0.000808664
1079 1 10.2206 10.1485 6.76419 0.00695981 0.00373268 -0.00315566
1080 1 12.3732 8.85956 6.79155 0.00752065 0.0130927 -0.0064789
1081 1 12.3771 11.3405 6.78307 -0.003572 -0.00382576 0.00340125
1082 1 11.6165 10.0671 6.26884 -0.007684 0.0026935 -0.000391319
1083 1 10.2306 10.0934 8.29044 -0.00535963 -0.00926198 0.0123791
1084 1 12.4322 8.82832 8.35953 0.0029689 -0.00361415 0.00124951
1085 1 12.3766 11.3634 8.3565 -0.00309846 -0.0014277 0.0061009
1086 1 14.5198 10.0918 6.81452 0.00224653 -0.000535879 0.00597157
1087 1 13.106 10.071 8.88521 0.00373158 0.00158429 -0.00323294
1088 1 15.2734 8.87871 8.83691 -0.00306673 0.00139973 -0.00389001
1089 1 15.2826 11.3415 8.81283 -0.00431 0.00327074 0.00335911
1090 1 14.5188 10.1304 8.33328 0.003385 0.00178422 -0.00793159
1091 1 13.1517 10.0623 10.4409 0.00978491 0.00210488 -0.0080702
1092 1 15.2689 8.80097 10.3505 -0.00246392 0.00375837 0.000241626
1093 1 15.2843 11.3109 10.419 -0.00435528 0.009233 0.00208946
1094 1 17.409 10.0934 8.84443 0.000742875 0.00192272 0.00200344
1095 1 16.0094 10.0556 10.8674 0.00348936 -0.00431611 -0.00108433
1096 1 18.2195 8.83978 10.9301 -0.00100098 0.0065938 0.00846241
1097 1 18.2108 11.2987 10.8882 0.0122283 0.00800629 0.00632117
1098 1 17.461 10.0618 10.3518 0.00414847 -0.00799313 -0.00143937
1099 1 15.9914 10.0774 12.4214 0.000704401 -0.00324838 -0.0104436
1100 1 18.2108 8.81046 12.4955 -0.000262775 -0.000157798 -0.00562478
1101 1 18.1881 11.273 12.4615 0.00605699 0.00197964 -0.000468295
1102 1 20.4371 10.0779 10.9365 -0.00557828 -0.00164249 -0.00558889
1103 1 18.9248 10.0728 13.0029 0.00239463 -0.00651712 0.00663251
1104 1 21.1085 8.79166 13.0046 -0.00420585 -0.00478364 -0.00111224
1105 1 21.1223 11.4328 13.0348 -0.00057202 -0.00821216 -0.0034871
1106 1 20.4141 10.1196 12.4869 -0.00711355 -0.00586871 -0.00391467
1107 1 18.9334 10.0865 14.5113 0.00589874 -0.00338011 0.00428566
1108 1 21.1339 8.83822 14.5549 -0.00151226 0.00286504 -0.00795906
1109 1 21.1303 11.3865 14.5677 0.00330717 0.00466833 0.00151685
1110 1 8.72997 22.6582 8.86193 0.0044781 0.00253062 0.00784631
1111 1 1.40622 12.6229 0.619341 -0.00856277 0.00515522 0.00321016
1112 1 21.8185 12.6327 2.69781 0.00155584 0.00129369 -0.00116495
1113 1 2.16524 11.3857 2.65543 -0.00387192 -0.000397978 0.00336331
1114 1 2.1719 13.9095 2.74402 0.010665 -0.00288611 -0.000990175
1115 1 1.42077 12.6046 2.20406 -0.00302813 -0.00553962 0.000416757
1116 1 0.0329365 12.6332 4.27403 -0.00055483 6.5554e-07 0.00125546
1117 1 2.16385 11.3777 4.17382 -0.00831377 0.00414413 0.00251377
1118 1 2.15793 13.86 4.23908 -0.00246361 0.0131426 -0.00735894
1119 1 4.38568 12.6868 2.69102 -0.00414003 0.00262944 -0.000710536
1120 1 2.86354 12.6388 4.72058 0.00297071 0.00539011 0.00223436
1121 1 5.08166 11.3547 4.75969 -0.00698648 -0.00330067 0.0039934
1122 1 5.08573 13.8502 4.72359 0.00273379 -0.00437885 -0.00177001
1123 1 4.39612 12.6448 4.21998 0.00126243 0.00617783 0.00554406
1124 1 2.82182 12.611 6.23397 0.000722859 -0.00682774 -0.00118989
1125 1 5.07809 11.3499 6.30744 -0.0043767 0.00335112 -0.00454897
1126 1 5.06783 13.8559 6.24358 -0.00524624 0.00499051 0.00332233
1127 1 7.29298 12.5324 4.76711 -0.00533574 -0.00628451 0.00600843
1128 1 5.81995 12.5982 6.77428 0.000178432 9.91951e-06 -0.00162132
1129 1 8.02804 11.3426 6.78933 0.00496537 -0.00535173 -0.00715906
1130 1 7.98024 13.8373 6.85488 -0.00735712 0.00372828 -0.00260603
1131 1 7.27255 12.5772 6.28652 0.00577403 0.00385395 -0.00205644
1132 1 5.81293 12.5598 8.30671 -0.000721882 0.0104284 -0.00114716
1133 1 8.01358 11.3431 8.32823 -3.6991e-06 -0.00102301 0.00666856
1134 1 7.99505 13.8402 8.37033 -0.00559627 -0.00101934 0.0045688
1135 1 10.1775 12.6292 6.75611 0.00344598 0.00597867 0.00551712
1136 1 8.73832 12.5816 8.85579 -0.00554313 -0.00245328 -0.00766339
1137 1 10.9522 11.4014 8.8291 -0.00152461 0.00611446 -0.00109791
1138 1 10.9433 13.8546 8.90378 -0.000675638 0.00084931 -0.00357461
1139 1 10.1868 12.652 8.36479 0.00540337 -0.00777107 -0.00786385
1140 1 8.74529 12.6031 10.4283 -0.002683 0.00394291 0.00590186
1141 1 10.9883 11.3225 10.421 -0.00872615 -0.0112488 0.00855035
1142 1 10.9369 13.8846 10.4258 -0.000299686 0.00290232 -0.00277041
1143 1 13.1299 12.6371 8.87703 0.00967744 0.00792689 0.00420267
1144 1 11.6647 12.6308 10.8904 0.00719257 -0.0053223 0.00344151
1145 1 13.8605 11.3357 10.9034 0.000120737 0.00799181 0.00351421
1146 1 13.8796 13.9133 10.9419 0.00745099 -0.00870987 -0.000860324
1147 1 13.1393 12.6422 10.3793 -0.000798761 -0.00355429 0.00481202
1148 1 11.6884 12.6291 12.4601 0.00541478 0.00780326 0.00171096
1149 1 13.8409 11.3629 12.4627 -0.0053558 -0.00384322 0.00345449
1150 1 13.8942 13.8836 12.4922 0.00186786 0.0118666 0.00328012
1151 1 16.0623 12.6259 10.9217 -0.0038025 -0.00381788 -0.00121376
1152 1 14.5868 12.601 12.9724 -0.0065122 0.00305615 -0.0038535
1153 1 16.7358 11.3673 13.0029 -0.00462107 -0.00315515 -0.0112407
1154 1 16.7386 13.9337 13.0105 -0.000586686 -0.0112186 -0.00886855
1155 1 16.1089 12.5799 12.4915 0.00124621 0.00438273 0.00160332
1156 1 14.5303 12.6246 14.5532 0.00880445 -0.0021876 -0.00111963
1157 1 16.8069 11.3406 14.5664 0.000339101 -0.00285058 0.00272176
1158 1 16.727 13.8725 14.5678 -0.000149684 -0.00166174 0.00482692
1159 1 18.8564 12.6185 13.0264 -0.00996735 -0.00381353 0.000879556
1160 1 17.4972 12.645 15.0294 -0.00215937 -0.000638869 -0.00317488
1161 1 19.6471 11.3649 14.9808 0.000205482 0.00179864 0.00401751
1162 1 19.6911 13.8593 15.0855 0.000524486 -0.00892801 -0.00540085
1163 1 18.9662 12.6164 14.5373 0.000792703 -0.00596283 -4.94703e-05
1164 1 17.5519 12.5879 16.7055 0.00758696 -0.00767626 0.000729533
1165 1 19.6699 11.3499 16.5588 0.0130207 0.00495353 -0.0014294
1166 1 19.6893 13.8405 16.7355 0.000523472 0.00921145 -0.00810624
1167 1 20.4264 12.6204 16.9884 -0.00344707 2.45303e-05 0.00727035
1168 1 6.57867 1.28616 10.3846 0.00752423 0.00491743 0.00352306
1169 1 21.7846 15.1554 2.67965 0.0067014 -0.00383833 -0.0022323
1170 1 0.685995 13.8914 4.77292 -0.0076613 0.00589374 0.00134423
1171 1 0.676875 16.3818 4.71075 0.00743558 0.000565741 0.00589809
1172 1 21.7555 15.1487 4.19041 -0.000187402 0.00337078 -0.00782567
1173 1 0.685576 13.8715 6.30066 -0.00845611 0.000539231 0.00223231
1174 1 0.694518 16.4498 6.24319 0.000287558 0.00353688 -0.00100892
1175 1 2.92017 15.1379 4.73281 -0.000739252 -0.00398218 0.0015532
1176 1 1.47956 15.2177 6.76279 -0.00222703 -0.000830777 0.00826998
1177 1 3.57748 13.8641 6.77862 -0.00695315 -0.00564969 0.000682594
1178 1 3.65839 16.3902 6.82526 -0.00248532 -0.00268979 -0.00369997
1179 1 2.91355 15.213 6.26683 0.0153548 -0.00160552 0.00837908
1180 1 1.48068 15.1271 8.34619 -0.00475309 0.00076702 -0.00672226
1181 1 3.65959 13.8861 8.35949 -0.00219543 0.00280874 0.00260246
1182 1 3.60993 16.3891 8.3534 0.00303067 -0.00404535 -0.00083921
1183 1 5.85018 15.0928 6.80117 -0.00677421 0.00182297 0.00192558
1184 1 4.3979 15.1528 8.90288 -0.0039484 0.0149585 0.00157467
1185 1 6.51137 13.8487 8.83815 -0.00363513 0.00164277 -0.00265602
1186 1 6.53238 16.3693 8.84489 0.00563565 -0.00328727 -0.00124827
1187 1 5.82766 15.1736 8.34842 -0.0105216 -0.00019103 0.000298067
1188 1 4.36251 15.1068 10.4705 -0.00820589 -0.00720739 -0.00485007
1189 1 6.53729 13.8792 10.3857 0.00253717 0.00271935 -0.00206633
1190 1 6.5413 16.4309 10.4314 -0.00334482 -0.00072583 0.00553281
1191 1 8.76734 15.1304 8.87303 0.000210327 -0.00171672 0.00235178
1192 1 7.2548 15.1475 10.8996 0.0062573 0.000642049 0.00284792
1193 1 9.47591 13.887 10.9248 -0.00195485 0.00733517 -0.000679511
1194 1 9.50268 16.357 10.9536 0.0141675 -0.00473913 0.00179731
1195 1 8.71535 15.1534 10.3861 0.00257095 -0.00175504 0.00468088
1196 1 7.27774 15.1692 12.468 -0.00123208 -0.00300535 0.00681188
1197 1 9.51121 13.868 12.4813 -0.000779184 0.0108527 0.0100571
1198 1 9.47792 16.3815 12.4996 -0.00176016 -0.00123232 0.00327378
1199 1 11.6298 15.1172 10.9671 -0.00470665 -0.00588331 -0.00424769
1200 1 10.2297 15.1152 13.0428 -0.00617632 0.00789322 0.00520296
1201 1 12.4105 13.9158 12.9374 -0.012998 0.00739106 0.000597268
1202 1 12.428 16.443 12.966 -0.00464634 0.00570804 -0.00211249
1203 1 11.6427 15.1837 12.4801 -0.00333871 -0.00492783 0.00611693
1204 1 10.2209 15.137 14.5544 0.0103446 0.00783795 0.00088879
1205 1 12.3394 13.8471 14.4844 0.00129386 0.00527387 0.0011411
1206 1 12.4015 16.3528 14.5022 0.00461361 0.00142785 0.00633958
1207 1 14.5716 15.1363 12.9474 -0.00818034 -0.00684653 0.00366016
1208 1 13.1116 15.1424 15.0103 0.00200531 -0.00196197 -0.000774116
1209 1 15.313 13.8747 15.0612 -0.00638089 0.00628471 0.00470279
1210 1 15.2875 16.411 14.9788 -0.00547975 0.00288048 0.00453095
1211 1 14.5824 15.1187 14.506 0.00172508 -0.00017403 -0.00390948
1212 1 13.1656 15.0475 16.6494 0.00193367 0.00107692 0.00752515
1213 1 15.2653 13.7935 16.7281 0.00154392 -0.00842973 0.00185005
1214 1 15.2887 16.3133 16.6491 0.00525625 -0.00169648 -0.00920561
1215 1 17.5163 15.1032 15.0826 0.00394895 -0.000199008 0.0101079
1216 1 16.0373 15.1142 16.9963 0.00312779 -0.00202494 0.000228211
1217 1 18.2074 13.8199 17.027 4.19092e-05 0.00478383 -0.00362798
1218 1 18.1581 16.3984 16.9925 -0.00113893 -0.00627782 -0.00677203
1219 1 17.4789 15.0964 16.697 -0.00375839 0.00741185 0.00479676
1220 1 20.359 15.1018 16.9423 0.00645388 0.006817 0.00558234
1221 1 1.39379 17.6659 6.7486 -0.00335438 0.00881644 -0.00799957
1222 1 21.7999 17.6687 8.85921 -0.00281065 0.00393213 0.00527305
1223 1 2.22523 16.411 8.82619 0.00161644 0.00538915 0.000969758
1224 1 2.19081 18.9615 8.78526 0.00062868 -0.00534691 0.00863156
1225 1 1.4798 17.6592 8.35854 -0.00729563 -6.22068e-05 0.00194017
1226 1 21.8198 17.6445 10.3982 0.000629805 0.00362667 0.000450454
1227 1 2.18353 16.3646 10.4074 0.00184211 0.0053948 -2.64261e-05
1228 1 2.19833 18.9514 10.4069 -0.00175665 0.0033821 -0.00895687
1229 1 4.32392 17.6296 8.87443 0.00359788 -0.0121263 0.00230067
1230 1 2.88328 17.7438 10.9042 0.000907906 0.00312853 -0.00608399
1231 1 5.10298 16.3775 10.9919 -0.00134443 -0.00231848 0.00249398
1232 1 5.14007 18.923 10.9893 -0.00421818 0.00231568 0.00357682
1233 1 4.39387 17.7009 10.4157 0.000741419 -0.00617601 0.000688542
1234 1 2.92201 17.6503 12.4279 -0.000319748 0.00107995 0.000398733
1235 1 5.1171 16.3784 12.4978 -0.0006598 0.00305068 0.00602452
1236 1 5.1424 18.8998 12.507 -0.00199101 0.00261893 0.00489033
1237 1 7.32179 17.6465 10.9427 0.00789951 -0.00545668 -0.00196964
1238 1 5.85299 17.7067 12.9506 -0.00429221 0.00374251 0.00135548
1239 1 8.01286 16.4036 13.0236 -0.00192593 -0.00850046 0.00341262
1240 1 8.05059 18.9365 12.9569 0.00629871 -0.000685943 0.00157824
1241 1 7.3685 17.6541 12.5063 -0.00587113 0.000930589 0.00341463
1242 1 5.86344 17.6884 14.4857 -0.00396448 -0.00696314 -0.00313273
1243 1 8.05059 16.34 14.5811 -0.00277789 -0.000699282 -0.00573269
1244 1 8.06271 18.9057 14.547 2.21803e-05 0.00409988 -0.00345466
1245 1 10.2345 17.608 12.9896 -0.00774738 -0.00132013 0.00610217
1246 1 8.74779 17.6806 15.0593 -0.00313099 -0.00723803 -0.00346801
1247 1 10.9467 16.3535 15.0535 -0.0013666 0.0114721 0.00392599
1248 1 10.9081 18.9265 15.0187 -0.00512508 0.00141882 0.00527813
1249 1 10.237 17.6317 14.4628 -0.00529574 0.00732779 0.00338826
1250 1 8.73348 17.6839 16.6946 -0.00252752 0.00366712 0.00127352
1251 1 10.9356 16.3738 16.7595 -0.00325473 -0.00359517 -0.00817961
1252 1 10.9269 19.0067 16.6705 0.000257015 0.0065701 0.00168515
1253 1 13.1276 17.6367 14.9976 -0.00560861 0.000160321 0.00678953
1254 1 11.6492 17.7132 17.0428 -0.00476751 0.00382009 -0.00685141
1255 1 13.7754 16.3527 16.9678 -0.00444562 -0.00398925 -0.00401068
1256 1 13.8796 18.9013 16.954 0.00154655 -0.000710472 0.000798149
1257 1 13.113 17.6355 16.6567 -0.00635646 0.00494475 -0.000728109
1258 1 16.0286 17.5512 16.9669 -0.00418989 -0.00147906 0.00470641
1259 1 0.00709903 20.1726 8.83759 -0.00660836 -4.02717e-05 -0.00350872
1260 1 0.732048 18.9126 10.9061 0.00567977 0.00159494 -0.001285
1261 1 0.733277 21.3955 10.925 -0.00305221 0.00123414 0.00551689
1262 1 21.8109 20.1457 10.4108 0.00028741 0.00166951 0.00451109
1263 1 0.731035 18.9096 12.4465 -0.002647 -0.0104753 0.00605376
1264 1 0.723515 21.4641 12.4825 0.00739311 -0.00844449 -0.00415664
1265 1 2.88393 20.1863 10.9794 0.0060235 -0.00265718 0.000804788
1266 1 1.40835 20.155 12.9807 -0.00605894 -0.00997082 -0.0017278
1267 1 3.65204 18.8738 13.0002 0.00206923 -0.0132471 -0.00132235
1268 1 3.6375 21.4236 12.9985 0.00917032 -0.00233062 -0.00238526
1269 1 2.90634 20.1364 12.5088 0.00443156 0.00390134 0.00370078
1270 1 1.48499 20.1323 14.4888 0.0137082 -0.0022192 0.00638455
1271 1 3.69391 18.9507 14.5311 0.00402408 -0.00530547 -0.00631778
1272 1 3.71591 21.4604 14.5387 0.00267182 -0.00382068 0.00103682
1273 1 5.88779 20.1933 12.9807 0.000943183 -0.00591654 -0.00127129
1274 1 4.43893 20.1723 15.0401 -0.00644493 -0.00101285 -0.00355391
1275 1 6.56664 18.8817 14.969 0.00418565 0.0051528 -0.00240505
1276 1 6.5911 21.4797 15.0463 0.00474826 -0.00362616 -0.00326649
1277 1 5.8651 20.2084 14.5075 0.000260524 -0.00779165 0.00222481
1278 1 4.40991 20.1691 16.6786 0.00368074 0.00714369 0.00318915
1279 1 6.52634 18.9231 16.6049 0.00298929 0.00473203 0.0135026
1280 1 6.56337 21.4232 16.6863 -0.0111685 0.008395 0.00424705
1281 1 8.76502 20.2048 14.9944 -0.00436172 0.000715233 -0.00276741
1282 1 7.28057 20.1763 17.0498 -0.00372768 0.00226482 -0.00343616
1283 1 9.489 18.9863 16.9688 -0.00443899 -0.000218999 0.000488708
1284 1 9.48516 21.4676 16.946 0.00407033 0.00195416 0.00570062
1285 1 8.7602 20.2116 16.6609 0.000374123 -0.00345422 2.14619e-05
1286 1 11.6792 20.2366 17.0858 0.00999469 0.00668657 0.00541828
1287 1 4.38326 22.681 10.3954 -0.002919 -0.00458471 -0.000407234
1288 1 5.78136 0.0169506 8.33859 0.00396601 -0.0027728 0.0126452
1289 1 2.24303 21.3742 15.0333 -0.00751544 -0.012659 0.000906423
1290 1 6.50246 1.31821 8.8729 -0.00482645 -0.00272406 -0.00108964
1291 1 4.35882 22.6574 8.8641 0.00219834 0.00576472 0.000704143
1292 1 2.20536 21.3995 16.6355 -0.00507577 0.00508755 0.00391624
1293 1 5.80194 22.672 6.79465 -0.000734338 -0.005658 -0.00209979
1294 1 3.59048 1.31274 8.32609 -0.00386902 0.00034409 0.00196375
1295 1 5.08314 21.4385 16.9895 0.00234293 -0.00381721 0.00405425
1296 1 1.46258 0.0353346 8.33733 -0.00561432 0.00914731 0.00480268
1297 1 2.85883 0.0308726 6.30964 0.00884233 0.00732549 -0.000998336
1298 1 4.36669 6.63406e-23 -3.50139 0 0 0
1299 1 6.55003 1.26055 -3.50139 0 0 0
1300 1 4.36669 0 -1.95753 0 0 0
1301 1 6.55003 1.26055 -1.95753 0 0 0
1302 1 8.73338 6.61542e-23 -3.50139 0 0 0
1303 1 7.27782 1.94948e-25 -1.44291 0 0 0
1304 1 9.46116 1.26055 -1.44291 0 0 0
1305 1 8.73338 0 -1.95753 0 0 0
1306 1 7.25761 22.6854 0.0929056 0.00451247 -0.00843674 0.0012421
1307 1 9.44337 1.28185 0.165147 -0.00353257 0.00191501 0.0128896
1308 1 11.6445 0 -1.44291 0 0 0
1309 1 10.1896 0.0223101 0.619511 0.00124068 0.00737989 0.00433276
1310 1 12.3394 1.28538 0.64593 -0.00289297 -0.000232609 -0.000921141
1311 1 11.6775 0.0387878 0.136594 -0.00471046 -0.000236506 0.00196415
1312 1 10.1808 0.0304206 2.16384 -0.00316577 -0.00424311 -0.00131268
1313 1 12.3725 1.28667 2.19161 0.00172875 0.00880012 0.00213743
1314 1 14.5837 0.0380212 0.621793 0.00250557 -0.00128067 0.00639669
1315 1 13.1054 22.6747 2.65845 0.00094436 0.00348292 0.000209801
1316 1 15.2898 1.26779 2.65294 0.00166479 -0.0107551 -0.0020824
1317 1 14.5357 0.00308886 2.1441 0.00959046 -0.00381481 0.00869412
1318 1 13.0714 0.0218654 4.22397 0.0042478 0.00103914 0.00295314
1319 1 15.2982 1.24963 4.21522 -0.0039769 0.000288668 -0.0119333
1320 1 17.4929 22.6774 2.69638 0.00571187 0.00245057 0.00420456
1321 1 15.9926 22.6474 4.73792 0.00167809 0.00266352 -0.00997191
1322 1 18.2233 1.26586 4.71425 -0.00622797 -0.00609958 -0.000689755
1323 1 17.5109 0.0233056 4.24643 -0.00396375 -0.00151499 -0.00105486
1324 1 16.0141 22.6633 6.31716 0.00271706 0.00207702 0.000779268
1325 1 18.193 1.26654 6.3313 -0.00155213 -0.0021403 0.00660725
1326 1 20.3482 0.0513018 4.75775 0.000213633 -0.0046416 -0.0033329
1327 1 18.9108 0.00889038 6.84029 0.00236085 -0.00166902 -0.000298082
1328 1 21.0971 1.28486 6.76315 0.00200023 0.00310714 -0.0076647
1329 1 20.3171 0.0101463 6.28902 -0.00117416 0.000935432 0.00237384
1330 1 18.915 0.0548408 8.41702 0.000656584 0.00112658 0.000312369
1331 1 21.0848 1.28035 8.33441 0.00634531 -0.00100578 -0.00544033
1332 1 3.6055 1.26498 6.79973 0.00217635 0.00502957 -0.00496886
1333 1 1.40819 0.0590601 6.82376 -0.00767599 -0.000656255 -0.0069062
1334 1 0 2.52111 -3.50139 0 0 0
1335 1 2.18334 1.26055 -3.50139 0 0 0
1336 1 2.18334 3.78166 -3.50139 0 0 0
1337 1 2.22045e-16 2.52111 -1.95753 0 0 0
1338 1 2.18334 1.26055 -1.95753 0 0 0
1339 1 2.18334 3.78166 -1.95753 0 0 0
1340 1 4.36669 2.52111 -3.50139 0 0 0
1341 1 2.91113 2.52111 -1.44291 0 0 0
1342 1 5.09447 1.26055 -1.44291 0 0 0
1343 1 5.09447 3.78166 -1.44291 0 0 0
1344 1 4.36669 2.52111 -1.95753 0 0 0
1345 1 2.88943 2.5467 0.0954152 -5.60706e-05 -0.0101391 0.00423604
1346 1 5.07798 1.29613 0.111037 -0.00433162 -0.00280545 -0.00316703
1347 1 5.12664 3.78327 0.147385 0.00918613 0.00722925 -0.0041761
1348 1 7.27782 2.52111 -1.44291 0 0 0
1349 1 5.81725 2.55409 0.591459 -0.0109865 -0.000160134 0.000707046
1350 1 7.95246 1.30715 0.620186 0.00225025 0.00185237 -0.00766571
1351 1 7.95059 3.801 0.579357 0.0015644 0.0101343 -0.00764051
1352 1 7.26656 2.5375 0.0823235 -0.00823784 -0.00490406 -0.00494295
1353 1 5.84809 2.52192 2.13568 0.00504224 0.00467946 0.000982275
1354 1 7.95654 1.33265 2.16784 -0.00303463 -0.00806772 -9.56305e-05
1355 1 8.00274 3.8358 2.11953 -0.000221922 -0.00166421 -0.00448804
1356 1 10.1738 2.48998 0.632573 0.00231094 -9.66117e-06 0.00647861
1357 1 8.71928 2.59279 2.62987 -9.80159e-05 0.00491551 -0.00657255
1358 1 10.9162 1.23125 2.72153 -0.00291446 -0.00248276 0.00237631
1359 1 10.8582 3.76645 2.6829 0.00926142 0.00416406 -0.0027887
1360 1 10.1991 2.51866 2.18804 0.0111486 -0.00457988 0.00393679
1361 1 8.71434 2.53384 4.21044 -0.00544374 0.0124794 0.00373632
1362 1 10.9044 1.28009 4.27294 -0.00568077 -0.000417246 -0.00822259
1363 1 10.9282 3.78609 4.19919 -0.00265396 0.00361229 0.00194404
1364 1 13.1099 2.47116 2.69968 0.00262602 -0.00465896 -0.000571174
1365 1 11.624 2.53509 4.77006 0.00495244 0.00116649 -0.0027826
1366 1 13.8601 1.2536 4.76438 -0.00207941 -0.0010706 -0.00497897
1367 1 13.8135 3.75209 4.73207 -0.00154907 -0.00610929 -0.00240953
1368 1 13.0867 2.46768 4.25451 -0.000272578 -0.000743982 -0.00548771
1369 1 11.6133 2.50341 6.28855 0.0019699 -0.00384246 0.00983545
1370 1 13.8626 1.27745 6.3094 -0.00631605 0.00487377 0.00110816
1371 1 13.8375 3.79002 6.29171 -0.00139573 0.000491643 -0.00155963
1372 1 16.0435 2.48907 4.70027 0.00473595 -0.00211957 0.0029053
1373 1 14.531 2.52655 6.85473 -0.00544546 -0.00351936 0.00712535
1374 1 16.7226 1.21193 6.78542 0.000110055 0.00696379 -0.000811713
1375 1 16.7467 3.72703 6.78216 -0.00311006 -0.000748721 0.00303127
1376 1 15.9977 2.50794 6.30752 -0.00216976 -0.0104114 -0.00287587
1377 1 14.6011 2.47174 8.32279 0.00327809 0.00884783 0.000713983
1378 1 16.7121 1.19291 8.39515 0.00272669 0.0034842 -7.44933e-05
1379 1 16.7582 3.74994 8.33387 -0.0017903 -0.00566093 -0.00127864
1380 1 18.9424 2.54861 6.81954 -0.00257986 0.00234202 0.00879941
1381 1 17.4236 2.54694 8.86556 -0.000521951 0.000130628 0.0163058
1382 1 19.6254 1.32124 8.89993 0.00114762 -0.00642674 0.00455703
1383 1 19.7013 3.8444 8.84678 0.000348443 0.00050391 0.00326938
1384 1 18.8977 2.59939 8.40067 -0.00811772 0.00193003 0.00159822
1385 1 17.398 2.54677 10.4864 0.00744721 0.00259075 2.01571e-05
1386 1 19.6354 1.33696 10.4351 -0.00193325 0.00199805 0.0086764
1387 1 19.7006 3.8035 10.4132 0.00334991 -0.00283898 -0.00251852
1388 1 2.89906 22.6805 4.8209 -0.000749146 0.00223065 -0.0080498
1389 1 20.3384 2.58787 10.9521 0.000607056 -0.000190922 -0.00668663
1390 1 0.680477 1.32696 6.27726 -0.000803929 0.00148415 -0.000108931
1391 1 20.4202 2.54099 12.5125 0.00564293 0.00524476 0.00458831
1392 1 1.1275e-22 5.04222 -3.50139 0 0 0
1393 1 0.727782 3.78166 -1.44291 0 0 0
1394 1 0.727782 6.30277 -1.44291 0 0 0
1395 1 4.44089e-16 5.04222 -1.95753 0 0 0
1396 1 0.704355 3.78304 0.0445632 -0.00163079 -0.00457292 0.00698083
1397 1 0.76338 6.30115 0.112373 0.00243028 -0.00210009 0.00202232
1398 1 2.91113 5.04222 -1.44291 0 0 0
1399 1 1.50836 5.01058 0.690083 -0.00115926 -0.00298425 -0.00158295
1400 1 3.66066 3.78355 0.597816 0.00370666 0.00159491 -0.00446466
1401 1 3.61948 6.25845 0.617154 -0.00245899 -0.00760279 0.00376687
1402 1 2.93203 5.06296 0.0898771 0.00380137 -0.00935909 0.0101253
1403 1 1.46207 4.9946 2.16692 -0.00881309 0.00397647 -0.00355745
1404 1 3.68029 3.82211 2.15748 0.00238792 0.00884836 0.00488282
1405 1 3.69636 6.31813 2.16949 -0.0033208 -0.00157556 -0.000221198
1406 1 5.8235 5.04957 0.594315 -0.00286627 -0.000827509 -0.00350138
1407 1 4.3807 5.04851 2.65427 -0.0035113 -0.00161811 -0.00364343
1408 1 6.50764 3.82803 2.6751 -0.00578411 -0.00108882 -0.00737765
1409 1 6.59853 6.34054 2.68535 -0.00424295 0.000944652 0.00361415
1410 1 5.81215 5.05789 2.12529 -0.00194701 -0.00651439 -0.00415807
1411 1 4.35157 5.06368 4.21667 0.00878184 -0.00588486 0.000882175
1412 1 6.49899 3.78435 4.22037 -0.00716199 -0.00349745 0.00230126
1413 1 6.54506 6.33613 4.19437 -0.00450496 0.00424509 -0.00509285
1414 1 8.75946 5.10706 2.62445 -0.00597236 -0.00913252 0.00181859
1415 1 7.31959 5.07011 4.72844 -0.000891383 -0.000474976 -0.0073092
1416 1 9.4539 3.76084 4.72712 -0.00790333 -0.00643222 -0.00310221
1417 1 9.45755 6.2832 4.68859 -0.00459161 -0.0049202 -0.0015681
1418 1 8.728 5.08718 4.23489 0.00533401 -0.00425247 0.00444758
1419 1 7.24595 5.07493 6.24473 0.00167789 -0.00715629 0.0074878
1420 1 9.41865 3.76798 6.29329 -0.00286029 0.000493718 0.000987516
1421 1 9.39031 6.25935 6.2465 -0.00437426 0.00056708 -9.26834e-05
1422 1 11.6529 5.09192 4.7386 0.00106338 -0.000490917 0.000869329
1423 1 10.1621 5.04887 6.76589 -0.0076635 -0.000551589 0.00616546
1424 1 12.3806 3.83826 6.79067 0.00169842 -0.00619446 0.00213209
1425 1 12.4091 6.30664 6.81786 -0.000377583 -0.00885108 0.00313847
1426 1 11.6668 5.06556 6.29264 0.00567917 -0.000249773 -0.00966838
1427 1 10.2084 5.06193 8.32131 0.00479797 -0.000617319 -0.000624481
1428 1 12.3792 3.78723 8.42056 -0.00378148 -0.00480722 0.00834506
1429 1 12.3671 6.30214 8.38498 0.00255353 0.00361396 0.00195441
1430 1 14.5603 5.05506 6.81807 0.00300509 0.00831107 0.00408188
1431 1 13.1325 5.01048 8.93017 -0.00655166 0.000332917 0.00572778
1432 1 15.3044 3.76927 8.87624 0.0124619 -0.00167419 -0.0129795
1433 1 15.3085 6.30622 8.88205 -0.00628776 0.00316064 0.00669415
1434 1 14.594 5.02989 8.35062 0.0018839 -0.00413703 -0.00525839
1435 1 13.0981 5.07829 10.4147 0.00137658 -0.000952032 0.00539499
1436 1 15.2584 3.83688 10.4388 0.000650673 -0.00570664 -0.000604381
1437 1 15.2869 6.28271 10.4427 0.00291892 -0.00507669 0.000599561
1438 1 17.4288 5.00842 8.88683 -0.00361193 0.00380114 -0.000284832
1439 1 16.0076 5.03567 10.9715 0.00259654 9.46757e-05 0.003971
1440 1 18.1811 3.75859 10.9293 -0.0028713 -0.00316469 -0.0133539
1441 1 18.1946 6.32191 10.9481 0.00121076 0.00781516 0.00186209
1442 1 17.4724 5.03545 10.435 0.000462949 0.0119821 -0.0118913
1443 1 16.0243 5.03023 12.5144 -0.000101672 -0.00424842 0.00384518
1444 1 18.1947 3.82155 12.4813 0.00214582 0.00478883 -0.00566999
1445 1 18.1552 6.34765 12.4589 0.00718677 -0.0117494 -0.00462801
1446 1 20.3645 5.09087 10.9104 -0.00765436 0.000139115 0.00910764
1447 1 18.9264 5.07849 13.0062 0.00600075 0.000243442 -0.00687296
1448 1 21.1109 3.81192 13.0292 0.00555456 -0.00694174 0.00407544
1449 1 21.077 6.2892 13.0486 -0.0101879 0.00279108 0.0019642
1450 1 20.3666 5.05945 12.5075 -0.000710437 -0.000156186 -0.0101194
1451 1 18.9593 5.05195 14.5161 -0.00507782 -0.00672086 0.00422261
1452 1 21.168 3.77288 14.623 0.000892411 -0.00961135 -0.00352201
1453 1 21.121 6.28885 14.5839 -0.00495093 0.000706196 -0.00150767
1454 1 21.7864 0.0265398 4.25997 -0.00921765 -0.00479241 -0.00163669
1455 1 1.5062 7.57359 0.623053 -0.00962116 0.00241963 0.00342454
1456 1 0.0202937 7.61228 2.65144 -0.00581699 0.00697907 0.00960465
1457 1 2.16919 6.26856 2.63933 -0.00636066 0.00418235 0.000393223
1458 1 2.19243 8.79474 2.65474 -0.00130374 -0.00300988 0.00547822
1459 1 1.43975 7.56926 2.13419 0.00153143 -0.003315 0.0032726
1460 1 0.0119497 7.53684 4.23548 -0.0039748 0.00312366 -0.00595355
1461 1 2.19872 6.32978 4.13314 -0.0062929 -0.00258415 -0.00726012
1462 1 2.17083 8.82991 4.17975 -0.00286208 0.00236222 0.00116221
1463 1 4.37503 7.63601 2.67588 -0.00444156 0.00196997 0.00351322
1464 1 2.94546 7.61627 4.6919 -0.000499094 -0.00191318 -0.00117201
1465 1 5.10434 6.32887 4.69161 0.00158953 0.00061961 -0.000681035
1466 1 5.06489 8.79938 4.7659 0.00289405 0.00327845 -0.00738678
1467 1 4.38171 7.60779 4.24098 -0.00379847 -0.00513202 -0.00243505
1468 1 2.93971 7.53571 6.24357 0.00279971 0.00220561 -0.00595147
1469 1 5.04904 6.3384 6.29905 0.00054896 -0.00726919 0.00677831
1470 1 5.11071 8.82582 6.33938 -0.00344429 -0.00300179 6.017e-05
1471 1 7.26297 7.60941 4.70489 0.00233146 0.00808935 0.00251529
1472 1 5.83832 7.58683 6.80424 0.00109499 -0.0106851 -0.00439312
1473 1 7.98931 6.29292 6.75098 -0.00290232 -0.000980613 -0.00195941
1474 1 8.04967 8.86081 6.75055 0.0054959 0.0113948 0.00237889
1475 1 7.27426 7.57408 6.25729 -0.00185895 -0.00813029 0.00305081
1476 1 5.8195 7.57337 8.36364 -0.00155368 -0.00815324 0.000376802
1477 1 7.9984 6.29018 8.30357 0.00218465 0.00370342 -0.00360669
1478 1 8.03161 8.80761 8.32785 -0.00119903 -0.00358641 0.000870517
1479 1 10.1874 7.56863 6.74099 -0.000743991 0.00496885 -0.000711426
1480 1 8.74838 7.5947 8.77799 -0.00341417 -0.0177007 -0.00271203
1481 1 10.9438 6.30481 8.81802 0.00600218 -0.00620172 0.00564478
1482 1 10.9284 8.84376 8.844 0.00211674 -0.00485868 -0.000183152
1483 1 10.2124 7.60173 8.33004 0.00476371 -0.00328988 0.00274708
1484 1 8.72226 7.526 10.3797 0.00186603 -0.000941423 0.00306865
1485 1 10.961 6.31073 10.4183 -0.00818507 -0.00336771 -0.00188683
1486 1 10.9638 8.81279 10.4098 0.00379803 0.00708994 0.000853747
1487 1 13.1054 7.59357 8.89262 -0.00243746 -0.00422628 0.00143824
1488 1 11.6176 7.56375 10.9423 0.0023298 -0.00136383 -0.0102541
1489 1 13.8273 6.30842 10.9794 0.00516717 0.00281731 0.00387023
1490 1 13.8464 8.81475 10.8919 0.00360409 -0.000470503 -0.00100702
1491 1 13.1031 7.56923 10.4141 0.00497125 -0.00335441 0.00100115
1492 1 11.631 7.55197 12.4647 -0.00280755 -0.00216155 0.00687258
1493 1 13.8267 6.29052 12.4717 0.00399572 -0.00040019 0.00139157
1494 1 13.8127 8.80096 12.4742 0.00941392 0.00354551 0.00452434
1495 1 16.0062 7.5457 10.9174 -0.00924659 0.00176226 -0.00922116
1496 1 14.5633 7.58548 12.9611 -0.00714185 0.00665287 -0.00509628
1497 1 16.736 6.27657 13.0042 -0.0048106 8.39486e-05 -0.002707
1498 1 16.7527 8.82832 12.9336 0.000325904 0.00313871 0.00972879
1499 1 16.0037 7.57106 12.4766 -0.00931723 0.00448077 -0.00064417
1500 1 14.6033 7.58395 14.5698 0.00618967 -0.00458537 -0.00791927
1501 1 16.7466 6.30776 14.5526 0.0044227 -0.00854028 0.0114128
1502 1 16.7478 8.84366 14.5164 0.000963841 0.00292935 -0.00291747
1503 1 18.8896 7.55916 12.9791 0.00392917 -0.00263822 0.00295361
1504 1 17.4864 7.59318 15.0664 0.0020241 0.002105 -0.00683941
1505 1 19.6848 6.29788 15.0423 -0.00546889 -0.00329873 -0.00210062
1506 1 19.6113 8.83999 15.0224 0.00518975 0.00263161 -0.00150415
1507 1 18.9085 7.57218 14.566 -0.00405078 -0.00662982 -0.000191987
1508 1 17.4511 7.60969 16.7427 -0.00490672 0.000737244 0.00495641
1509 1 19.6218 6.31458 16.6591 -0.00118215 0.00231133 0.00721417
1510 1 19.5699 8.8944 16.6584 -1.93379e-05 0.00470353 -0.00422688
1511 1 0.680209 1.26882 4.73018 0.00317653 -0.0103115 0.00594729
1512 1 20.3196 7.63218 17.0788 0.0074837 -0.000797371 0.00328147
1513 1 21.8215 0.00419517 2.67583 0.00253527 -0.00204127 0.00292649
1514 1 0.00608591 10.099 2.7036 0.000482455 0.0105276 0.00341393
1515 1 0.726021 8.81511 4.70431 -0.00100615 0.0047718 -0.00424934
1516 1 0.755248 11.3531 4.77224 -0.000195613 0.00828592 0.00165821
1517 1 21.8135 10.0942 4.23153 0.000357562 0.00521353 -0.00244242
1518 1 0.743242 8.80691 6.2902 0.00275871 -0.000684275 -0.00170805
1519 1 0.689454 11.3536 6.28924 0.00343409 -0.00373175 -0.00323856
1520 1 2.87009 10.0678 4.74216 0.0038526 -0.00213269 -0.00143089
1521 1 1.38047 10.0253 6.79981 -0.00435246 -0.00343112 0.00537787
1522 1 3.59881 8.78933 6.87564 0.000416288 -0.00195756 -0.000999129
1523 1 3.58828 11.3294 6.77528 0.00275485 0.00873509 0.0073511
1524 1 2.9115 10.0599 6.28679 0.000129648 -0.00270393 0.00348366
1525 1 1.42884 10.0649 8.31433 0.00280375 0.00275727 -0.0036809
1526 1 3.61966 8.84577 8.39335 0.00185577 0.000152634 0.0033503
1527 1 3.65435 11.3369 8.33292 0.00213646 0.0014585 -0.00279306
1528 1 5.80063 10.0938 6.80985 0.00042346 0.00115422 -0.00170399
1529 1 4.33099 10.059 8.86834 0.000545191 0.000815975 0.00396233
1530 1 6.59641 8.82575 8.84952 0.00117825 -0.00481199 0.000454493
1531 1 6.57486 11.3086 8.90615 0.00415485 -0.00248811 -0.00152568
1532 1 5.80561 10.1301 8.34163 0.00924035 0.00879895 0.00296215
1533 1 4.33342 10.0412 10.4042 0.0065341 -0.00481453 -0.00653768
1534 1 6.56559 8.82982 10.3367 -0.000983224 -0.00303244 -0.00421928
1535 1 6.58348 11.3684 10.4839 0.00474049 0.00257389 -0.00232551
1536 1 8.74077 10.044 8.79675 -0.00304643 0.00125632 -0.00396274
1537 1 7.32792 10.0549 10.9436 0.00557467 0.000665109 -0.00365956
1538 1 9.46209 8.81103 10.8441 0.00123804 0.000918165 0.00282766
1539 1 9.47388 11.3505 10.9149 0.00575176 -0.00700898 -0.00032875
1540 1 8.76703 10.1206 10.3791 -0.00545222 -0.000333099 -0.00238521
1541 1 7.31555 10.0755 12.448 0.00882791 -0.00749427 0.00681117
1542 1 9.46895 8.87949 12.4265 -7.40767e-05 0.00312211 -0.00660102
1543 1 9.47052 11.3605 12.4072 0.000260721 -0.000231464 0.00633734
1544 1 11.7313 10.0907 10.9036 -0.00428576 0.00262651 0.00393514
1545 1 10.2325 10.1499 12.9917 0.00283598 0.00320785 -0.00385575
1546 1 12.3663 8.83749 12.9685 0.00349846 -0.00510925 0.00490986
1547 1 12.3746 11.3542 12.9257 0.00580529 0.000213643 -0.005522
1548 1 11.6691 10.12 12.4409 -0.0126535 0.00319179 -0.00464941
1549 1 10.1781 10.1432 14.5314 0.000344125 -0.00584257 0.00697559
1550 1 12.3506 8.86134 14.5081 -0.00144731 0.00462648 -0.00734018
1551 1 12.3972 11.3784 14.498 -0.00192491 -0.00154356 0.00288804
1552 1 14.5624 10.0851 12.9638 0.00576259 0.00107132 0.00072843
1553 1 13.126 10.1131 14.989 -0.00821 -0.0029788 0.0135854
1554 1 15.3623 8.85432 15.0225 0.00812052 -0.0107872 1.96804e-05
1555 1 15.2661 11.4014 15.0165 0.00659114 0.00329475 0.000800185
1556 1 14.6285 10.1061 14.5177 0.00617772 0.00520527 -0.00288461
1557 1 13.0651 10.1466 16.6029 0.00907056 0.00387139 -0.00333426
1558 1 15.3057 8.85868 16.7163 0.016196 0.0054304 0.0077897
1559 1 15.3159 11.4016 16.6867 -0.00343312 -0.00195746 -0.0058728
1560 1 17.4598 10.0928 15.0284 -0.000446523 0.00698095 -0.00275762
1561 1 16.0002 10.1326 16.9561 0.00390081 0.00489729 -0.00597052
1562 1 18.1711 8.88595 17.0342 0.00185212 -0.00137389 -0.00481647
1563 1 18.2131 11.3515 17.0243 0.00750776 0.0017182 0.0039569
1564 1 17.4346 10.149 16.6097 -0.00647945 -0.00874658 -0.000823511
1565 1 20.3196 10.093 16.9386 0.000725188 -0.00702564 0.0052559
1566 1 1.44328 12.6325 6.80883 0.00115621 0.00703094 0.00573399
1567 1 21.8184 12.5812 8.87332 0.00141787 -0.00241969 0.00309615
1568 1 2.18172 11.3524 8.90946 -0.00135088 0.00324444 -0.00284861
1569 1 2.20306 13.8562 8.85323 -0.00225125 -0.0038769 -0.00448987
1570 1 1.50333 12.6055 8.3618 -0.0070019 -0.00136807 0.00564762
1571 1 0.0241387 12.6269 10.3632 0.0014762 0.00325701 -0.00607658
1572 1 2.16822 11.3816 10.4953 0.00484022 0.00891751 -0.00280101
1573 1 2.17274 13.8458 10.3933 -0.00139266 -0.00845238 0.00260488
1574 1 4.40272 12.5678 8.82138 0.00502321 0.00238178 -0.00363882
1575 1 2.96759 12.5951 10.8955 0.000962449 0.0128328 -0.00489179
1576 1 5.10844 11.3087 10.951 -0.00219673 0.00962884 0.00099986
1577 1 5.1039 13.862 10.9353 0.000494343 0.00442564 -0.0010767
1578 1 4.43733 12.559 10.3827 -0.00119276 -0.00418089 0.00441402
1579 1 2.91942 12.6141 12.4979 -0.00735323 -0.000666837 0.00106456
1580 1 5.07169 11.376 12.5129 -0.00710605 -0.0087762 0.0028368
1581 1 5.13875 13.8652 12.4991 -0.000260815 -0.00407118 -0.00279812
1582 1 7.29507 12.6329 10.9444 -0.00260891 -0.00264858 -0.00442342
1583 1 5.89205 12.6284 13.0003 0.00102381 0.00782822 0.00520512
1584 1 8.06152 11.3729 12.9608 0.00405631 0.00293618 0.00108036
1585 1 8.0234 13.9068 13.0344 0.000100074 0.00050441 0.010527
1586 1 7.30706 12.6359 12.4845 0.00490734 0.00050889 0.0129097
1587 1 5.83546 12.6195 14.5938 0.00267854 -0.00447386 -9.46645e-05
1588 1 8.01986 11.3222 14.4825 0.00865552 -0.00401619 0.000371346
1589 1 8.11492 13.8564 14.546 -0.00238966 0.00698131 -0.012177
1590 1 10.2113 12.6243 12.9731 0.00168613 0.00512171 0.00112377
1591 1 8.78579 12.5928 15.0212 0.000542721 -0.0036641 0.00206204
1592 1 10.9099 11.3675 15.0401 -0.0047828 -0.00303871 0.00670019
1593 1 10.97 13.8589 15.0241 0.00783066 -0.00620089 -0.00113199
1594 1 10.2193 12.6212 14.5172 -0.0077045 0.00456468 -0.00285584
1595 1 8.78087 12.5921 16.7071 0.00128022 -0.00360436 -0.000252536
1596 1 10.9623 11.3304 16.652 0.00558033 -0.00147612 -0.00149795
1597 1 10.9214 13.8302 16.7476 -0.000630351 0.00187694 -0.00295496
1598 1 13.1465 12.6491 14.8178 0.00378502 -0.000103649 -0.00266187
1599 1 11.7287 12.5995 17.0521 0.00385121 0.00430077 0.00294215
1600 1 13.8264 11.4034 17.0471 -0.00147088 0.00588441 -0.00464877
1601 1 13.821 13.7671 17.0316 0.00227336 -0.00410228 -0.00676994
1602 1 13.1001 12.5799 17.1128 0.00614155 0.000186152 0.000351459
1603 1 16.0944 12.6265 17.0396 0.00884139 -0.00970484 0.00407871
1604 1 21.8053 15.106 8.82929 0.00132881 -0.000386059 0.000929613
1605 1 0.699783 13.8798 10.8502 -0.00264621 -0.000561634 -0.00933587
1606 1 0.754212 16.3676 10.9296 -0.00064073 0.000227109 -0.00553659
1607 1 21.7934 15.0606 10.3604 -0.00176225 0.0127181 0.0052861
1608 1 0.734898 13.8859 12.4726 -0.00412301 0.00556683 -0.00508165
1609 1 0.697029 16.3898 12.4629 -0.00489631 0.00381658 -0.00165723
1610 1 2.94887 15.1472 10.9202 0.00417783 -0.000320803 -0.00619257
1611 1 1.49423 15.1137 12.9577 -0.00835569 0.00342892 0.00484457
1612 1 3.67698 13.8714 13.0092 -0.00422743 -0.000747396 0.00184869
1613 1 3.68023 16.4443 12.9436 -0.000853135 -0.00527741 0.00206502
1614 1 2.9112 15.1415 12.4615 -9.63627e-06 -0.000257438 -0.0113803
1615 1 1.4766 15.1486 14.5383 -0.00224713 0.0121269 0.0123514
1616 1 3.66593 13.9356 14.4984 0.00451244 0.0037553 -0.0011497
1617 1 3.70118 16.4098 14.5776 0.00392424 -0.00376272 0.00886857
1618 1 5.88315 15.1385 13.0639 0.00181342 0.0034509 0.000751706
1619 1 4.45097 15.165 15.0408 0.00189748 0.00660714 -0.00391513
1620 1 6.63097 13.8337 15.0865 -0.00242567 0.00441356 -0.00555244
1621 1 6.62316 16.4135 15.0983 0.00262443 -0.00492719 0.00349304
1622 1 5.94953 15.1233 14.5968 -0.00384514 -0.00318189 -0.00611117
1623 1 4.36673 15.1351 16.7297 0.00114977 -0.00131188 0.00104612
1624 1 6.58605 13.8586 16.7586 0.00238419 -0.00479299 0.00370616
1625 1 6.59676 16.3658 16.7715 0.00149672 -0.00409946 0.00256895
1626 1 8.75481 15.1336 15.0476 3.84457e-05 -0.0051078 -0.0076708
1627 1 7.32623 15.12 17.0798 -0.00242838 0.00466031 0.00170774
1628 1 9.51925 13.8447 16.935 0.00744811 0.00522601 0.00589802
1629 1 9.46109 16.3967 17.0955 0.00150724 -0.00100936 -0.00198284
1630 1 8.74477 15.0904 16.7013 -0.00179559 -0.0014866 0.00815908
1631 1 11.6862 15.0777 17.0318 -0.00924032 -0.000886123 0.00389938
1632 1 1.46856 17.6497 12.9554 0.00154494 -0.00140538 0.00303352
1633 1 0.113988 17.6524 15.0638 0.0046316 0.00123509 -0.00499713
1634 1 2.26644 16.4135 15.0391 -0.00174731 0.00499939 0.00049232
1635 1 2.26043 18.8786 15.0305 -0.00630923 0.00915731 -0.00660729
1636 1 1.4941 17.6528 14.5383 -0.0017352 -0.00338025 -0.00191612
1637 1 0.0317274 17.6733 16.7174 0.0064618 -0.00538883 0.00798161
1638 1 2.17949 16.3799 16.6263 0.00202179 0.00189382 -0.000641581
1639 1 2.22167 18.9389 16.7005 0.00627859 -0.00852014 0.000669114
1640 1 4.44431 17.6687 15.0633 -0.00841035 0.00935441 0.00743391
1641 1 2.90525 17.6311 17.0285 2.9339e-05 0.00984938 0.000364734
1642 1 5.11589 16.4052 17.0505 0.00130345 4.91465e-05 0.0040282
1643 1 5.15079 18.9178 17.0213 -6.46251e-06 -0.00378691 0.00313734
1644 1 4.40969 17.61 16.6041 0.00602052 -0.0042155 0.000738416
1645 1 7.33572 17.6818 16.9804 -0.00295403 0.00951064 0.00178892
1646 1 0.0245892 20.1272 15.061 -0.00221188 0.00301826 0.0114507
1647 1 0.815627 18.9462 17.082 -0.0118557 -0.00686619 1.41886e-05
1648 1 0.736027 21.4557 16.975 0.000448507 0.00186599 0.00399781
1649 1 0.0469315 20.2282 16.6928 0.00881716 0.0116402 0.000811047
1650 1 3.02106 20.1525 17.0761 -0.00382036 -0.00141857 0.000395983
1651 1 0 1.13835e-22 -3.50139 0 0 0
1652 1 0.727782 1.26055 -1.44291 0 0 0
1653 1 2.82596e-24 0 -1.95753 0 0 0
1654 1 0.709605 1.28024 0.124779 0.00130917 -0.00430018 0.00123623
1655 1 2.91113 0 -1.44291 0 0 0
1656 1 1.46821 0.00878687 0.60299 -0.00325534 -0.00713806 0.000682313
1657 1 3.63937 1.27515 0.607142 0.00824613 -0.000264095 -0.0043447
1658 1 2.90186 22.6857 0.130775 -0.00100654 -0.00973673 -0.00356741
1659 1 1.45544 0.0170287 2.20172 0.00260626 0.00170379 -0.00562507
1660 1 3.64888 1.31004 2.15195 0.00419741 -0.00305052 0.00213814
1661 1 5.82526 0.0567018 0.614836 0.00173244 9.46816e-05 -0.00908803
1662 1 4.40386 22.6868 2.71345 -0.00474334 -0.00416661 0.00340204
1663 1 6.55638 1.26278 2.72372 0.00393249 -0.00118247 0.00313369
1664 1 5.78444 0.0145038 2.2121 0.00441853 0.00600374 0.0104571
1665 1 4.36843 22.6413 4.32124 0.000500475 0.0021304 -0.00102158
1666 1 6.51349 1.28367 4.24838 0.00457484 0.00363855 -9.6997e-05
1667 1 8.67883 0.104353 2.61639 -0.00350766 0.00233181 0.00172232
1668 1 7.28555 0.0115376 4.73355 -0.00112295 0.00420379 0.00567341
1669 1 9.41241 1.2522 4.72605 0.00219204 -0.0118371 -0.00252461
1670 1 8.70459 0.0600315 4.19606 -0.00545855 -0.00383727 0.00213129
1671 1 7.27426 22.6471 6.27496 -0.00210749 0.00460154 0.000842247
1672 1 9.3772 1.26218 6.21414 0.00480649 -0.00514466 -0.00299391
1673 1 11.6707 22.6813 4.77282 -0.00540605 -0.00858054 -0.0035345
1674 1 10.1816 22.6738 6.80544 0.00575033 0.00284297 -0.0038012
1675 1 12.3212 1.24035 6.85376 -0.00522176 -0.00974697 -0.00231482
1676 1 11.6286 0.00743613 6.34811 0.0023645 -0.0023614 0.00132824
1677 1 10.195 22.6514 8.34841 0.0052633 -0.0055556 -0.00235795
1678 1 12.3615 1.27602 8.36084 0.00656919 0.00497937 0.00622113
1679 1 14.5777 22.6803 6.81334 0.000553162 0.00481154 0.00659077
1680 1 13.0652 0.0192433 8.85146 0.00120347 0.00733496 0.000112834
1681 1 15.2778 1.24566 8.83285 0.00385602 0.00218988 -0.000305426
1682 1 14.5162 0.00431251 8.33837 0.00963257 0.000404846 0.000332988
1683 1 13.0489 22.6891 10.424 -0.00458001 -0.00436731 -0.000950603
1684 1 15.1958 1.29 10.4189 0.00100492 -0.00173893 -0.00040671
1685 1 17.4356 0.00820193 8.89018 -0.00620596 0.00208289 0.00620818
1686 1 15.9573 0.00958351 10.9396 -0.00595942 0.00715877 0.00249472
1687 1 18.2023 1.2833 10.9678 0.0063695 -0.000381907 -0.00421192
1688 1 17.4695 0.00455609 10.4574 0.00707413 -0.0100548 0.00404061
1689 1 15.9887 22.6796 12.4836 0.00090519 0.00165701 0.00618971
1690 1 18.2088 1.25234 12.5105 0.00323751 0.00265392 -0.007263
1691 1 20.3698 0.0507725 10.9281 -0.00663854 0.00541903 0.017017
1692 1 18.9077 22.6609 12.9828 0.0102823 0.00865964 -0.00220509
1693 1 21.0948 1.27229 13.0475 -0.00313504 0.00511238 -0.00382405
1694 1 20.3489 0.0154422 12.4991 -0.00567888 0.0140841 -0.00294356
1695 1 18.9242 22.6825 14.5236 0.00321217 -0.00750112 0.001701
1696 1 21.157 1.20739 14.5291 -0.000356437 0.00459359 0.00376428
1697 1 2.88493 15.1157 16.9898 0.0022141 0.000114164 -0.000481167
1698 1 0.00108532 15.0947 16.7602 -0.0102018 0.00148935 0.000696692
1699 1 1.40575 2.50621 0.602473 0.00672128 0.00027717 -0.000106198
1700 1 21.8307 2.57782 2.69936 -0.00849904 -0.00610299 0.00815432
1701 1 2.17882 1.27513 2.6336 -0.00217713 0.00733409 0.00389993
1702 1 2.18254 3.77553 2.68102 -0.000640461 -0.00233134 -0.00661853
1703 1 1.44835 2.5291 2.19436 -0.00261185 -0.0015196 -0.00646404
1704 1 21.8189 2.58451 4.25502 -0.00218123 5.95639e-05 0.00765653
1705 1 2.13706 1.24509 4.18933 -0.00638491 -0.00171149 -0.0061103
1706 1 2.19848 3.73698 4.25136 -0.00272788 0.00274916 0.000128803
1707 1 4.37028 2.57002 2.70019 0.00165308 -0.00248301 -0.000266924
1708 1 2.87569 2.49936 4.74391 0.00145292 -0.00400083 -0.000318683
1709 1 5.08347 1.2577 4.73502 -0.00194525 -0.00549069 -0.00253479
1710 1 5.07299 3.8186 4.78555 0.00372816 0.000329657 -0.00189054
1711 1 4.36418 2.51906 4.24423 -0.00134147 -0.00560799 0.003449
1712 1 2.92141 2.56427 6.26955 0.00583118 0.00336696 -0.00187549
1713 1 5.08318 1.26313 6.24836 0.00540261 0.00676015 -0.00454135
1714 1 5.10414 3.83213 6.26983 0.00402852 0.000419808 -0.0056517
1715 1 7.25235 2.52857 4.77754 0.00517681 0.00466438 -0.00698774
1716 1 5.79931 2.57421 6.85687 0.0044642 -0.00633705 0.0116481
1717 1 7.93802 1.24519 6.8089 -0.0100029 -0.00468966 0.0101291
1718 1 7.9998 3.73282 6.81053 0.000298469 -0.00908303 -0.00615016
1719 1 7.2274 2.52354 6.32787 -0.00228151 -0.000762001 0.00495089
1720 1 5.77691 2.56274 8.37006 0.000469959 0.00544593 -0.00268584
1721 1 7.95079 1.2456 8.34044 0.0057583 0.00518495 0.000924619
1722 1 8.05934 3.77138 8.34895 -0.00759161 -0.000967795 -0.00658348
1723 1 10.1878 2.47778 6.84352 0.00133702 -0.00407593 0.00839151
1724 1 8.71983 2.47525 8.84403 0.0060203 -0.00215003 0.00288078
1725 1 10.9397 1.23527 8.8534 0.0042784 0.00418269 -0.00931517
1726 1 10.9019 3.79603 8.85386 0.00249551 -0.00194635 0.000802811
1727 1 10.1549 2.5018 8.32017 0.00546251 -0.00358106 -0.000851411
1728 1 8.70319 2.49015 10.4167 -0.00182034 0.00535877 0.00841824
1729 1 10.9168 1.23044 10.3785 0.00943994 -0.00691783 0.0102884
1730 1 10.9207 3.76997 10.4063 -0.0061201 -0.00760707 0.0022277
1731 1 13.1112 2.46633 8.88292 -0.00358736 0.000964185 -0.00303902
1732 1 11.6384 2.5124 10.9288 -0.0017116 0.00111152 0.00416584
1733 1 13.7653 1.23997 10.9336 0.00420245 -0.00213531 0.00176585
1734 1 13.8232 3.79546 10.99 -0.00086236 0.0053698 -0.00170198
1735 1 13.0805 2.51895 10.3854 -0.0041954 -0.00241505 0.00278662
1736 1 11.7153 2.53727 12.4712 -0.00586394 -0.00356866 0.00457265
1737 1 13.8485 1.24876 12.5109 0.000334992 0.000210379 0.00575831
1738 1 13.8046 3.77161 12.5255 0.00346781 -0.000984085 -0.00817719
1739 1 15.9995 2.54601 10.927 -0.00426777 0.00062747 -0.00379999
1740 1 14.5774 2.5147 13.0906 -0.000387268 0.00327915 0.00560434
1741 1 16.7158 1.23017 13.0177 -0.00453995 -0.00410113 0.00441054
1742 1 16.7394 3.78033 13.086 0.00310068 0.00952076 -0.00542393
1743 1 15.9714 2.5371 12.5243 0.0102452 -0.00491641 -0.0122335
1744 1 14.5121 2.53972 14.6355 -0.0131977 0.000257305 -3.66811e-05
1745 1 16.7436 1.24025 14.5469 -0.00542919 0.000172049 0.00959126
1746 1 16.7461 3.77492 14.5679 0.00794862 -0.00517524 0.00641847
1747 1 18.9465 2.54663 12.9525 0.00365508 0.000431285 0.00771952
1748 1 17.4674 2.51821 15.0453 0.00327817 -0.00810551 -0.00580285
1749 1 19.5874 1.27007 15.056 -0.000203292 0.00358641 -0.00703815
1750 1 19.6537 3.77539 15.0883 -0.00060318 -0.00135501 -0.000369079
1751 1 18.8699 2.55324 14.511 0.00277121 0.000372054 0.0089684
1752 1 17.4586 2.50642 16.6787 7.7398e-05 0.00520261 -0.00333911
1753 1 19.6539 1.23122 16.6493 -0.00102796 -0.000304795 -0.00488439
1754 1 19.6713 3.79209 16.7218 -0.00385454 0.00138328 0.00319114
1755 1 20.3762 2.50732 17.0624 0.00197769 0.00590011 -0.000631243
1756 1 0.762864 16.4028 17.0181 -0.00297299 -0.000708158 0.00212285
1757 1 21.8155 5.05498 2.69403 -0.00748431 0.00642611 -0.00340478
1758 1 0.699655 3.87716 4.73946 -0.00210901 0.00479075 -0.00525104
1759 1 0.683052 6.2956 4.71974 0.00643679 -0.00272886 -0.0108151
1760 1 0.0075707 5.07634 4.24355 0.000613254 -0.00878778 0.00855342
1761 1 0.803638 3.79666 6.34723 0.00257341 -0.00938864 -0.003184
1762 1 0.706272 6.30486 6.29425 -0.000903353 -0.00275662 -0.00259604
1763 1 2.89434 5.09828 4.72916 -0.00373354 -0.00129763 -0.00216656
1764 1 1.48777 5.09791 6.80699 -0.00676001 -0.007032 0.000147131
1765 1 3.63 3.84103 6.80923 0.0012716 -0.00253878 0.0124068
1766 1 3.68204 6.3159 6.77882 -0.00156273 -0.00886154 -0.00895693
1767 1 2.92249 5.08224 6.26777 -0.00697595 -0.000158535 -0.00632095
1768 1 1.50931 5.09364 8.43532 0.00259029 0.000465042 -0.00272718
1769 1 3.61635 3.82842 8.35047 -0.00297435 0.00256879 -0.000929355
1770 1 3.5911 6.31739 8.39018 -0.00116375 0.00826586 -0.0105383
1771 1 5.84087 5.07707 6.7614 -0.00135292 0.00324719 0.00484678
1772 1 4.33765 5.03797 8.84109 -0.00341825 0.00127891 -0.000459878
1773 1 6.52773 3.8088 8.81091 -0.00785811 -0.00448176 0.00286387
1774 1 6.5052 6.31135 8.8357 0.00358022 0.000828733 0.00618441
1775 1 5.81786 5.02058 8.29424 0.00187839 0.00136065 0.005606
1776 1 4.38861 5.0505 10.3935 -0.00242317 0.00430056 0.000523727
1777 1 6.52156 3.78736 10.4168 0.00167095 -0.00223253 -0.00575333
1778 1 6.54079 6.26972 10.4135 -0.00171528 0.00146181 0.00525977
1779 1 8.72574 5.06062 8.86401 -0.00212717 -7.83529e-05 0.00807312
1780 1 7.31434 5.05215 10.9358 0.000772392 0.00601673 -0.0148482
1781 1 9.49944 3.77288 10.91 0.000388744 0.000979224 -0.00616737
1782 1 9.50741 6.28633 10.8932 -0.00155644 -0.00380783 0.00145099
1783 1 8.75681 5.01948 10.3931 -0.000958901 -0.00828238 -0.00223707
1784 1 7.22976 5.06896 12.4705 0.00206243 -0.00331945 0.0123232
1785 1 9.48757 3.80503 12.4391 0.000183489 -0.00098592 -0.00194987
1786 1 9.45353 6.32457 12.4377 -0.00309973 -0.00738779 0.00290202
1787 1 11.6632 5.08621 10.9544 -0.00733665 0.000298319 0.00986943
1788 1 10.1978 5.02862 12.9238 -0.00269462 0.00678351 0.00612623
1789 1 12.4027 3.78854 12.9935 -0.000881819 0.00772091 0.00385683
1790 1 12.3218 6.28181 12.9918 -0.0097033 0.000879956 0.00209508
1791 1 11.6454 5.02273 12.4628 -0.00748411 -0.0028389 0.000985167
1792 1 10.1976 5.06136 14.5231 0.0051549 0.00507349 -0.00356395
1793 1 12.3464 3.82581 14.5456 -0.00469746 0.00148306 -0.00715774
1794 1 12.3758 6.38658 14.5513 -0.00100837 -0.00285563 0.014625
1795 1 14.5265 5.05055 13.0397 0.00388875 0.0051055 0.0108478
1796 1 13.052 5.09523 15.1044 -0.00120657 0.00115749 -0.00559584
1797 1 15.2723 3.86676 15.0763 -0.00333449 -0.00237222 -0.00174654
1798 1 15.2839 6.3559 15.082 -0.000201962 0.00563036 -0.00345086
1799 1 14.5493 5.08591 14.588 0.000228956 -0.000406712 -0.00195817
1800 1 13.0708 5.10848 16.6912 -0.0104549 -0.0049631 -0.000169337
1801 1 15.3548 3.7826 16.7298 -0.00583924 -0.00122354 0.00734049
1802 1 15.3119 6.29614 16.6899 -0.00597133 -9.98239e-05 0.00440544
1803 1 17.4808 5.06568 14.9614 -0.00230495 -0.00483871 -0.00434411
1804 1 16.0411 5.01889 16.9805 -0.00298048 0.00622474 0.00490565
1805 1 18.1793 3.80263 16.9986 -0.00650226 -0.00993184 -0.00158972
1806 1 18.1645 6.32398 17.0103 -0.00100636 0.000351651 0.00366558
1807 1 17.4537 5.00419 16.6339 -0.00240921 -0.000559982 -0.00431602
1808 1 20.3848 5.11469 17.0662 0.0111511 0.00655794 -0.00479121
1809 1 1.4219 7.61371 6.79998 -0.00476678 0.0133905 -0.00515099
1810 1 21.8187 7.57061 8.92614 0.00422154 0.00203657 0.00231015
1811 1 2.13468 6.30284 8.89403 -0.00753222 0.0105204 -0.00171784
1812 1 2.19391 8.84884 8.91332 -0.00705149 -0.00355794 -0.00595069
1813 1 1.47345 7.57585 8.3657 0.00189733 -0.000871841 0.00345992
1814 1 0.0446524 7.59893 10.463 0.0015091 -0.00541071 -0.00441498
1815 1 2.15706 6.31045 10.3693 -0.000813971 0.0062245 0.00364092
1816 1 2.21247 8.85183 10.4421 0.0114215 -0.00182459 -0.00363527
1817 1 4.29569 7.60622 8.82938 -0.000107495 -0.000405366 0.00493964
1818 1 2.9706 7.5266 10.954 0.00521171 0.00273994 4.75919e-05
1819 1 5.08254 6.26518 10.9642 0.0010399 0.0034803 -0.00750402
1820 1 5.10573 8.80635 10.9047 -0.0068413 -0.000791213 0.00344167
1821 1 4.39159 7.53424 10.4046 -0.00435913 0.0114443 -0.00857838
1822 1 2.91409 7.5618 12.4653 0.00954677 0.00613788 -0.00133665
1823 1 5.14816 6.33475 12.5557 0.00157131 0.00190383 -0.0022309
1824 1 5.09851 8.81908 12.5027 0.00346242 -0.00224679 -0.00252697
1825 1 7.27239 7.57487 10.8397 0.00559833 0.00035408 -0.00317376
1826 1 5.86206 7.57585 13.0293 -0.000348061 -0.00393952 -0.0034233
1827 1 7.97638 6.35145 12.9779 0.0019601 -0.00352946 0.000827161
1828 1 8.01732 8.86317 12.9571 -0.000497545 0.00387625 0.00354789
1829 1 7.27219 7.64195 12.4083 0.00628832 0.000434182 -0.00738569
1830 1 5.80365 7.50693 14.6175 -0.00436505 -0.000419496 0.00290575
1831 1 7.92854 6.2955 14.5184 0.00426183 0.00319036 0.000141819
1832 1 7.97621 8.8407 14.5419 0.0102338 -0.00118192 -0.00137377
1833 1 10.1521 7.60422 12.966 0.00458131 0.00562976 -0.000544431
1834 1 8.69586 7.57075 15.0372 0.00336106 -0.00372837 0.00279949
1835 1 10.8506 6.30857 15.0098 0.00970246 -0.00347306 -0.00140285
1836 1 10.862 8.80758 14.9744 0.000966043 0.00312002 -0.00619264
1837 1 10.1107 7.54734 14.4809 -0.00804092 0.00285981 0.00320057
1838 1 8.73412 7.56113 16.6521 -0.00614508 0.00939852 0.00345221
1839 1 10.8407 6.2583 16.6133 -0.00199264 0.00300179 0.00305157
1840 1 10.9299 8.86351 16.5947 0.00232219 -0.00271285 0.00641349
1841 1 13.119 7.60424 14.9805 0.00277291 0.000204218 0.000147668
1842 1 11.597 7.57952 16.8796 -0.00430596 0.00286391 -0.00977204
1843 1 13.8018 6.36139 16.9759 -0.00322435 0.00218345 0.00138783
1844 1 13.8056 8.85516 16.9625 0.00436982 -0.00244357 0.00298696
1845 1 13.0967 7.57047 16.5475 0.00014003 -0.00427441 0.00692754
1846 1 16.0651 7.54833 16.9561 -0.00603686 -0.00385883 0.00103509
1847 1 21.8322 10.0867 8.79621 -4.94524e-05 -0.00754936 -0.000206734
1848 1 0.7474 8.84028 10.9851 0.00606876 -0.00253487 0.00344726
1849 1 0.6971 11.3651 10.9239 -0.00325743 -0.0051477 0.00781388
1850 1 0.00602448 10.0891 10.3841 0.00369526 0.000703703 0.001444
1851 1 0.758811 8.83677 12.5322 -0.00187171 -0.00553626 0.00405364
1852 1 0.678841 11.3852 12.4767 0.0085011 -0.00603939 0.000232699
1853 1 2.9674 10.1344 10.9506 -0.00105452 0.00225131 -0.00369421
1854 1 1.47878 10.1034 12.963 0.000128416 -0.00674938 0.000219862
1855 1 3.63314 8.82505 12.9749 0.00131757 -0.00891637 0.00670828
1856 1 3.66769 11.3581 13.0912 0.000296001 -0.00201928 0.00729029
1857 1 2.97444 10.0899 12.5062 8.78833e-05 0.0031237 0.00671302
1858 1 1.47713 10.1189 14.5146 -0.000225325 0.00604881 -0.00729493
1859 1 3.61377 8.8592 14.569 0.00457798 -0.00147279 0.000947605
1860 1 3.66511 11.4081 14.6304 -0.00101225 0.00357881 -0.00424605
1861 1 5.84252 10.1013 12.9971 -0.000702851 6.7979e-05 0.00748077
1862 1 4.39152 10.1216 15.0796 -0.0124114 0.000172031 0.00502267
1863 1 6.51678 8.83337 15.1113 0.00848442 0.00206937 0.00526518
1864 1 6.56219 11.3593 15.0793 0.00515078 -0.00184427 -0.00489291
1865 1 5.83883 10.0873 14.6424 0.00411625 0.00147132 -0.0031841
1866 1 4.33215 10.0501 16.692 0.00641077 -0.00717149 0.00628767
1867 1 6.5495 8.75583 16.7047 0.00219822 0.00426302 -0.00763665
1868 1 6.59053 11.3397 16.7352 -0.00568534 0.00267779 -0.0011284
1869 1 8.67741 10.0778 15.0272 -0.00235437 -0.000732456 -0.00189561
1870 1 7.30517 10.0465 16.9954 0.00135472 -0.00485788 0.00586202
1871 1 9.47921 8.84329 17.0086 -0.00208256 0.00155752 -0.0020211
1872 1 9.52798 11.3752 17.0252 -0.00359639 0.00550815 -0.000228412
1873 1 8.77268 10.0537 16.7063 -0.000696072 0.0035971 -0.000821727
1874 1 11.6637 10.083 16.9154 0.00147416 -1.87289e-05 0.0019112
1875 1 1.49038 12.6086 13.0236 -0.00422816 -0.00407235 0.00187798
1876 1 0.0386134 12.6441 15.0424 -0.000686658 0.00279156 -0.00638567
1877 1 2.16169 11.3952 15.1153 -0.00514332 -0.000227734 -0.00769334
1878 1 2.21378 13.9267 15.0121 0.00644718 -0.0028976 -0.00169684
1879 1 1.45621 12.6682 14.5384 -0.00212866 0.00306858 0.00453696
1880 1 0.0134373 12.6263 16.6956 -0.00538619 -0.0030302 -0.000899431
1881 1 2.15573 11.3426 16.7006 0.00677269 0.0096358 0.00219137
1882 1 2.15053 13.8811 16.6477 -0.005759 -0.000494852 0.00199733
1883 1 4.33485 12.6361 15.0344 0.000847217 -0.00271468 -0.00114226
1884 1 2.84653 12.6421 16.9933 -0.00205175 -0.00409511 -7.48313e-07
1885 1 5.03242 11.3394 17.1413 0.000304914 0.0088682 0.000754748
1886 1 5.07639 13.8696 17.0584 0.00483485 -0.0117318 -0.00408966
1887 1 4.29866 12.6071 16.7376 0.00425409 -0.00179543 -0.00392231
1888 1 7.31383 12.5936 16.9936 -0.000682971 0.000383499 -0.00372871
1889 1 0.0430833 15.1239 15.0485 0.000566941 -0.00354531 0.00649332
1890 1 0.754201 13.8664 16.9877 -0.0094728 0.0123856 -0.00495259
