ITEM: TIMESTEP
0
ITEM: NUMBER OF ATOMS
1296
ITEM: BOX BOUNDS pp pp mm
0.0000000000000000e+00 2.2689985001334318e+01
0.0000000000000000e+00 2.2689985001334318e+01
-2.2283669804811876e+00 2.8523097350159201e+01
ITEM: ATOMS id type x y z vx vy vz
1 1 1.17943e-10 3.78166 -0.992107 0 0 0
2 1 2.64571e-11 1.26055 -0.992107 0 0 0
3 1 1.26055 1.26055 -1.67371 0 0 0
4 1 2.52111 1.26055 -0.992107 0 0 0
5 1 22.69 8.82388 -0.992107 0 0 0
6 1 22.69 6.30277 -0.992107 0 0 0
7 1 1.26055 6.30277 -1.67371 0 0 0
8 1 1.26055 3.78166 -1.67371 0 0 0
9 1 2.52111 6.30277 -0.992107 0 0 0
10 1 2.52111 3.78166 -0.992107 0 0 0
11 1 3.78166 3.78166 -1.67371 0 0 0
12 1 3.78166 1.26055 -1.67371 0 0 0
13 1 5.04222 3.78166 -0.992107 0 0 0
14 1 5.04222 1.26055 -0.992107 0 0 0
15 1 6.30277 1.26055 -1.67371 0 0 0
16 1 7.56333 1.26055 -0.992107 0 0 0
17 1 7.82379e-11 13.8661 -0.992107 0 0 0
18 1 2.12786e-10 11.345 -0.992107 0 0 0
19 1 1.26055 11.345 -1.67371 0 0 0
20 1 1.26055 8.82388 -1.67371 0 0 0
21 1 2.52111 11.345 -0.992107 0 0 0
22 1 2.52111 8.82388 -0.992107 0 0 0
23 1 3.78166 8.82388 -1.67371 0 0 0
24 1 3.78166 6.30277 -1.67371 0 0 0
25 1 5.04222 8.82388 -0.992107 0 0 0
26 1 5.04222 6.30277 -0.992107 0 0 0
27 1 6.30277 6.30277 -1.67371 0 0 0
28 1 6.30277 3.78166 -1.67371 0 0 0
29 1 7.56333 6.30277 -0.992107 0 0 0
30 1 7.56333 3.78166 -0.992107 0 0 0
31 1 8.82388 3.78166 -1.67371 0 0 0
32 1 8.82388 1.26055 -1.67371 0 0 0
33 1 10.0844 3.78166 -0.992107 0 0 0
34 1 10.0844 1.26055 -0.992107 0 0 0
35 1 11.345 1.26055 -1.67371 0 0 0
36 1 12.6055 1.26055 -0.992107 0 0 0
37 1 22.69 18.9083 -0.992107 0 0 0
38 1 22.69 16.3872 -0.992107 0 0 0
39 1 1.26055 16.3872 -1.67371 0 0 0
40 1 1.26055 13.8661 -1.67371 0 0 0
41 1 2.52111 16.3872 -0.992107 0 0 0
42 1 2.52111 13.8661 -0.992107 0 0 0
43 1 3.78166 13.8661 -1.67371 0 0 0
44 1 3.78166 11.345 -1.67371 0 0 0
45 1 5.04222 13.8661 -0.992107 0 0 0
46 1 5.04222 11.345 -0.992107 0 0 0
47 1 6.30277 11.345 -1.67371 0 0 0
48 1 6.30277 8.82388 -1.67371 0 0 0
49 1 7.56333 11.345 -0.992107 0 0 0
50 1 7.56333 8.82388 -0.992107 0 0 0
51 1 8.82388 8.82388 -1.67371 0 0 0
52 1 8.82388 6.30277 -1.67371 0 0 0
53 1 10.0844 8.82388 -0.992107 0 0 0
54 1 10.0844 6.30277 -0.992107 0 0 0
55 1 11.345 6.30277 -1.67371 0 0 0
56 1 11.345 3.78166 -1.67371 0 0 0
57 1 12.6055 6.30277 -0.992107 0 0 0
58 1 12.6055 3.78166 -0.992107 0 0 0
59 1 13.8661 3.78166 -1.67371 0 0 0
60 1 13.8661 1.26055 -1.67371 0 0 0
61 1 15.1267 3.78166 -0.992107 0 0 0
62 1 15.1267 1.26055 -0.992107 0 0 0
63 1 16.3872 1.26055 -1.67371 0 0 0
64 1 17.6478 1.26055 -0.992107 0 0 0
65 1 22.69 21.4294 -0.992107 0 0 0
66 1 1.26055 21.4294 -1.67371 0 0 0
67 1 1.26055 18.9083 -1.67371 0 0 0
68 1 2.52111 21.4294 -0.992107 0 0 0
69 1 2.52111 18.9083 -0.992107 0 0 0
70 1 3.78166 18.9083 -1.67371 0 0 0
71 1 3.78166 16.3872 -1.67371 0 0 0
72 1 5.04222 18.9083 -0.992107 0 0 0
73 1 5.04222 16.3872 -0.992107 0 0 0
74 1 6.30277 16.3872 -1.67371 0 0 0
75 1 6.30277 13.8661 -1.67371 0 0 0
76 1 7.56333 16.3872 -0.992107 0 0 0
77 1 7.56333 13.8661 -0.992107 0 0 0
78 1 8.82388 13.8661 -1.67371 0 0 0
79 1 8.82388 11.345 -1.67371 0 0 0
80 1 10.0844 13.8661 -0.992107 0 0 0
81 1 10.0844 11.345 -0.992107 0 0 0
82 1 11.345 11.345 -1.67371 0 0 0
83 1 11.345 8.82388 -1.67371 0 0 0
84 1 12.6055 11.345 -0.992107 0 0 0
85 1 12.6055 8.82388 -0.992107 0 0 0
86 1 13.8661 8.82388 -1.67371 0 0 0
87 1 13.8661 6.30277 -1.67371 0 0 0
88 1 15.1267 8.82388 -0.992107 0 0 0
89 1 15.1267 6.30277 -0.992107 0 0 0
90 1 16.3872 6.30277 -1.67371 0 0 0
91 1 16.3872 3.78166 -1.67371 0 0 0
92 1 17.6478 6.30277 -0.992107 0 0 0
93 1 17.6478 3.78166 -0.992107 0 0 0
94 1 18.9083 3.78166 -1.67371 0 0 0
95 1 18.9083 1.26055 -1.67371 0 0 0
96 1 20.1689 3.78166 -0.992107 0 0 0
97 1 20.1689 1.26055 -0.992107 0 0 0
98 1 21.4294 1.26055 -1.67371 0 0 0
99 1 3.78166 21.4294 -1.67371 0 0 0
100 1 5.04222 21.4294 -0.992107 0 0 0
101 1 6.30277 21.4294 -1.67371 0 0 0
102 1 6.30277 18.9083 -1.67371 0 0 0
103 1 7.56333 21.4294 -0.992107 0 0 0
104 1 7.56333 18.9083 -0.992107 0 0 0
105 1 8.82388 18.9083 -1.67371 0 0 0
106 1 8.82388 16.3872 -1.67371 0 0 0
107 1 10.0844 18.9083 -0.992107 0 0 0
108 1 10.0844 16.3872 -0.992107 0 0 0
109 1 11.345 16.3872 -1.67371 0 0 0
110 1 11.345 13.8661 -1.67371 0 0 0
111 1 12.6055 16.3872 -0.992107 0 0 0
112 1 12.6055 13.8661 -0.992107 0 0 0
113 1 13.8661 13.8661 -1.67371 0 0 0
114 1 13.8661 11.345 -1.67371 0 0 0
115 1 15.1267 13.8661 -0.992107 0 0 0
116 1 15.1267 11.345 -0.992107 0 0 0
117 1 16.3872 11.345 -1.67371 0 0 0
118 1 16.3872 8.82388 -1.67371 0 0 0
119 1 17.6478 11.345 -0.992107 0 0 0
120 1 17.6478 8.82388 -0.992107 0 0 0
121 1 18.9083 8.82388 -1.67371 0 0 0
122 1 18.9083 6.30277 -1.67371 0 0 0
123 1 20.1689 8.82388 -0.992107 0 0 0
124 1 20.1689 6.30277 -0.992107 0 0 0
125 1 21.4294 6.30277 -1.67371 0 0 0
126 1 21.4294 3.78166 -1.67371 0 0 0
127 1 8.82388 21.4294 -1.67371 0 0 0
128 1 10.0844 21.4294 -0.992107 0 0 0
129 1 11.345 21.4294 -1.67371 0 0 0
130 1 11.345 18.9083 -1.67371 0 0 0
131 1 12.6055 21.4294 -0.992107 0 0 0
132 1 12.6055 18.9083 -0.992107 0 0 0
133 1 13.8661 18.9083 -1.67371 0 0 0
134 1 13.8661 16.3872 -1.67371 0 0 0
135 1 15.1267 18.9083 -0.992107 0 0 0
136 1 15.1267 16.3872 -0.992107 0 0 0
137 1 16.3872 16.3872 -1.67371 0 0 0
138 1 16.3872 13.8661 -1.67371 0 0 0
139 1 17.6478 16.3872 -0.992107 0 0 0
140 1 17.6478 13.8661 -0.992107 0 0 0
141 1 18.9083 13.8661 -1.67371 0 0 0
142 1 18.9083 11.345 -1.67371 0 0 0
143 1 20.1689 13.8661 -0.992107 0 0 0
144 1 20.1689 11.345 -0.992107 0 0 0
145 1 21.4294 11.345 -1.67371 0 0 0
146 1 21.4294 8.82388 -1.67371 0 0 0
147 1 13.8661 21.4294 -1.67371 0 0 0
148 1 15.1267 21.4294 -0.992107 0 0 0
149 1 16.3872 21.4294 -1.67371 0 0 0
150 1 16.3872 18.9083 -1.67371 0 0 0
151 1 17.6478 21.4294 -0.992107 0 0 0
152 1 17.6478 18.9083 -0.992107 0 0 0
153 1 18.9083 18.9083 -1.67371 0 0 0
154 1 18.9083 16.3872 -1.67371 0 0 0
155 1 20.1689 18.9083 -0.992107 0 0 0
156 1 20.1689 16.3872 -0.992107 0 0 0
157 1 21.4294 16.3872 -1.67371 0 0 0
158 1 21.4294 13.8661 -1.67371 0 0 0
159 1 18.9083 21.4294 -1.67371 0 0 0
160 1 20.1689 21.4294 -0.992107 0 0 0
161 1 21.4294 21.4294 -1.67371 0 0 0
162 1 21.4294 18.9083 -1.67371 0 0 0
163 1 0.035981 2.55603 0.0299079 2.52195e-05 0.00293002 -0.00221815
164 1 22.6795 3.78879 2.68194 -0.00466888 -0.00673589 -0.0115703
165 1 22.6718 1.27803 2.62468 -0.000268147 -0.00226498 -0.00281498
166 1 1.31292 2.50363 0.850485 -0.00464949 0.00101995 -0.00273267
167 1 22.665 22.6743 -0.0926266 0.00559113 0.00494022 -0.0006763
168 1 1.2783 1.23022 1.75779 -0.00414895 0.00404045 0.00132089
169 1 2.51971 22.6562 -0.00878147 0.00262349 -0.00457131 -0.00210951
170 1 1.23552 22.64 0.900831 0.00401076 -0.00794011 0.000424835
171 1 2.51187 1.25767 2.6814 0.00248008 0.00578913 0.00406248
172 1 3.80625 0.00281826 0.886507 0.00516686 0.00383558 -0.00130438
173 1 22.6546 7.60149 -0.0200431 -0.000701162 0.00367031 -0.00205132
174 1 0.0426029 8.82179 2.65053 -0.00230617 0.00885998 -0.00337463
175 1 0.0454275 6.30576 2.64686 -0.00289659 0.0027076 -0.00733176
176 1 1.25043 7.53808 0.817811 0.00162814 0.00338733 0.000949873
177 1 22.6709 5.07139 0.0265316 0.0100027 -0.00389909 9.52289e-05
178 1 1.27966 6.30021 1.72707 0.00822185 0.00265852 -0.00275966
179 1 1.27315 3.77874 1.75131 0.0027971 -0.00316718 -0.00357172
180 1 2.53899 5.04694 -0.0940692 0.0122837 -0.00333332 -0.00068361
181 1 1.26866 5.03621 0.791585 -0.00417158 -0.00742329 0.00843902
182 1 2.53873 6.29382 2.65439 -0.00125744 0.00957376 0.00220373
183 1 2.44403 3.7903 2.65292 -0.00418824 -0.004439 -0.00113019
184 1 3.72546 5.06266 0.837312 0.00276909 -0.00140303 0.00309173
185 1 2.50586 2.56347 -0.0281073 -0.000983666 -0.000450463 -0.000132756
186 1 3.74046 3.83569 1.79941 0.00428595 0.00489734 -0.00107585
187 1 3.79728 1.28579 1.7323 0.0032801 0.00341382 0.0054812
188 1 5.0022 2.5282 -0.000476908 0.00461228 -0.0142693 0.00291108
189 1 3.81001 2.59934 0.859022 0.00360827 -0.00424496 -0.0112233
190 1 5.0415 3.77835 2.64989 9.59986e-06 0.00287698 -0.00266372
191 1 5.05938 1.28192 2.63641 0.0129879 0.00656412 -0.00299436
192 1 6.30723 2.54801 0.841528 -0.000638669 -0.00259331 -0.0052373
193 1 5.02283 22.6741 0.00617058 0.00744683 0.00809389 -0.00420327
194 1 6.28771 1.34971 1.70729 0.00617706 -0.00992027 -0.00195185
195 1 7.58487 22.6463 -0.0334437 0.00181049 0.0078478 0.00450459
196 1 6.31978 0.00719792 0.794117 -0.00362928 -0.00864836 -0.00309961
197 1 7.58073 1.26691 2.64968 0.00100396 0.00356267 -0.00420746
198 1 8.88922 22.6036 0.840401 -0.00171859 -0.00542846 0.00232561
199 1 0.0307745 12.5769 -0.0429572 0.00983782 0.00430166 0.00450945
200 1 22.6862 13.8908 2.72368 -0.00507643 -0.00283794 -0.00157639
201 1 0.00882243 11.3574 2.64034 0.00555914 0.00598385 -0.00291859
202 1 1.21701 12.615 0.880035 0.00142126 -0.00431402 -0.00689218
203 1 22.6895 10.0728 0.00973796 0.00521952 0.00595319 0.00327879
204 1 1.25245 11.351 1.75739 -0.000198037 -0.00111854 0.00138966
205 1 1.22706 8.82832 1.73752 0.00345491 -0.00103899 -0.00245744
206 1 2.54657 10.0908 0.00110059 0.00770269 -0.000169279 0.00456344
207 1 1.25701 10.1045 0.843819 -0.00024844 0.00212179 0.00465429
208 1 2.51231 11.3421 2.59182 0.00127466 -0.00924681 0.00231395
209 1 2.51646 8.81488 2.63346 0.0038459 0.00785696 -0.00119914
210 1 3.79812 10.1073 0.842971 0.00478503 -0.0091308 -0.00283608
211 1 2.52692 7.6214 -0.0295528 0.00083366 -0.00789671 -0.000471349
212 1 3.76664 8.80483 1.74437 -0.00598432 0.00372639 -0.00103012
213 1 3.7466 6.33073 1.7593 -0.00226407 -0.00244311 0.00345672
214 1 4.99552 7.52944 -0.0173844 0.00527313 0.00359726 -0.00855578
215 1 3.76523 7.54277 0.896781 -0.0094983 0.00332988 0.00135444
216 1 5.07224 8.78977 2.65004 0.00511859 0.00376406 -0.000897003
217 1 5.0384 6.302 2.67767 -0.00633867 0.00337358 -0.000403648
218 1 6.28346 7.55744 0.904055 -9.6333e-05 7.8814e-05 -0.00332555
219 1 5.02364 5.03783 0.0386434 -0.00357023 -0.00231486 -0.000642522
220 1 6.26263 6.2499 1.76321 0.000695074 -0.00630567 -0.00172314
221 1 6.29481 3.77269 1.75929 0.00493802 -0.00705406 -0.00118713
222 1 7.57551 5.05007 -0.00117135 6.83371e-05 0.00454264 -0.00211479
223 1 6.27825 4.98049 0.884855 -0.00628761 3.33136e-05 -0.00147222
224 1 7.50291 6.24522 2.73489 -0.00294989 0.00297801 0.00559125
225 1 7.48912 3.74762 2.63208 -0.00927034 -0.00397963 -0.00133276
226 1 8.81516 5.04473 0.884415 0.000618841 -0.00374393 -0.000295494
227 1 7.60162 2.54023 -0.0292909 0.00114011 -0.00529575 -0.00211014
228 1 8.8421 3.78361 1.77733 0.00179894 -0.00504894 -0.00830256
229 1 8.8494 1.23489 1.7464 -0.00756318 -0.00466254 -0.00138761
230 1 10.1317 2.53459 0.0434833 -0.000881979 0.00311318 -0.00786839
231 1 8.85744 2.46695 0.916032 0.00193832 0.0114807 -0.00424189
232 1 10.0887 3.82794 2.63026 0.00177383 0.000976386 -0.000264576
233 1 10.0975 1.2826 2.67128 0.00363615 -0.0070907 0.00752429
234 1 11.4264 2.51801 0.850764 0.00357336 0.00211847 -0.00147978
235 1 10.1353 22.6602 -0.063041 -0.00502401 -0.00066121 0.00382096
236 1 11.332 1.25022 1.71777 -0.00132584 0.000388997 -0.00263684
237 1 12.6132 0.000456304 0.0622393 0.0031805 -0.00492763 0.00366603
238 1 11.3879 22.6765 0.825796 -0.00103718 0.00302375 0.00516177
239 1 12.6578 1.24326 2.62079 0.00731866 -0.00428645 0.00181882
240 1 13.8801 0.0679415 0.857929 -0.000766649 -0.0065862 -0.00182196
241 1 22.6748 17.6216 -0.057133 0.000737916 0.00100119 0.000466619
242 1 22.653 18.9442 2.67351 -0.00524919 -0.00524939 -0.00596551
243 1 22.6342 16.4081 2.72151 0.00399703 0.00924286 0.00466186
244 1 1.28206 17.6876 0.844694 0.00535088 -0.00547318 -0.00116719
245 1 22.6799 15.0915 -0.00121102 -0.000235063 -0.00364472 0.00135165
246 1 1.2964 16.4205 1.75335 0.00257066 0.0025096 0.000396237
247 1 1.24956 13.9175 1.79487 0.00821403 0.00113348 -0.00544057
248 1 2.50465 15.1576 -0.0171786 0.00917998 0.00146705 -0.00339045
249 1 1.24509 15.1785 0.928941 -0.000122951 -0.00420634 -0.00607981
250 1 2.46719 16.4423 2.62739 -0.00194953 0.0052902 -0.000684292
251 1 2.51373 13.8958 2.6156 0.00680217 0.000476398 0.00181281
252 1 3.78175 15.2066 0.855147 -0.00032323 0.00557635 -0.00486044
253 1 2.49088 12.6127 -0.0127362 0.00846086 0.00415669 0.00225306
254 1 3.79158 13.9236 1.73655 0.00745129 -0.00586958 0.00656289
255 1 3.81444 11.326 1.77126 -0.000776045 -0.0079118 -0.00245466
256 1 5.01379 12.6122 0.010402 0.00877644 -0.0001399 0.00219012
257 1 3.75654 12.5797 0.852289 0.000734957 0.0173022 0.00274487
258 1 5.03682 13.8589 2.6172 0.00127035 0.000741037 0.00594667
259 1 5.04536 11.3464 2.62006 -0.00214383 -0.00372843 0.00692079
260 1 6.28205 12.58 0.860902 0.000387692 -0.00110465 0.00337131
261 1 5.08885 10.1073 -0.0401859 0.00357046 0.000999235 -0.00778505
262 1 6.31446 11.3264 1.75817 -0.00257249 0.00174969 0.00141446
263 1 6.3178 8.82851 1.76504 -0.00231653 -0.00426421 0.00388404
264 1 7.59227 10.0422 0.0175845 0.00369727 0.00274972 -0.000642776
265 1 6.31017 10.1146 0.825505 0.00495308 -0.000680645 -0.00145692
266 1 7.55922 11.3334 2.63248 0.00241937 0.00677366 0.00984497
267 1 7.57264 8.82204 2.66009 0.00148912 0.00352894 -0.00180732
268 1 8.81979 10.0837 0.896929 0.00490849 0.0112568 0.00117269
269 1 7.48017 7.56459 0.0527785 0.00468503 -0.00419422 -0.00395938
270 1 8.80627 8.77475 1.74214 -0.00308461 -0.000699955 0.00120269
271 1 8.76099 6.31953 1.84723 -0.00639668 -0.000775162 0.00334703
272 1 10.0915 7.52815 -0.00150275 0.000718156 -0.00469563 0.00378038
273 1 8.72327 7.55283 0.912135 0.0037761 0.00240923 0.00624166
274 1 10.0932 8.7916 2.63253 0.00232738 0.00473231 0.00154623
275 1 10.1033 6.28635 2.68681 -0.00246346 0.00478069 0.00755333
276 1 11.3483 7.51294 0.83749 -0.00439091 0.00382285 0.00142452
277 1 10.0848 5.08687 -0.0113844 -0.000368631 -0.00501265 0.0054837
278 1 11.357 6.26614 1.77478 0.0044252 -0.00342366 0.00268566
279 1 11.3558 3.77792 1.76803 -0.000526688 -0.00307394 0.00664425
280 1 12.5957 5.06693 -0.013802 0.000528122 -0.00210427 -0.00320492
281 1 11.3233 5.01808 0.873335 -0.0095335 -2.01377e-05 0.00345586
282 1 12.6127 6.25658 2.68466 -0.00252309 0.00113191 -0.0043152
283 1 12.6037 3.7596 2.74052 -0.00103993 0.00650807 -0.00696719
284 1 13.8797 5.00791 0.840284 -0.00662488 -0.000293437 -0.00224631
285 1 12.6146 2.56545 -0.0132027 -0.00377489 0.00603176 -0.00319391
286 1 13.857 3.78057 1.76457 -0.002715 -0.00313828 -0.00637537
287 1 13.8892 1.25909 1.75108 -0.00292645 0.00259439 0.00879127
288 1 15.1633 2.53942 -0.00103555 -0.00158559 0.00283648 -0.00651642
289 1 13.8979 2.55519 0.91222 0.000600907 -0.000895836 -0.00171226
290 1 15.142 3.83631 2.66378 -0.00202669 0.00382406 -0.00892299
291 1 15.1667 1.26288 2.62847 -0.00535562 -0.0111492 0.00370229
292 1 16.41 2.54094 0.822848 0.00783399 0.00371486 0.00918552
293 1 15.1209 22.6768 0.0109848 0.00245686 0.00545762 -0.00861339
294 1 16.4249 1.22445 1.67658 -0.00124848 -0.00188039 -0.00386722
295 1 17.5962 22.6898 -0.0754815 -0.00764021 0.0043417 0.00299956
296 1 16.4003 0.0176978 0.809426 0.00139507 0.00768231 0.00912155
297 1 17.6462 1.21381 2.6007 -0.00570964 0.0010787 0.00321943
298 1 18.8602 22.6699 0.834259 0.00143682 0.00637254 -0.00201494
299 1 0.0739203 21.3996 2.66829 -0.00394165 0.00672248 0.00459373
300 1 0.0466009 20.1514 -0.00470093 0.000225615 0.00074466 0.00250726
301 1 1.28464 21.388 1.77027 -0.00178694 -0.0026308 -0.00120174
302 1 1.23731 18.9184 1.7771 -0.00623012 -0.00434151 0.00679395
303 1 2.55467 20.1775 -0.0452841 -0.00231136 0.000764707 -0.00755533
304 1 1.24262 20.201 0.897995 0.00156145 0.00594049 -0.000137207
305 1 2.5267 21.4298 2.65943 -0.00296922 -7.55389e-05 0.00039928
306 1 2.51245 18.9212 2.74242 -0.00133034 6.29494e-05 0.00190131
307 1 3.819 20.2017 0.896449 -0.00115361 0.00539893 0.00164224
308 1 2.52041 17.6364 0.0107839 0.00726357 -0.00979791 -0.00590054
309 1 3.77066 18.9409 1.76559 -0.000858506 -0.00497666 -0.0025498
310 1 3.81535 16.4314 1.72465 0.00565883 -0.00278438 -0.0058525
311 1 5.03233 17.7079 -0.0225232 -0.0014974 -0.0114415 0.0035208
312 1 3.8161 17.688 0.893461 0.00696132 -0.00579917 -0.000196651
313 1 5.01335 18.944 2.62833 0.00415198 -0.00297497 -0.00538179
314 1 5.0902 16.4143 2.63524 0.00051874 0.00705285 -0.00670461
315 1 6.31004 17.6916 0.810743 -0.0032031 0.00919811 0.000393235
316 1 5.06935 15.1816 -0.0341319 0.00295377 0.000307721 -0.00126218
317 1 6.41121 16.4238 1.76053 -0.00506644 -0.00815871 0.000178596
318 1 6.29429 13.8479 1.77527 0.00324771 0.000230232 -0.00453813
319 1 7.55369 15.1612 -0.0182612 -0.00893342 0.00139908 -0.0016596
320 1 6.30558 15.109 0.902865 -0.00217717 0.011769 -0.00381038
321 1 7.5744 16.366 2.6755 -0.00154329 -0.00500543 -0.00539348
322 1 7.59028 13.8635 2.63288 0.000904527 0.0061054 0.00532187
323 1 8.81175 15.131 0.867594 -0.00453077 0.00495461 -0.0033138
324 1 7.54841 12.6537 -0.0395604 0.00228059 0.000605578 -0.00167961
325 1 8.85732 13.8877 1.73865 -0.00252672 -9.20812e-05 -0.00146119
326 1 8.77896 11.3389 1.75558 0.000877375 -0.00351603 -0.0043137
327 1 10.0334 12.5801 0.0641735 -0.00432838 0.00791246 -0.000127827
328 1 8.78783 12.5983 0.862409 -0.000472449 -0.00152089 0.00190437
329 1 10.1138 13.8995 2.62217 0.00351015 -0.00345883 0.00471267
330 1 10.0299 11.3598 2.67008 -0.00191677 0.00285911 0.0131184
331 1 11.3396 12.5909 0.851612 -0.00466655 0.00517586 0.000875961
332 1 10.1536 10.095 0.0226051 -0.000454279 0.000282623 -0.00730179
333 1 11.3777 11.3661 1.73956 0.00264115 -0.0109172 -0.00443985
334 1 11.3623 8.78145 1.7528 -0.00360116 0.00171427 0.00152175
335 1 12.6138 10.065 0.0303585 0.00613296 0.0013654 -0.00177656
336 1 11.3999 10.0949 0.878158 0.00226588 0.00391269 -0.0122034
337 1 12.6153 11.3494 2.70023 -0.00125764 0.000283287 0.00348609
338 1 12.599 8.78215 2.69709 0.00359385 0.00200425 -0.00148504
339 1 13.9025 10.1091 0.892276 -0.000996237 -0.00703683 -0.000681624
340 1 12.5966 7.47053 0.0290766 0.00372473 -0.00132234 -0.00626853
341 1 13.8556 8.8187 1.75668 -0.00264057 -0.00120459 0.00409348
342 1 13.8752 6.29222 1.76215 0.00646342 0.00189067 0.00463769
343 1 15.1389 7.58978 0.014054 -0.00364622 0.00444645 0.00480483
344 1 13.8659 7.54932 0.937132 -0.00790084 0.000399456 -0.00488473
345 1 15.1166 8.7959 2.6495 -0.00291604 -0.00462352 0.0045503
346 1 15.1645 6.31938 2.65241 0.00501345 0.0040542 0.00186312
347 1 16.4192 7.52829 0.847433 -0.00855127 -0.00463174 -0.00124049
348 1 15.1392 5.02074 -0.0680592 0.00300869 0.00460339 0.000820822
349 1 16.3872 6.29448 1.7456 -0.00782502 -0.00548534 -0.00213373
350 1 16.3729 3.79695 1.74869 -0.00189253 0.00351086 0.00158041
351 1 17.6154 5.02318 -0.0150302 0.00330409 -0.00651258 0.00641699
352 1 16.3339 5.02082 0.794557 -0.00771629 -0.00050759 -0.00230651
353 1 17.6462 6.26082 2.67607 -0.00402093 0.00658912 0.00115104
354 1 17.6359 3.74035 2.6597 0.00042481 -0.0069964 -0.00195677
355 1 18.8972 5.00189 0.867095 0.00290444 0.00300952 0.00151062
356 1 17.6803 2.57102 -0.0617714 -0.00937736 0.00696417 0.0132545
357 1 18.9079 3.77723 1.77461 0.00210401 0.00789592 0.000603027
358 1 18.8752 1.22333 1.74028 -0.00207627 -0.00535644 -3.42919e-05
359 1 20.2322 2.50709 0.0357852 0.00214493 0.000847375 0.00161349
360 1 18.9255 2.50933 0.840275 0.00836876 -0.000167952 0.00380211
361 1 20.16 3.77266 2.63849 0.00277128 0.0046686 -0.000293198
362 1 20.161 1.2685 2.63404 -0.00584647 -0.00382659 -0.00983037
363 1 21.4689 2.51734 0.83854 -0.00111803 -0.00517593 0.00202951
364 1 20.1523 22.6343 -0.0240534 -0.0109083 -0.00429282 -0.00709186
365 1 21.3975 1.21781 1.7437 0.00266157 0.00174609 -0.00657847
366 1 21.4206 22.6554 0.813053 -0.00350269 0.00393793 0.00177341
367 1 3.81966 21.404 1.75559 -0.00744042 0.00667766 -0.0086414
368 1 5.06057 21.4177 2.68816 -0.0039865 -0.00847569 0.00201714
369 1 5.02807 20.2078 -0.0620692 -0.00599212 -0.0111296 -0.0123185
370 1 6.30729 21.4781 1.72293 0.00127255 0.00460264 0.00931411
371 1 6.31957 18.9537 1.77449 -0.000709107 -0.00427436 0.00395781
372 1 7.56952 20.2055 -0.0176572 -0.00124181 -0.0059705 0.0105531
373 1 6.31667 20.2114 0.816232 0.0113629 0.00281094 -0.00187784
374 1 7.57765 21.4388 2.6117 -0.00230886 0.00590913 -0.00524764
375 1 7.6023 18.9636 2.62871 0.00130533 -0.00646439 0.000973194
376 1 8.89518 20.1387 0.894267 0.00512532 0.000239657 -0.00126212
377 1 7.58814 17.702 -0.0244715 -0.00632196 -0.011706 -0.00258419
378 1 8.83498 18.8939 1.7754 -0.0101693 -0.00552373 -0.00257143
379 1 8.86275 16.3886 1.74098 -0.00478821 -0.00271104 0.00755084
380 1 10.09 17.6205 -0.0534351 -0.00133974 -0.00284482 0.00122666
381 1 8.85474 17.5947 0.832129 0.0040581 0.00435076 0.00368063
382 1 10.125 18.9568 2.6152 0.00713342 0.00871425 0.00019215
383 1 10.0947 16.399 2.66367 0.00117493 -0.002914 0.00724712
384 1 11.3299 17.5986 0.854837 -0.00145381 0.00451015 -0.00541012
385 1 10.0599 15.1392 -0.0427208 0.000229762 -0.00184091 -0.00253525
386 1 11.3596 16.3859 1.73001 0.00396345 -0.00630006 0.00242091
387 1 11.321 13.9365 1.72551 -0.00108814 -0.000475153 0.00298652
388 1 12.5868 15.1712 0.0025579 0.00479131 -0.0105957 0.00636162
389 1 11.3102 15.1837 0.860226 0.00664736 0.00150539 0.00167752
390 1 12.623 16.4177 2.62279 0.000685443 -0.00292576 -0.00102878
391 1 12.5746 13.8689 2.63896 0.00266395 0.00433666 0.0052979
392 1 13.9046 15.1439 0.902008 -0.00165906 -0.00881472 0.000537595
393 1 12.5934 12.5919 -0.0187675 0.000142941 -0.000341538 0.00463826
394 1 13.8744 13.9096 1.76243 -0.00356191 0.00449443 -0.00240852
395 1 13.8436 11.3396 1.76506 -0.000901362 -0.000800042 0.00107624
396 1 15.1478 12.6313 0.00991651 -0.00288339 0.00524693 0.000481927
397 1 13.8464 12.6143 0.814928 -0.00150189 0.00794348 -0.00406602
398 1 15.1237 13.8243 2.65941 0.00357856 0.00467104 -0.00234637
399 1 15.1214 11.3024 2.66552 0.00274015 -0.00246139 -0.00725159
400 1 16.357 12.6496 0.862106 0.000649389 0.00341812 -0.0140073
401 1 15.12 10.1449 -0.0223864 -0.00916171 0.00852921 -0.00040597
402 1 16.4158 11.3514 1.76957 -0.00258852 0.00302314 0.00712993
403 1 16.3594 8.77892 1.76327 0.00143821 0.018225 -0.000879163
404 1 17.6481 10.0204 0.0373857 -0.00540359 -0.00297375 -0.0050943
405 1 16.3922 10.1056 0.851938 -0.00505076 0.00217309 0.00178396
406 1 17.6201 11.3213 2.67154 0.00567542 -0.00937436 -0.00163878
407 1 17.6449 8.79042 2.67181 0.004324 0.00141315 -0.000315601
408 1 18.9149 10.0106 0.886699 0.00480025 -0.0016581 0.00216728
409 1 17.6679 7.53165 -0.00501189 -0.00108116 -0.00157591 -0.00555231
410 1 18.889 8.73762 1.79417 0.00527318 -0.00175732 -0.000569814
411 1 18.9215 6.25444 1.73742 0.00649615 -0.000440771 -0.0094206
412 1 20.1905 7.56346 0.01253 -0.00173974 -0.0114608 0.0013845
413 1 18.8525 7.50704 0.881809 0.000777202 0.0024736 -0.00669661
414 1 20.1569 8.81573 2.65767 -0.00256924 0.00159801 0.00254648
415 1 20.1892 6.24404 2.71997 -0.00753577 -0.00868882 -0.011519
416 1 21.4196 7.56623 0.891757 -0.0048472 0.00866452 0.00251367
417 1 20.1446 5.01167 -0.0103712 0.000415158 0.00929359 0.00419273
418 1 21.4593 6.29229 1.77875 -0.00376834 -0.0101511 0.00149585
419 1 21.4621 3.76404 1.79643 0.00182891 0.00793391 0.00190128
420 1 21.4418 5.06409 0.883897 -0.00564943 -0.00365604 0.00849774
421 1 8.84966 21.3863 1.8034 -0.00220395 0.000660571 0.00705606
422 1 10.0247 21.5408 2.6172 -0.000676447 0.00286623 -0.00764765
423 1 10.1 20.1559 -0.0250569 -0.00590402 -0.00227646 -0.000360321
424 1 11.3675 21.4059 1.73266 -0.00133562 0.00417606 0.0039495
425 1 11.366 18.9402 1.72488 0.00588692 0.000603092 -0.00630109
426 1 12.6155 20.1823 -0.0726207 -0.00477489 -0.00695323 -0.00276774
427 1 11.4065 20.1943 0.811129 -0.00737514 -0.00256469 0.00653151
428 1 12.5866 21.4098 2.63451 0.00221067 0.00233814 0.000461351
429 1 12.658 18.9269 2.59866 0.0020417 0.00323364 0.00633015
430 1 13.8545 20.2218 0.811074 -0.00754039 -0.00224775 -0.00594606
431 1 12.6107 17.6595 -0.0182903 -0.00461467 -0.00123144 0.00997222
432 1 13.926 18.9436 1.73683 0.000416654 -0.00372545 0.00487155
433 1 13.9077 16.4331 1.7462 0.00308153 -0.00129475 0.000992784
434 1 15.1168 17.6838 -0.0326472 0.000849974 0.00641286 0.00341884
435 1 13.9127 17.6632 0.877387 0.00107403 0.0033903 -0.00981328
436 1 15.1548 18.9014 2.66357 0.00638235 0.011243 -0.0052763
437 1 15.1471 16.3759 2.69686 -0.00335597 0.00258156 0.00741662
438 1 16.4251 17.6603 0.888099 -0.00129209 0.00163994 0.000983562
439 1 15.1464 15.1297 -0.04784 -0.0066456 -0.000186282 -0.00753325
440 1 16.402 16.4296 1.76001 0.00179468 -0.00981012 0.00271999
441 1 16.4217 13.8798 1.77362 -0.001071 -0.00757701 -0.00357964
442 1 17.6653 15.1874 0.0190078 -0.000841656 -0.00793154 -0.00614396
443 1 16.4105 15.1408 0.892604 -0.00436263 -0.00403231 -0.00481953
444 1 17.6333 16.3676 2.6816 -0.00124704 -0.00190928 -0.00256143
445 1 17.6495 13.8389 2.63725 -0.00124453 0.00237996 0.00331032
446 1 18.8906 15.0785 0.87149 0.00567174 0.00309895 -0.00144302
447 1 17.6411 12.6098 0.0210885 -0.000143732 -0.000759822 -0.0102159
448 1 18.9147 13.7638 1.75529 0.00475309 0.00723352 0.00155714
449 1 18.9135 11.295 1.73488 0.00915561 -0.000118551 0.00813202
450 1 20.1376 12.5719 -0.0333478 3.14264e-05 -6.43476e-05 0.00378237
451 1 18.8627 12.5433 0.858121 0.00399701 0.00168333 0.00378589
452 1 20.21 13.8622 2.64244 -0.0033218 -0.00549685 -0.00206581
453 1 20.1061 11.337 2.70958 -0.00239499 -0.000964605 -0.0072633
454 1 21.4774 12.6073 0.838395 -0.00341943 -0.00563652 -0.00879834
455 1 20.164 10.0611 -7.85048e-05 0.00448446 -0.0167973 -0.000833165
456 1 21.4335 11.3278 1.74525 0.000628866 0.000959468 -0.00424104
457 1 21.4053 8.80726 1.79775 -0.00651349 -0.000275713 -0.00413983
458 1 21.4438 10.0585 0.878387 -0.000366037 0.0100416 0.00821832
459 1 13.8441 21.3911 1.74933 -0.000822479 0.00360382 -0.00236308
460 1 15.1396 21.3806 2.64747 -0.00230007 0.000425509 0.00202267
461 1 15.0966 20.2151 -0.0476708 1.84034e-05 -0.00263721 0.00363406
462 1 16.4426 21.4427 1.74324 0.00227593 -0.00205132 0.00191385
463 1 16.4295 18.9195 1.7604 -0.00593483 -0.00453396 0.00463906
464 1 17.6191 20.1961 -0.00880163 0.00302887 0.000185692 -0.00231783
465 1 16.3669 20.2346 0.850915 -0.000528859 0.00155915 -0.0040722
466 1 17.6345 21.3968 2.65335 -0.00111975 0.00512724 0.00101887
467 1 17.6655 18.8899 2.651 0.00696966 0.00403852 0.00263852
468 1 18.9111 20.1414 0.776509 -0.00536006 -0.00154108 0.00162376
469 1 17.6314 17.6324 0.018634 0.00702494 -0.00337477 0.00194491
470 1 18.9384 18.9331 1.71831 -0.00185448 0.00220196 0.00254602
471 1 18.9058 16.3789 1.75364 0.00536558 0.00299067 -0.00206034
472 1 20.217 17.7016 -0.0535466 0.00364709 0.0013275 -0.00223857
473 1 18.9384 17.6338 0.868662 -0.00573074 -0.00405406 0.00351686
474 1 20.1887 18.9149 2.65669 -0.00130955 0.00372513 -0.000869132
475 1 20.2199 16.3727 2.61824 -0.0117173 -0.000993439 -0.000683079
476 1 21.4099 17.6622 0.823212 0.00650986 0.010022 0.00514862
477 1 20.1864 15.1655 0.0755089 0.00352534 -0.00677376 0.00172798
478 1 21.4553 16.3954 1.77409 0.00309624 -0.00677517 -0.0128777
479 1 21.4204 13.836 1.7478 -0.00305724 -0.0119628 -0.00421139
480 1 21.4738 15.1309 0.876407 0.000367885 -0.00230166 0.00350344
481 1 18.9084 21.4014 1.74274 0.000474992 -0.00128999 -0.00525842
482 1 20.1868 21.4216 2.63463 0.00388547 -0.00713435 -0.00442196
483 1 20.1924 20.1373 -0.043062 0.000779848 0.00772786 0.00286744
484 1 21.4619 21.3764 1.78727 -0.000596017 0.000287181 -0.00360646
485 1 21.4499 18.9087 1.76039 -0.000778928 -0.00491693 0.00129093
486 1 21.4008 20.1285 0.817503 -0.000561432 -0.0105748 -0.00427307
487 1 22.6545 2.50273 3.55756 -0.00028739 -0.000783236 -0.00560039
488 1 22.6694 3.74214 6.23131 -0.00369595 -0.00300895 0.00139562
489 1 22.6793 1.25767 6.25401 0.00907705 0.0034897 -0.0077901
490 1 1.2303 2.55 4.45102 0.000673013 -0.00514631 -0.00710801
491 1 0.0146842 0.0120619 3.55416 -0.00909453 0.0122607 -0.00274538
492 1 1.22641 1.25415 5.37588 0.00918766 0.00113589 0.00418229
493 1 2.51516 22.6551 3.56864 -0.00695305 0.00247898 0.00390447
494 1 1.21885 22.6828 4.47922 -0.00436433 0.00871944 -0.00253463
495 1 2.51038 1.27329 6.18256 0.00477272 0.00105712 -0.0112154
496 1 3.78656 22.6629 4.41579 0.0080519 -0.00477787 0.00438169
497 1 0.00635722 7.55652 3.53209 -0.00605838 0.00924859 -0.00181805
498 1 0.000771066 8.8031 6.23588 -0.00794728 -0.00491721 0.00201639
499 1 22.6874 6.23076 6.26995 0.00605248 0.00631629 -0.00592293
500 1 1.22805 7.56624 4.47689 0.00648954 -0.00227366 -0.00216098
501 1 0.0628059 5.00456 3.556 -0.00861654 0.00628924 0.00608505
502 1 1.27185 6.3274 5.33945 0.00677529 0.00766112 -0.00856821
503 1 1.21348 3.76044 5.31816 -0.00293143 -0.00404993 -0.00341305
504 1 2.51371 5.09522 3.56477 -0.00248152 -0.000694635 0.00802366
505 1 1.27382 5.03682 4.45948 -0.00551653 0.00185397 -0.00180001
506 1 2.50641 6.30548 6.24698 -0.00456592 -0.00342431 -0.00739562
507 1 2.41591 3.78682 6.2368 -0.00863862 0.00263638 -0.00417805
508 1 3.73117 5.04879 4.45257 -0.00347737 -0.00446871 -0.00538846
509 1 2.46464 2.54048 3.54485 -0.00286552 0.00626667 -0.00527569
510 1 3.73868 3.77319 5.32643 -0.00356031 -0.00190462 0.00805163
511 1 3.79054 1.26364 5.27551 0.00227933 -0.00759157 -0.0040523
512 1 5.00703 2.5239 3.53382 -0.00685992 0.00554661 0.00661426
513 1 3.6939 2.46271 4.41422 0.00272852 -0.0020785 0.0037517
514 1 4.98451 3.74641 6.24912 0.0043217 0.000757597 0.00421149
515 1 5.02703 1.26348 6.25743 -0.00476703 -0.000191236 0.00991139
516 1 6.25642 2.51544 4.44616 0.00225189 -0.00938011 -0.00261123
517 1 5.06397 0.00930921 3.51872 0.00159382 -0.0022727 0.00457241
518 1 6.28506 1.26637 5.35363 0.0048678 -0.000498956 0.00151487
519 1 7.60119 22.6612 3.52602 0.000646267 -0.00142669 -0.000283726
520 1 6.30274 0.0234471 4.40222 0.00742479 0.00910625 -0.00492333
521 1 7.52283 1.27647 6.28832 -0.00993807 -0.00689469 -0.00590041
522 1 8.83597 0.016147 4.48961 0.00412123 0.00263002 -0.00812614
523 1 22.6863 12.601 3.59104 -0.000379286 -0.00571956 -0.000885273
524 1 0.0586474 13.8506 6.26513 -0.00419031 -0.00125674 -0.00409654
525 1 0.0786469 11.3345 6.27192 0.00383408 -0.00691789 -0.00353946
526 1 1.24056 12.6585 4.50113 -0.00335089 0.00645808 -0.00708817
527 1 0.0323971 10.0791 3.5328 -0.00321854 0.00340653 0.000214573
528 1 1.26697 11.3593 5.37216 0.00280628 0.00349113 -0.00106805
529 1 1.27641 8.8271 5.3171 0.00303566 -0.000938144 0.00120839
530 1 2.51767 10.0814 3.58344 -0.00146556 -0.00491595 0.0013435
531 1 1.25404 10.1235 4.43161 -0.0043424 0.00308774 -0.000581716
532 1 2.57118 11.3507 6.23137 0.00964621 0.00211314 0.00314582
533 1 2.52109 8.76464 6.24578 -0.00629271 0.00219869 0.00360487
534 1 3.76238 10.0691 4.44402 0.0086365 0.000718698 -0.0117308
535 1 2.52503 7.57225 3.55136 0.0018229 -0.00662552 0.00299086
536 1 3.80849 8.75238 5.38909 0.00768381 -0.00125771 -0.00677038
537 1 3.79108 6.25468 5.34309 0.0111567 -0.00317185 0.00496415
538 1 5.05141 7.58284 3.56394 0.00470248 -0.000475569 0.000175102
539 1 3.75031 7.50909 4.42776 0.00231276 -0.00501383 0.0025908
540 1 5.07364 8.85711 6.2375 0.00104421 0.000774619 -0.00427673
541 1 5.02127 6.30968 6.22132 0.000705486 -0.000605011 -0.00454666
542 1 6.30164 7.60732 4.45371 0.00693815 -0.00195088 -0.0085172
543 1 5.03099 5.06237 3.53541 -0.00328558 -0.00796852 -0.000605547
544 1 6.27431 6.29204 5.34478 -0.00849684 0.0046538 -0.00117115
545 1 6.24367 3.75443 5.35656 -0.00847505 0.0138181 -0.00364504
546 1 7.54131 5.03753 3.61054 -0.0082031 0.000979059 0.00249066
547 1 6.26483 5.06944 4.46417 -0.00497654 0.00284209 -0.00516952
548 1 7.52732 6.32474 6.27309 0.00628344 -8.4273e-05 -0.000724869
549 1 7.49227 3.82738 6.28356 0.00217289 -0.00417826 -0.00359665
550 1 8.81505 5.02105 4.47 0.00462071 0.000810512 -0.0114397
551 1 7.5148 2.45046 3.55858 0.000646896 0.000465677 -0.00416765
552 1 8.79012 3.7685 5.35551 0.000371784 -0.0106589 -7.60403e-05
553 1 8.82612 1.32158 5.40541 -0.000242972 0.00292366 0.00340828
554 1 10.088 2.51735 3.55756 -5.06633e-05 0.00238443 -0.00221705
555 1 8.82536 2.51044 4.44498 0.00890059 0.000879869 -0.00346846
556 1 10.0938 3.74211 6.23654 -0.00384753 0.00667224 -0.0079266
557 1 10.1193 1.24929 6.22514 -0.00111762 0.00129817 0.00187918
558 1 11.3697 2.52458 4.4665 0.00248718 -0.00144638 -0.00644614
559 1 10.0595 0.0108938 3.52401 0.00113388 0.010416 0.0054198
560 1 11.3611 1.23817 5.34809 0.0029602 -0.0001136 -0.00233995
561 1 12.5914 22.6785 3.51046 0.00425169 -0.00417842 -0.00679702
562 1 11.3649 22.6733 4.42875 0.00327305 -0.00181392 -0.00165051
563 1 12.5717 1.12545 6.22089 0.00130982 -0.0093545 -0.00155682
564 1 13.8913 22.6832 4.40489 -0.00403496 0.00073321 -0.00529502
565 1 22.68 17.667 3.54289 -0.000220907 -0.00243309 -0.00391328
566 1 22.6809 18.9045 6.26356 -0.00224935 0.00249183 -0.00146387
567 1 22.6739 16.326 6.31627 -0.00357322 0.000279477 -0.00728423
568 1 1.27576 17.617 4.46008 0.00444167 0.000786103 -0.00837274
569 1 22.6826 15.1185 3.5946 -0.00223979 0.00363822 -0.00216064
570 1 1.27208 16.3838 5.35742 0.00360322 0.00539935 -0.00589993
571 1 1.29871 13.8767 5.40759 0.00324728 -0.000190746 -0.00626462
572 1 2.51198 15.175 3.54494 -0.00248319 0.00351686 0.00730426
573 1 1.26606 15.1637 4.44132 0.00199263 -0.0106954 -0.00583894
574 1 2.51476 16.441 6.24419 0.00115487 0.00498954 -0.00248124
575 1 2.53494 13.8515 6.2867 -0.00200267 -0.00153446 -0.00960772
576 1 3.77578 15.123 4.40901 0.00515003 -0.00443629 -0.00634208
577 1 2.55012 12.6093 3.50436 -0.0024021 0.000165949 0.00759102
578 1 3.80926 13.8524 5.30635 -0.00631693 -0.00848283 -0.00504454
579 1 3.80942 11.2767 5.29467 -0.00112194 0.00103419 0.00309665
580 1 5.0045 12.5986 3.51472 0.00307163 0.00531653 0.000270766
581 1 3.80564 12.5777 4.40151 0.0060244 -0.00242732 -0.000992851
582 1 5.04778 13.8302 6.21965 -0.00433639 0.00508598 -0.00233551
583 1 5.04935 11.3417 6.24476 0.00209753 0.00491844 -0.00223917
584 1 6.34009 12.5797 4.42218 0.0107273 0.00546519 -0.003142
585 1 5.02973 10.0762 3.52545 0.00745648 -0.00417801 -0.0050784
586 1 6.34779 11.3407 5.34488 -0.00121935 0.00154723 -0.00460124
587 1 6.2931 8.83993 5.33152 0.0100038 -0.00317307 0.0049493
588 1 7.61055 10.1006 3.56457 0.00499662 0.00364386 0.00277446
589 1 6.3518 10.0938 4.43874 0.00772837 0.00255763 -0.00915507
590 1 7.58258 11.3958 6.21914 -0.00260916 0.00248051 -0.00166688
591 1 7.57911 8.87513 6.22562 0.00411831 0.00675568 0.00578042
592 1 8.85334 10.131 4.4029 0.00200428 0.00785015 0.0078446
593 1 7.58818 7.55364 3.60218 -0.00266333 -0.00320817 -0.00900402
594 1 8.84712 8.87349 5.30549 -0.000392061 0.00587147 -0.00446304
595 1 8.81038 6.32494 5.34115 0.000113675 -0.00080937 -0.0046166
596 1 10.0705 7.52376 3.53756 0.00180408 0.00908944 0.00539289
597 1 8.84773 7.5007 4.42184 -0.00570476 -0.00527113 0.0075827
598 1 10.0877 8.82102 6.1766 0.00139014 -0.0043659 0.000108861
599 1 10.0843 6.30747 6.26158 0.000860862 0.00477707 -0.00216392
600 1 11.3769 7.53665 4.50925 -0.00158073 0.00466444 0.00880843
601 1 10.0462 5.01422 3.57413 -0.00423504 0.00616526 0.00458527
602 1 11.3084 6.21782 5.37917 0.00127277 0.00435833 0.000276576
603 1 11.3515 3.76974 5.42634 -0.00365786 0.00896745 -0.00622436
604 1 12.6157 4.97966 3.57596 0.010931 0.000556093 0.00529578
605 1 11.3697 4.981 4.46069 0.00736897 0.00687338 0.00131124
606 1 12.6763 6.24714 6.29762 0.00417772 -8.65916e-05 0.00266957
607 1 12.5982 3.70548 6.30338 -0.0115742 0.000793683 0.00822034
608 1 13.8513 5.04955 4.44723 0.00318224 0.00739286 -0.000597518
609 1 12.6383 2.53499 3.5535 -0.00450833 -0.00341703 -0.00113488
610 1 13.886 3.76494 5.37855 0.000266417 -0.00650944 -0.00395762
611 1 13.8788 1.23299 5.30533 0.000266722 0.00331774 -0.000555634
612 1 15.2043 2.49258 3.53295 0.00903198 0.0103891 -0.00644631
613 1 13.9318 2.48526 4.45217 0.000631971 0.00341176 0.000233293
614 1 15.0916 3.73694 6.27906 -0.00775798 -0.00168981 -0.0018669
615 1 15.0918 1.22485 6.17002 0.00592956 -0.0107557 -0.00163537
616 1 16.4241 2.52507 4.44504 0.00302401 -0.00323522 0.00387807
617 1 15.1179 22.6597 3.47875 0.000618734 -0.0015238 0.00181673
618 1 16.3198 1.19356 5.33732 -0.0016021 -0.00628214 0.00245255
619 1 17.6838 22.63 3.56487 -0.0012339 -0.000156663 -0.0063081
620 1 16.3668 22.6495 4.41705 -0.0123548 0.00653445 -0.00841494
621 1 17.5817 1.18314 6.2693 -0.00744335 -0.00483906 9.72332e-05
622 1 18.912 22.6553 4.50516 -0.00766001 -0.00680396 -0.010397
623 1 0.00722705 21.3953 6.27594 -0.00977693 -0.00868823 -0.00796403
624 1 22.6789 20.1982 3.58451 0.00528048 0.010507 -0.00240581
625 1 1.25751 21.406 5.3596 0.00247823 -0.000105856 -0.00175031
626 1 1.24072 18.9003 5.39483 0.00153595 0.0044053 -0.00307359
627 1 2.49822 20.1917 3.53355 0.00729026 -0.00320288 -0.00156063
628 1 1.26322 20.1135 4.47626 -0.0012691 0.0119985 0.00428035
629 1 2.52418 21.419 6.23681 -0.000290928 0.00530892 0.00441104
630 1 2.56967 18.9161 6.30329 0.00296508 0.00693774 -0.0102254
631 1 3.78286 20.1506 4.45206 0.00201592 -0.00963569 -0.00127881
632 1 2.56138 17.6671 3.58004 0.00145179 0.00395729 -0.00202957
633 1 3.78226 18.9303 5.36319 -0.00121989 -0.00284903 0.0034414
634 1 3.78622 16.4367 5.2989 0.00188382 0.00159246 -0.00344511
635 1 5.06181 17.6853 3.56946 0.00212927 -0.00805756 -0.00411381
636 1 3.80968 17.7003 4.44926 0.000503975 0.00592256 -0.00226221
637 1 5.11705 18.8939 6.22633 0.00375912 0.000464471 0.000352869
638 1 5.03627 16.3528 6.1959 0.0070519 0.00325329 0.00160764
639 1 6.32788 17.708 4.41197 -0.00271213 -0.000960094 -0.00354735
640 1 5.07777 15.1768 3.49554 8.40158e-06 -0.00384372 0.00247895
641 1 6.31686 16.3612 5.26969 -0.00521367 0.00175071 -0.00106142
642 1 6.32932 13.8449 5.26068 -0.00534276 -0.00426266 0.0113132
643 1 7.62069 15.0933 3.47712 0.0080443 0.00952496 -0.00106717
644 1 6.3332 15.1212 4.40914 0.000503636 -0.00121878 0.00550433
645 1 7.58684 16.371 6.2137 0.00972114 0.00474747 0.00269794
646 1 7.55446 13.8915 6.24218 -0.00109991 0.00360484 0.00881774
647 1 8.92244 15.1267 4.42235 -0.000912284 0.00276104 0.00821853
648 1 7.59257 12.643 3.52482 0.00948984 -0.00634142 -0.00181161
649 1 8.85432 13.941 5.30863 -0.00383359 0.00269868 -0.00310485
650 1 8.85121 11.3601 5.34487 -5.39079e-05 -0.00391592 -0.00657154
651 1 10.0798 12.658 3.51465 -0.000336059 0.00745937 0.00964216
652 1 8.82168 12.6743 4.46412 -0.0119534 -0.00221804 -0.00187076
653 1 10.1193 13.8748 6.28473 0.0100279 0.00277862 0.00906329
654 1 10.1108 11.3492 6.24001 0.00554453 0.0036124 -0.0065323
655 1 11.2719 12.6379 4.42794 -0.00656096 -0.00769588 0.000792464
656 1 10.1062 10.102 3.53079 0.00963814 -0.00427463 -0.00552381
657 1 11.3113 11.3942 5.34372 -0.00409416 -0.00161357 -0.00147915
658 1 11.3597 8.81829 5.29047 3.5193e-05 0.00603547 0.000987527
659 1 12.6143 10.0434 3.54781 0.00118526 0.00106633 0.00717882
660 1 11.3547 10.1278 4.42611 -0.00393495 0.00197609 0.00948756
661 1 12.5746 11.3203 6.24596 0.0036613 -0.0061152 0.00336286
662 1 12.5846 8.82916 6.28547 -0.00213632 -0.00066787 -0.00264387
663 1 13.887 10.0488 4.51757 0.00313125 0.0016584 -0.0046514
664 1 12.5722 7.45827 3.55923 -0.00552612 0.00632045 0.00344693
665 1 13.8567 8.80478 5.35243 -0.000391686 0.00565395 -0.000747119
666 1 13.9005 6.28463 5.38118 0.00156234 -0.0029132 2.85487e-05
667 1 15.0944 7.53284 3.54469 0.00597801 -0.00515134 -0.0112929
668 1 13.8579 7.6052 4.46874 0.000720069 0.0107752 0.00116852
669 1 15.1649 8.84561 6.30783 -0.0121361 0.00575492 -0.0034029
670 1 15.1332 6.29624 6.25225 -0.000891712 -0.00129176 0.0065535
671 1 16.3724 7.49338 4.4661 -0.00189539 -0.01173 -0.000877261
672 1 15.1281 5.02638 3.54153 -0.00778066 -0.00472539 -0.0041309
673 1 16.3642 6.26145 5.38303 0.00282871 0.00264888 0.00325499
674 1 16.3457 3.75765 5.34739 -0.0059571 0.000330048 0.00288039
675 1 17.583 4.9744 3.56024 -0.00764379 0.00765825 0.00188509
676 1 16.3331 5.06224 4.42441 -0.00723266 -0.0028652 0.0106399
677 1 17.6659 6.23912 6.19037 -0.00063149 -0.00112795 -0.00151712
678 1 17.6557 3.66247 6.21235 -0.00152076 -0.00734012 0.000565598
679 1 18.8601 4.92217 4.45704 0.00705284 -0.0015993 0.00252901
680 1 17.624 2.52721 3.58014 0.000306008 0.00865606 -0.00162145
681 1 18.9256 3.67567 5.32905 0.00127876 0.000196621 0.0120708
682 1 18.8988 1.21173 5.36492 0.000265038 0.00306833 0.0045278
683 1 20.217 2.51737 3.50004 -0.00221367 -0.00303471 -0.00287758
684 1 18.9267 2.44174 4.46701 -0.00274139 -0.00335146 0.0109495
685 1 20.1708 3.75532 6.25019 -0.0040304 -0.00139588 -0.00963896
686 1 20.2119 1.22579 6.24059 0.00194065 -0.00409001 0.000908494
687 1 21.451 2.46737 4.43745 0.00455136 -0.000862976 0.00107945
688 1 20.1477 0.0334955 3.52649 -0.0027468 -0.00268303 0.00380442
689 1 21.4178 1.25122 5.33999 -0.000964111 -0.00513118 -0.00828374
690 1 21.4131 22.6636 4.41499 0.00050641 -0.00155755 0.00803026
691 1 3.79033 21.4756 5.38087 0.00142554 0.00940738 -0.00863222
692 1 5.05343 21.3911 6.30489 -0.00431056 -0.00373508 -2.18621e-05
693 1 5.07656 20.1843 3.54676 -0.00144228 -0.00587141 -2.12684e-05
694 1 6.31234 21.4689 5.36047 -0.00140576 0.00195432 -0.00443426
695 1 6.3248 18.9466 5.3731 0.00268642 -0.0122737 0.00468815
696 1 7.58783 20.1714 3.55268 -0.00317389 0.00332747 -0.0010539
697 1 6.30796 20.1719 4.50578 -0.00825092 0.0062715 0.00162745
698 1 7.532 21.4608 6.25713 -0.00615028 0.00733098 -0.00597071
699 1 7.66069 18.9013 6.23589 -0.0103148 -0.00315344 0.0101675
700 1 8.90638 20.1725 4.42737 -0.00272911 0.00165978 0.00314145
701 1 7.56075 17.6812 3.53518 0.00960158 0.00067253 0.00250212
702 1 8.87363 18.9345 5.39111 0.00336428 0.00460046 0.00554959
703 1 8.82539 16.4023 5.34042 0.00111976 0.001758 -0.00021304
704 1 10.1302 17.685 3.5636 0.00135763 -0.00230808 -0.00587178
705 1 8.84955 17.7085 4.44666 0.00713736 0.00263736 -0.00624245
706 1 10.129 18.9403 6.25782 -0.00472966 0.00126425 0.00447058
707 1 10.1052 16.3105 6.23721 -0.00254844 0.00172403 -0.0105393
708 1 11.3614 17.5989 4.39194 0.0034795 0.00848785 0.00358581
709 1 10.1211 15.1767 3.55161 -0.00916635 -0.000351326 -0.00176988
710 1 11.3417 16.3955 5.33432 -0.00212395 0.00500459 0.00121076
711 1 11.3859 13.8893 5.38559 0.0070146 0.0032459 0.000193894
712 1 12.648 15.1865 3.47872 -0.00285896 0.00132314 -0.000547499
713 1 11.3686 15.1004 4.41525 0.00619565 0.00346878 -0.0022984
714 1 12.6274 16.4019 6.20398 -0.000284244 -0.00457374 -0.00520097
715 1 12.6691 13.8967 6.24723 0.0041189 -0.00471088 -0.00586593
716 1 13.8944 15.0971 4.42109 0.00688959 0.00244224 -0.00354842
717 1 12.5894 12.6165 3.57459 -0.000408079 -0.00439886 -0.00230002
718 1 13.9055 13.8551 5.34247 0.00300265 -0.00924334 -0.000651106
719 1 13.8525 11.2871 5.35499 0.00126117 0.00442961 0.0099692
720 1 15.0999 12.5726 3.57757 -0.000975998 0.00368419 -0.0049593
721 1 13.8976 12.5972 4.44261 -0.00676556 -0.00369171 -0.00151798
722 1 15.1631 13.8353 6.23005 -0.00420598 -0.00133419 -0.00718251
723 1 15.0709 11.4033 6.22345 -0.000781807 0.00481513 0.0051932
724 1 16.3614 12.4883 4.47773 -0.0144082 0.00268523 0.00125319
725 1 15.1805 10.0442 3.51889 0.00110365 -0.00393093 0.00805737
726 1 16.4038 11.3189 5.33883 -0.0010387 -0.00505993 -0.0012554
727 1 16.3657 8.80412 5.32442 0.00306288 0.00844308 0.00289809
728 1 17.6276 10.0197 3.55104 0.0106762 -0.00369499 0.00420356
729 1 16.3962 10.0653 4.47755 -0.00574823 0.00458504 -0.00267653
730 1 17.6423 11.3063 6.26851 -0.00243039 -0.000609514 0.00142202
731 1 17.7106 8.78587 6.2637 -0.00672744 -0.00270085 -0.00180907
732 1 18.9251 10.0437 4.44974 0.00102058 -0.00796787 -0.0101336
733 1 17.5834 7.51851 3.54493 -0.00405931 0.00154237 0.000300637
734 1 18.897 8.79694 5.35407 -0.00386896 -0.000528032 -0.00602075
735 1 18.8761 6.23291 5.26906 0.0019069 -0.0114157 -0.00424044
736 1 20.1272 7.53821 3.57402 -0.00218642 0.00668138 0.00441123
737 1 18.9186 7.51205 4.43435 0.000779967 0.00483551 0.00194588
738 1 20.1767 8.81459 6.19743 0.00168271 -0.000316602 0.00712048
739 1 20.2111 6.29586 6.22223 -0.00469237 0.00336531 -0.00733341
740 1 21.4251 7.53659 4.47989 -0.004276 0.00781763 -7.90579e-05
741 1 20.1408 4.97871 3.53089 -0.00127574 0.00066191 0.00225904
742 1 21.4387 6.28416 5.35896 -0.00512292 0.000707004 0.00417754
743 1 21.3939 3.84516 5.33041 0.00652553 0.00610156 0.00228242
744 1 21.4347 5.0574 4.43105 0.00575968 -0.00546284 0.000110145
745 1 8.87785 21.4909 5.38728 0.00281062 0.000741509 -0.0035008
746 1 10.0881 21.4419 6.21417 0.00543884 0.00177923 -0.00540523
747 1 10.0937 20.1712 3.55186 -0.00667691 -0.00173531 -0.00995962
748 1 11.3391 21.4726 5.33114 -0.00615923 -0.00269851 0.00540833
749 1 11.3284 18.9172 5.29535 0.00279113 -0.0107801 -0.00417712
750 1 12.625 20.1004 3.49541 -0.00383574 0.00554345 -0.00231121
751 1 11.3579 20.1306 4.37476 -0.00154523 -0.0120615 -0.00303895
752 1 12.6475 21.4248 6.19892 -0.00526746 -0.00183005 0.000124176
753 1 12.6162 18.9218 6.19142 -0.000359273 0.00434036 -0.000729239
754 1 13.884 20.1198 4.41113 0.00106609 0.00293311 -0.00606956
755 1 12.6075 17.6885 3.48546 0.000618973 -0.00451226 0.00338861
756 1 13.8582 18.8838 5.31878 0.00176613 0.00193221 -0.0020526
757 1 13.8875 16.3915 5.37193 -0.00105357 0.0029992 0.0132287
758 1 15.1558 17.6082 3.56834 9.15729e-05 0.00225733 0.00556454
759 1 13.864 17.6855 4.42343 0.00292164 -0.00106327 -0.004591
760 1 15.1119 18.9479 6.21071 0.00414827 0.00293696 0.000570681
761 1 15.1266 16.3989 6.26106 0.00884819 -0.00962044 -0.00172334
762 1 16.4398 17.66 4.46029 -0.000132151 0.00167781 -0.011978
763 1 15.1505 15.0861 3.57778 -0.00268216 0.00504922 0.00185897
764 1 16.3825 16.3921 5.36583 -0.000612088 -0.00843215 -0.00370516
765 1 16.4184 13.8233 5.3499 0.00412539 0.00952914 0.00287568
766 1 17.656 15.1026 3.51064 0.00249887 -0.00901031 -0.00357116
767 1 16.4023 15.1465 4.45884 -0.000974959 0.00277027 -0.00244793
768 1 17.6882 16.3758 6.27531 0.00431314 0.00291073 -0.0112891
769 1 17.673 13.8595 6.19951 -0.00572626 0.00942227 -0.00407583
770 1 18.9036 15.0897 4.42151 0.0065539 -0.00311894 0.00546182
771 1 17.6233 12.5586 3.5675 0.00049372 -0.00385017 -0.00100407
772 1 18.936 13.8627 5.33501 -0.00721276 -0.0010946 0.00382032
773 1 18.9045 11.3286 5.35265 0.00681606 -0.00145404 0.000461139
774 1 20.1887 12.6153 3.59304 0.00274681 -0.00245119 0.00213936
775 1 18.9011 12.5867 4.44016 -0.00958101 -0.000589894 0.00233039
776 1 20.2004 13.8505 6.23953 -0.00514013 -0.00197782 -0.00350026
777 1 20.2088 11.3521 6.2291 -0.0017893 0.00385607 -0.00217202
778 1 21.4434 12.6043 4.43273 -0.000123965 -0.00233727 -0.00323799
779 1 20.2176 10.0637 3.64654 -0.00507496 -0.00209454 -0.00385121
780 1 21.4935 11.3413 5.39332 0.00322078 2.29269e-05 -0.00214302
781 1 21.431 8.76748 5.33565 -0.00660231 -0.00115388 -0.000755462
782 1 21.4752 10.0635 4.50856 -0.000568782 0.00725782 -0.00909164
783 1 13.8995 21.4022 5.29946 0.00609099 -0.00932172 0.00695683
784 1 15.1189 21.4132 6.2207 0.00580688 -0.0133945 0.00214644
785 1 15.1741 20.1099 3.52647 -0.00636793 -0.00262792 0.00320348
786 1 16.3931 21.3942 5.32591 0.00592719 0.00190952 -0.00941273
787 1 16.4212 18.8814 5.36026 0.00255683 -0.00192385 -0.00107545
788 1 17.6529 20.1037 3.58444 -0.00123264 0.00371536 -0.00073162
789 1 16.4254 20.1326 4.43966 -0.0064009 0.00258073 -0.0039896
790 1 17.6631 21.3898 6.23184 -0.00107186 -0.0043078 0.00973382
791 1 17.6666 18.8678 6.22491 0.0116424 -0.00755366 -0.00161036
792 1 18.9896 20.0965 4.46868 -0.000723067 0.00743151 -0.00349706
793 1 17.6465 17.6025 3.5563 0.00352361 -0.00217944 -0.000737457
794 1 18.9943 18.8782 5.35209 -0.00247227 0.00396901 -0.00112911
795 1 18.9249 16.3713 5.32578 0.00296356 -0.00130926 -0.00241963
796 1 20.1727 17.6281 3.49531 -0.00451265 -0.00933616 0.00166769
797 1 18.936 17.6312 4.44978 0.00432533 -0.00459644 -0.00114093
798 1 20.188 18.8865 6.27701 -0.00127102 0.00172254 0.00484825
799 1 20.2015 16.4038 6.19369 0.00408056 0.0004076 0.00491469
800 1 21.3599 17.6967 4.4221 0.00284878 0.000467429 -0.00269641
801 1 20.1467 15.1166 3.53103 -0.00468177 0.0063045 0.00499474
802 1 21.4336 16.402 5.37577 0.0142248 0.00737371 -0.00120135
803 1 21.419 13.9063 5.34341 -0.00121127 -0.00198631 -0.00634327
804 1 21.3836 15.0955 4.45654 -0.000579342 0.00419487 -0.000809408
805 1 18.9033 21.3681 5.34265 -0.00290967 0.00965067 0.00297453
806 1 20.1617 21.4202 6.24588 -0.00256095 0.0102121 0.00456623
807 1 20.1973 20.1384 3.51909 -0.00145486 -0.00261403 -0.00126925
808 1 21.3901 21.4256 5.32351 -0.00838931 -0.00372892 0.00842098
809 1 21.4028 18.9663 5.33215 -0.0042434 0.00170962 -0.00344298
810 1 21.4084 20.1753 4.41562 0.00100773 -0.00116111 -0.000708453
811 1 22.6455 2.51519 7.17827 -0.00617314 -0.00641522 -0.00307277
812 1 0.00813534 3.77462 9.84512 0.00138717 0.000159392 -0.00810708
813 1 0.051674 1.26617 9.87446 0.00177855 -0.00543415 -0.00626861
814 1 1.2172 2.49498 8.07103 0.00104365 -0.00275822 -0.00435479
815 1 0.0264105 22.6788 7.1654 -0.00714907 -0.000179834 -0.00197939
816 1 1.25249 1.2498 8.94252 0.00546359 -0.000785783 -0.00033722
817 1 2.49919 22.6456 7.12235 -0.00297402 -0.00688113 -0.0023995
818 1 1.26779 0.0016021 8.09168 0.00330714 0.00616521 -0.00677177
819 1 2.49258 1.29234 9.82209 0.00797273 0.00212558 0.00748817
820 1 3.81565 22.6741 8.03278 -0.000868258 -0.00133588 -0.00133979
821 1 0.0180557 7.53439 7.13769 0.000223165 0.00400073 0.0087576
822 1 22.6814 8.79889 9.88193 -0.0113527 0.00250121 -0.00379249
823 1 22.6224 6.31638 9.85613 0.00251336 0.00811461 0.0095102
824 1 1.27083 7.54275 8.0157 -0.00571306 -0.00553935 -0.00291864
825 1 22.6544 5.04243 7.16581 0.00502966 0.0141955 -0.0043749
826 1 1.2226 6.30703 8.95735 0.00504533 -0.00658655 0.00439009
827 1 1.20562 3.75889 8.95524 0.000746186 0.00237581 -0.00284668
828 1 2.47104 5.02728 7.06751 -0.00813934 0.00178037 0.00215345
829 1 1.22439 5.0154 8.03162 0.00208608 7.6065e-05 0.000587911
830 1 2.51583 6.29123 9.80784 0.0067059 -0.000827717 -0.00350396
831 1 2.48465 3.83827 9.80776 -0.00659695 -0.00923009 0.00969315
832 1 3.78986 5.05631 7.98107 -0.00278511 0.000153021 -0.0012477
833 1 2.42746 2.56529 7.13109 0.00143207 0.00632398 0.00558884
834 1 3.81745 3.77464 8.85221 -0.000689429 0.000605084 -0.0038083
835 1 3.7595 1.26092 9.03532 0.00490819 -0.000242253 0.00266748
836 1 4.99964 2.49076 7.14381 -0.00132884 0.00122007 -0.00377311
837 1 3.72515 2.56621 8.01303 0.000644867 0.0036705 -0.00289134
838 1 5.02436 3.8108 9.8223 -0.00631435 0.00542438 0.00253385
839 1 5.06612 1.24068 9.92989 -0.00295839 -0.0172598 0.00203174
840 1 6.29744 2.52022 8.04174 0.00572723 -0.0035902 0.00489598
841 1 5.02102 22.6838 7.19434 0.00143173 -0.00177231 -8.50189e-05
842 1 6.31922 1.26681 8.98098 -0.00586525 0.00208058 -0.000145389
843 1 7.52883 0.0401494 7.14775 0.0012854 0.00232534 -0.00313414
844 1 6.29434 0.00325698 8.07753 0.00732826 0.000628543 -0.00067916
845 1 7.54831 1.21754 9.84438 0.00346681 0.00315615 0.000453464
846 1 8.83286 0.0598711 8.02487 -0.00657712 -0.00472272 -0.00708157
847 1 0.0269806 12.6028 7.19787 -0.000105918 0.000347903 -0.000117822
848 1 0.0223991 13.8572 9.83271 -0.00419636 0.00151041 0.00250199
849 1 22.6861 11.3601 9.80487 -0.00263384 0.00187546 -0.00632441
850 1 1.31646 12.5538 8.00937 0.00174471 -0.00137606 0.00433102
851 1 0.0416087 10.0545 7.18772 0.00629924 -0.000540569 -0.00917377
852 1 1.34396 11.2902 8.91482 -0.00136865 -0.00440919 -0.000886375
853 1 1.29065 8.80144 8.91169 0.00159079 0.00398314 -0.00959164
854 1 2.55955 10.0428 7.12658 0.00309661 -0.000930041 -0.006611
855 1 1.28213 10.0456 8.01727 0.00512305 0.000544509 -0.0101477
856 1 2.55677 11.2725 9.8501 -0.0047772 -0.00655861 -0.00262991
857 1 2.54115 8.778 9.84524 0.00386558 -0.00693152 -0.00510572
858 1 3.78111 10.0302 8.09903 0.00106692 0.0031606 0.00131004
859 1 2.49589 7.57352 7.1403 0.00318226 -0.0086735 -0.00723948
860 1 3.81067 8.78835 8.98692 0.00316505 -0.00240244 -5.5202e-05
861 1 3.75413 6.28143 8.91364 0.00603884 -0.00379849 -0.00389448
862 1 5.04353 7.58027 7.15305 0.00416723 0.00845214 -0.00396291
863 1 3.78987 7.61479 8.09597 0.00278687 0.00226921 -0.0024953
864 1 5.06784 8.77862 9.84512 -0.00100445 -0.00597626 -0.000399541
865 1 5.09004 6.3204 9.83031 -0.00123329 0.00262441 -0.00150232
866 1 6.28486 7.60984 8.05364 -0.00819944 0.0045863 -0.00538297
867 1 5.03504 5.05746 7.14451 0.0110181 0.00040111 0.00804159
868 1 6.30629 6.32944 8.89799 -0.00416277 0.00135498 0.000133567
869 1 6.33248 3.76453 8.8713 -0.000727787 -0.00365625 -0.00244125
870 1 7.52472 5.09397 7.14155 -0.00294975 -0.00186324 0.00224781
871 1 6.28088 5.03817 8.03282 0.00439802 -0.00212892 -0.0014035
872 1 7.55765 6.33259 9.83859 0.00672966 0.00615617 -0.00917905
873 1 7.59397 3.7488 9.83553 -0.00450597 -0.00143333 -0.0013404
874 1 8.8227 5.04318 8.05812 0.0025717 0.00737583 0.00725077
875 1 7.49329 2.49952 7.13227 -0.000584258 0.00489364 0.000999178
876 1 8.79404 3.76228 8.97442 -0.00559331 -0.00290028 -0.00280659
877 1 8.82888 1.27745 8.88929 -0.0091045 -0.00411184 0.00568976
878 1 10.0671 2.4983 7.1682 -0.00513671 -0.00397312 0.00355327
879 1 8.79109 2.5086 7.97923 0.000770833 0.00324923 -0.0043596
880 1 10.0804 3.77986 9.84648 0.00687717 0.00126347 -0.00569189
881 1 10.1183 1.25718 9.84022 -0.00595916 0.00559031 -0.00764548
882 1 11.3427 2.49232 8.06146 -0.00325939 0.00453879 0.00248896
883 1 10.114 0.0381294 7.07632 0.0056501 -0.00319415 0.00256426
884 1 11.3012 1.22689 8.89722 0.000772711 -0.0100558 0.00801777
885 1 12.6289 22.6273 7.09734 0.00337587 0.00586404 0.00348005
886 1 11.3517 0.000752834 8.00763 0.00434112 -0.00120011 -0.0053043
887 1 12.5998 1.24395 9.76214 -0.0111609 0.00139653 -0.00726965
888 1 13.8483 22.6607 8.0036 -0.000456288 0.00714826 -0.00102287
889 1 0.0200872 17.6014 7.16761 0.00243932 0.00143682 -0.00139968
890 1 0.0661982 18.8634 9.81914 0.00142999 -0.00842341 -0.000482724
891 1 0.00987364 16.4123 9.83454 0.00286753 0.00869429 -0.00656095
892 1 1.24387 17.6151 8.03596 0.0032331 0.00407947 -0.00442642
893 1 0.0314976 15.0624 7.22268 0.00769366 -0.00218814 -0.000499652
894 1 1.2722 16.3673 8.96497 0.00199513 0.0117505 0.0020157
895 1 1.30237 13.8463 8.96271 0.000349114 0.00176608 0.00187835
896 1 2.57736 15.1287 7.14035 -0.00672497 -0.00685371 0.0011951
897 1 1.3653 15.0932 8.09978 0.0023216 -0.00189937 0.00294366
898 1 2.5515 16.3545 9.88845 0.0101008 9.18473e-05 0.000130964
899 1 2.54501 13.8252 9.78254 -0.00323052 0.00683716 0.00169572
900 1 3.77652 15.0253 8.06163 0.00459061 -0.000767827 0.000191623
901 1 2.53684 12.6 7.09891 -0.00820103 0.00625258 -0.00147738
902 1 3.82799 13.7654 8.88284 0.00205423 0.00616744 -0.00555336
903 1 3.7535 11.3195 8.97522 -0.00586209 0.00463725 -0.000342158
904 1 5.07169 12.5968 7.13422 0.00170787 0.00928666 -0.00137776
905 1 3.88088 12.5532 8.01858 0.000704201 -0.00337745 0.00300506
906 1 5.08282 13.862 9.83696 0.00781748 -0.00294251 0.00274653
907 1 5.02098 11.3278 9.87615 0.00256551 0.00014922 -0.0010234
908 1 6.32548 12.5994 7.99022 -0.00401092 0.000368918 -0.00227619
909 1 5.05597 10.0791 7.17687 -0.00561641 -0.00586736 -0.00120364
910 1 6.25282 11.3404 8.94197 -0.000180183 -0.00222279 0.00294079
911 1 6.32018 8.87633 8.95965 0.00495466 0.00227217 0.00517083
912 1 7.61937 10.1143 7.13319 9.46633e-05 -0.00211287 0.0019688
913 1 6.33959 10.0953 8.03667 0.00293639 0.00513032 -0.00204762
914 1 7.48736 11.4235 9.83212 -0.00444311 0.00632419 -0.00317217
915 1 7.59381 8.83908 9.88427 0.00551233 0.00229392 0.00374254
916 1 8.88798 10.1178 8.08694 -0.00525758 -0.00263021 -0.00204557
917 1 7.57418 7.66961 7.16023 0.0011324 0.00586448 -0.00997069
918 1 8.8602 8.87359 8.9589 -0.00648907 3.66825e-05 -0.00611214
919 1 8.78095 6.37479 8.95028 -0.00592854 8.61007e-05 -0.0119426
920 1 10.0773 7.57279 7.12028 0.00236392 0.00958484 -0.00203928
921 1 8.79583 7.59765 8.02678 -0.001469 -0.000514918 0.00137126
922 1 10.1051 8.85345 9.86962 0.00514446 0.00153333 -0.00646763
923 1 10.0771 6.31656 9.81896 -0.00413552 0.00746604 -0.00425471
924 1 11.3071 7.54859 8.00911 -0.00267415 -0.000428603 -0.00139769
925 1 10.0563 5.01561 7.16611 -0.00294377 -0.00109968 -0.000195588
926 1 11.3182 6.26787 9.00804 -0.00796109 -0.00260689 0.0105515
927 1 11.3335 3.7667 8.95591 -0.00802542 0.000593164 0.0066448
928 1 12.6095 5.00974 7.19044 -0.00661344 0.00395773 0.00954066
929 1 11.3184 5.07482 8.07593 -0.00833791 -0.00427222 0.00540919
930 1 12.5562 6.30942 9.86181 -0.00632969 -0.000919503 -0.00767174
931 1 12.5894 3.78851 9.88625 0.00848369 -0.00271047 -0.00365539
932 1 13.8604 5.0305 8.10324 -0.0144494 0.000152583 -0.0017767
933 1 12.6 2.46175 7.15306 4.43392e-05 0.00518352 -0.00207781
934 1 13.8379 3.72434 8.95015 -0.000905265 9.54266e-05 0.00291153
935 1 13.8587 1.1998 8.95019 0.0102123 0.00217961 -0.00200764
936 1 15.076 2.4857 7.12085 0.00256496 0.00211397 -0.0048984
937 1 13.8242 2.47573 8.03998 -0.00438807 -0.00794032 -0.000985244
938 1 15.1933 3.72846 9.8351 0.000609264 0.00307346 -0.0060452
939 1 15.1117 1.20612 9.80609 0.000448591 -0.0115726 -0.0110673
940 1 16.3901 2.45258 8.01205 0.00669424 -0.00261977 -0.000238272
941 1 15.101 22.6424 7.07757 0.00318226 -0.00937324 -0.00881646
942 1 16.3663 1.24078 8.89169 0.00229295 0.00706046 0.00415714
943 1 17.6519 22.6128 7.10003 -0.00304959 -0.00392985 -0.000273458
944 1 16.3707 22.6787 7.99589 0.00557536 0.00414979 0.00749597
945 1 17.6437 1.27127 9.83818 -5.24467e-05 0.00599174 0.00578345
946 1 18.866 22.6632 7.97489 -0.0069068 -0.012917 0.00476763
947 1 22.6787 21.3679 9.85516 -0.00204201 -0.00449161 -0.00131583
948 1 0.0222404 20.1708 7.14733 0.0078189 -0.00185072 -0.00279753
949 1 1.24823 21.4026 8.97558 -0.00674883 -0.00204845 0.00137891
950 1 1.28453 18.9095 8.95131 -0.0042683 0.00244736 -0.00524213
951 1 2.51293 20.1718 7.11724 0.0027118 -0.00151577 -0.00346752
952 1 1.23225 20.1957 8.02694 -0.00171249 -0.000493701 -0.00244004
953 1 2.56601 21.3657 9.86751 0.000717393 0.00868184 -0.00409515
954 1 2.5552 18.9342 9.83541 -0.000352217 -0.00526225 0.000792511
955 1 3.77665 20.1414 8.03379 -0.001426 -0.00384567 0.00143424
956 1 2.5783 17.6495 7.16057 -0.00372508 0.000103449 0.00200696
957 1 3.79015 18.8976 8.95551 -0.014996 0.00232247 -0.00480029
958 1 3.77927 16.3078 8.91006 -0.00169692 -0.00231602 -0.00776949
959 1 5.0589 17.5906 7.09537 0.00185889 -0.000422637 0.00577548
960 1 3.80625 17.607 8.0449 -0.00751977 -0.000534837 -0.00230511
961 1 5.08894 18.8436 9.77503 -0.00457281 -0.000735571 -0.00739871
962 1 5.07696 16.3352 9.78755 -0.00511615 -0.000297968 -0.00223448
963 1 6.34102 17.6185 8.03529 0.00776125 -0.00425323 0.00297241
964 1 4.98697 15.1148 7.06596 -0.0104033 0.00540108 -0.00635362
965 1 6.32066 16.372 8.90243 -0.00639538 0.000731751 0.000397437
966 1 6.32881 13.873 8.91951 -0.0017462 0.00304837 -0.00536867
967 1 7.55261 15.0684 7.15373 -0.00398542 0.00574594 0.00590127
968 1 6.2845 15.1386 7.99166 0.00251506 0.00276727 -0.00304705
969 1 7.55772 16.3834 9.81561 0.00866228 -0.000365084 0.00126927
970 1 7.56409 13.8631 9.85067 0.00217374 0.000627867 0.00638534
971 1 8.86402 15.1397 8.04084 -0.000435698 -0.000646821 0.0031025
972 1 7.60656 12.6344 7.08569 0.00627882 0.00204738 -0.00897218
973 1 8.82911 13.8918 8.94865 0.00405739 0.0020247 -0.00837661
974 1 8.85757 11.3954 8.89891 -0.00135393 -0.00334662 -0.000767784
975 1 10.0965 12.5625 7.10728 0.00263724 0.0123587 -0.00358619
976 1 8.85513 12.628 8.03209 0.00356965 -0.00515385 0.00377217
977 1 10.0816 13.9254 9.90298 0.00151097 0.00518207 -0.000868259
978 1 10.0507 11.3867 9.84231 -0.00107219 -0.0114013 -0.00544757
979 1 11.3589 12.576 8.05798 -0.00366349 -0.00635775 0.00496371
980 1 10.1036 10.1117 7.12351 -0.00838803 0.00419175 -0.00529534
981 1 11.3582 11.3213 8.94611 0.00865084 -0.00219326 -0.00143329
982 1 11.3615 8.80267 8.95164 -0.00414219 -0.00302892 0.00152571
983 1 12.5333 10.0498 7.10502 -0.00686435 0.00132517 0.00296815
984 1 11.3466 10.0499 8.0171 -0.00847252 0.00290488 -0.00108202
985 1 12.6078 11.2835 9.82528 0.00598416 -0.00275187 0.00200782
986 1 12.6066 8.8394 9.85774 0.00412117 0.00679674 -0.00257053
987 1 13.8031 10.1237 8.03945 0.00402832 -0.00183274 0.000248079
988 1 12.6507 7.54826 7.18263 0.000947896 -0.00723978 0.0035088
989 1 13.9041 8.81732 8.96473 0.000214537 -0.000597676 0.00576312
990 1 13.8328 6.24801 9.00047 0.00415253 -0.000521631 -0.0064795
991 1 15.0996 7.60345 7.18868 0.00687039 0.00745586 0.0040375
992 1 13.8497 7.52568 8.06048 0.00276721 -0.000180474 -0.00311557
993 1 15.1495 8.79978 9.84157 -0.00264072 0.00374885 0.00568249
994 1 15.1548 6.34832 9.89461 -7.62854e-05 -0.00964287 0.00306687
995 1 16.4219 7.54189 8.05335 0.0037618 -0.00402022 -0.00554344
996 1 15.087 5.03284 7.21008 -0.000104816 -0.0105872 0.00290037
997 1 16.4154 6.29574 8.90185 0.00398778 0.00601001 0.00231829
998 1 16.3506 3.77426 8.90443 -0.00014277 -0.00264156 -0.00782885
999 1 17.6385 4.99826 7.10177 0.00203874 -0.00130668 0.00236923
1000 1 16.3713 4.99966 8.03508 0.00794706 -0.00138389 -0.00521005
1001 1 17.6834 6.26327 9.8101 0.00826126 -0.00232051 -0.00298526
1002 1 17.6579 3.72981 9.83728 0.00164338 -3.7927e-05 0.000921206
1003 1 18.9721 5.0554 8.03264 0.00465145 -0.00413407 0.0042077
1004 1 17.5694 2.4968 7.09758 0.00317861 0.0106822 -0.000724682
1005 1 18.9179 3.77392 8.93421 0.00357497 -0.00213816 -0.0096393
1006 1 18.8658 1.29132 8.9489 0.00251935 0.00495412 0.00733039
1007 1 20.232 2.49534 7.15207 -0.00443388 -0.010348 7.02007e-05
1008 1 18.8817 2.504 8.002 -0.0049086 -0.00545385 -0.00937517
1009 1 20.1103 3.80984 9.91331 -0.00133378 -0.00710626 0.00721178
1010 1 20.1622 1.26844 9.8006 -0.008028 0.00607645 -0.00793006
1011 1 21.3891 2.51376 8.10215 -0.000170145 0.000593079 0.000919528
1012 1 20.1686 22.669 7.08899 -0.000243022 0.0035936 0.0012689
1013 1 21.4383 1.25907 8.95567 0.00335411 0.00839959 -0.00182563
1014 1 21.4514 0.0181141 8.03227 0.00190562 -0.00540473 -0.00821427
1015 1 3.80084 21.4289 8.90175 0.00315625 -0.000850242 0.0018869
1016 1 5.04165 21.4133 9.86309 0.000936803 0.00424949 0.00195541
1017 1 5.07416 20.1672 7.15117 0.0107313 0.00427522 0.000563362
1018 1 6.32962 21.4271 8.88814 -0.00413716 -0.0010777 0.000119237
1019 1 6.37593 18.8632 8.96096 0.00687399 -0.00650628 0.00123746
1020 1 7.57315 20.1957 7.16617 4.83571e-05 0.00602133 0.00205876
1021 1 6.31426 20.1138 8.05579 -0.00633898 -0.00832843 -0.00314769
1022 1 7.56821 21.388 9.85977 0.00593016 -0.0013638 -0.00570472
1023 1 7.57438 18.9875 9.86552 0.00358786 -0.00114489 0.00551268
1024 1 8.83078 20.1797 8.05179 -0.00156886 -0.00314368 0.00673141
1025 1 7.62504 17.6329 7.09941 -0.000339758 -0.00922411 -0.00534274
1026 1 8.82442 18.9626 8.94226 0.00357063 0.00200586 0.000234291
1027 1 8.78728 16.4467 8.90614 0.00390768 -0.00254646 -0.00313735
1028 1 10.1409 17.6613 7.11621 0.00181553 0.00445945 -0.00576892
1029 1 8.78869 17.6736 8.02052 -0.0042676 0.000419795 -0.00116311
1030 1 10.077 19.0097 9.81981 0.00480313 -0.000456893 0.00496854
1031 1 10.0256 16.4139 9.8704 -0.00995627 0.00691379 -0.00644008
1032 1 11.3468 17.6398 7.99776 -0.00491712 0.000557728 0.00297745
1033 1 10.1074 15.1499 7.1167 0.00428711 -0.00449337 -0.00399297
1034 1 11.304 16.4338 8.8964 0.00733389 0.00674501 0.00514764
1035 1 11.326 13.8805 8.99568 0.00715774 0.00310677 -0.00393596
1036 1 12.609 15.156 7.12916 -0.00215166 0.00613 -0.0047913
1037 1 11.3419 15.1515 8.07717 -0.00367523 -0.00705069 -0.00408543
1038 1 12.6013 16.4182 9.81756 0.000942579 0.00465493 -0.000175602
1039 1 12.6351 13.873 9.90101 0.00152609 0.00140059 0.0014041
1040 1 13.927 15.1625 8.04998 -0.00839492 0.000475479 0.000959894
1041 1 12.6036 12.6459 7.181 -0.000398252 0.0142922 0.00494949
1042 1 13.8713 13.9048 8.98404 0.00615308 0.00104071 -0.00493743
1043 1 13.8948 11.3235 8.95649 -0.000647142 0.00325777 -0.00614225
1044 1 15.0556 12.572 7.13877 -0.00309814 0.00088136 0.00387836
1045 1 13.879 12.6254 8.06386 -0.00660261 -0.00688634 -0.00536901
1046 1 15.1381 13.8851 9.84177 0.00162636 0.0105828 0.000458765
1047 1 15.1453 11.3453 9.89858 0.00299094 -0.000536301 0.00235861
1048 1 16.4296 12.6301 8.03891 0.00430912 0.00277244 -0.00346184
1049 1 15.0886 10.1136 7.18213 0.00162679 0.00136603 0.0017431
1050 1 16.3836 11.3954 8.9424 0.00651148 -0.00206545 0.00147102
1051 1 16.3974 8.80679 8.94699 0.00338561 0.000719954 0.00261208
1052 1 17.6253 10.0802 7.18567 -0.000767172 0.00208042 -0.0087346
1053 1 16.3849 10.1027 8.09454 -0.00031863 0.0111468 -0.00942587
1054 1 17.6665 11.3157 9.88752 -0.0124587 -0.00288824 -0.00945739
1055 1 17.6494 8.86835 9.83212 0.01047 0.00185983 -0.00612425
1056 1 18.9062 10.1227 8.0346 0.000749614 0.00319793 -0.000365291
1057 1 17.7311 7.54553 7.16789 -0.00156246 -0.00412395 -0.000702455
1058 1 18.9636 8.84791 8.90562 0.00187762 -0.0039259 -0.00754292
1059 1 18.9317 6.26138 8.95216 0.0106174 0.00180598 -0.000144326
1060 1 20.202 7.52 7.11229 -0.00179597 0.00221883 0.00169133
1061 1 19.0097 7.57735 7.99715 -0.00475005 9.79852e-05 -0.00124404
1062 1 20.1672 8.82473 9.84429 -0.0113603 -0.00569246 0.00596291
1063 1 20.131 6.3294 9.82115 -0.0043371 -0.0037801 -0.00317052
1064 1 21.3777 7.57249 7.98845 0.0012105 -0.0047844 0.00184027
1065 1 20.1793 5.04767 7.15187 0.00354896 -0.00477206 0.00078695
1066 1 21.4061 6.29532 8.92431 -0.00354579 0.00188535 0.00230041
1067 1 21.4231 3.7951 9.00266 -0.00443327 -0.000849276 -0.00386168
1068 1 21.4045 5.00633 8.07046 0.0019468 0.00462109 0.00177501
1069 1 8.81909 21.4439 8.91489 -0.00344521 -0.000613751 -6.13027e-05
1070 1 10.0288 21.4041 9.80432 -0.00478333 0.00277904 -0.00576048
1071 1 10.1335 20.1916 7.13493 -0.00642242 -0.00651532 -0.00368464
1072 1 11.2886 21.4459 8.87665 0.00471078 0.00201991 -0.0013006
1073 1 11.3289 18.9517 8.93715 0.00143078 -0.00104345 0.00532623
1074 1 12.5934 20.1706 7.14624 -0.00571906 0.00396612 -0.00241515
1075 1 11.381 20.1764 8.03494 0.00729843 -0.00326371 0.0025862
1076 1 12.5667 21.3974 9.80077 0.00158414 0.00351715 0.0034132
1077 1 12.6048 18.9623 9.89025 -0.00900905 6.07195e-05 -0.00300074
1078 1 13.8995 20.1847 8.01029 -0.00457157 0.00475431 -0.00472151
1079 1 12.6276 17.68 7.09664 0.00314839 -0.0021853 -0.00127782
1080 1 13.8916 18.9236 8.97257 0.00359389 0.00522291 0.000710171
1081 1 13.8558 16.4217 8.98044 -0.00436856 0.00635239 -0.0102671
1082 1 15.1654 17.679 7.12869 0.00689181 -0.00185288 -0.00581997
1083 1 13.9411 17.6948 8.10302 -0.000559136 0.0036869 -0.00172601
1084 1 15.1509 18.9381 9.82704 -0.00133016 0.00548709 0.000549347
1085 1 15.1631 16.4443 9.8529 -0.0111649 -0.00333052 0.00411078
1086 1 16.3769 17.6745 8.03456 -0.000843267 0.0117839 0.00112445
1087 1 15.1786 15.1337 7.15951 -0.00276497 0.0036629 -0.000703639
1088 1 16.3965 16.3968 8.95131 -0.00854071 0.00686735 0.0012088
1089 1 16.4178 13.9198 8.96091 -0.00170421 -0.00123332 -0.00617391
1090 1 17.6428 15.1402 7.14076 0.00164009 -2.19952e-06 -0.000237716
1091 1 16.3987 15.1253 8.0154 0.000921425 -0.00151011 0.00187631
1092 1 17.714 16.3929 9.83816 0.00240141 0.00799947 -0.0052503
1093 1 17.685 13.9305 9.83207 0.000359283 0.00773461 -0.0014588
1094 1 18.8951 15.1095 8.04012 -0.00295329 0.00161697 -0.000389523
1095 1 17.6498 12.5864 7.12017 0.00532957 0.00792381 -0.00440158
1096 1 18.9298 13.8521 8.89444 0.00438572 -0.00550257 -0.00371902
1097 1 18.9237 11.3615 8.94544 -0.00557854 -0.00318023 -0.00547981
1098 1 20.1478 12.6256 7.12547 0.0050981 -0.000711978 -0.00499664
1099 1 18.9224 12.655 8.03748 0.00174111 -0.00290884 -0.00224656
1100 1 20.2682 13.8614 9.88027 -0.00108501 -0.00624661 -0.00369978
1101 1 20.1801 11.3431 9.80875 0.0104801 0.00215093 0.00516148
1102 1 21.4779 12.5957 8.0332 -0.00342834 -0.00277183 -0.00355974
1103 1 20.2033 10.118 7.12357 -0.00638856 -0.00469628 -0.0109976
1104 1 21.4666 11.3595 8.91868 0.00459685 0.00393939 0.00318154
1105 1 21.4847 8.77879 8.89185 -0.00580257 0.00137409 0.00444186
1106 1 21.4347 10.0334 8.0201 0.00430409 0.00349881 0.0017794
1107 1 13.7917 21.4279 8.85106 -0.00490045 0.00763217 0.00608603
1108 1 15.1706 21.4508 9.79914 -0.0051254 -0.00200303 0.00377929
1109 1 15.1376 20.173 7.16833 -0.000230842 0.000296611 -0.00958081
1110 1 16.4172 21.4311 8.90046 0.00226295 0.00333069 0.00412932
1111 1 16.412 18.8714 8.94787 0.000472447 -0.000459679 -0.00224293
1112 1 17.6009 20.1076 7.16872 0.000987346 0.00712976 -0.00131632
1113 1 16.3808 20.1986 8.05705 -0.0025136 -0.00496087 0.00141768
1114 1 17.6857 21.4993 9.82405 0.00136724 0.00939529 0.00537376
1115 1 17.6115 18.9398 9.83943 0.00117799 0.00535264 0.00454096
1116 1 18.9221 20.2008 8.03587 -0.00243934 0.00666869 3.74978e-05
1117 1 17.608 17.6268 7.18802 0.0016459 0.00553907 -0.000802167
1118 1 18.9048 18.9243 8.97952 -0.0013516 -0.00799402 0.00545667
1119 1 18.9187 16.4034 8.98297 0.00243171 -0.00599826 -0.00325599
1120 1 20.1311 17.6255 7.17874 0.00185616 -0.00941026 0.00457561
1121 1 18.9015 17.6649 8.06967 -0.00204293 0.000213189 0.00385589
1122 1 20.1891 18.9551 9.81687 -0.00722014 0.00339567 0.00437191
1123 1 20.2164 16.3515 9.90817 0.00366971 0.00183581 0.00993035
1124 1 21.4295 17.6092 8.06335 0.00774077 0.00755515 0.00867445
1125 1 20.1726 15.1039 7.12627 -0.000499088 -0.00549537 -0.00116719
1126 1 21.5064 16.4284 8.93501 0.00320793 -0.0036387 -0.000191078
1127 1 21.4416 13.8526 8.96 -0.00401152 -0.000230645 0.0063177
1128 1 21.4468 15.095 8.0592 -0.0107437 0.00301223 0.010021
1129 1 18.9226 21.415 8.90318 -0.00222776 -0.00296723 0.00743923
1130 1 20.1596 21.3837 9.81167 -0.0015706 -0.00172474 -0.00160332
1131 1 20.1471 20.2199 7.14398 -0.00316761 -0.00364176 -0.00196687
1132 1 21.4055 21.4163 8.92346 0.00471158 -0.00149487 -0.00142781
1133 1 21.4428 18.9463 8.89528 -0.00196435 0.0111646 -0.00414025
1134 1 21.4455 20.1638 7.97445 0.00137972 -0.00164182 -0.00276514
1135 1 0.050846 2.50615 10.7371 0.00495178 0.0004775 0.000415205
1136 1 22.5943 22.6671 10.7657 0.00136681 -0.00371059 0.00830623
1137 1 2.45928 22.6626 10.7017 0.00635196 0.00316872 -0.0079896
1138 1 0.0417401 7.56148 10.7677 -0.00540266 -0.00180821 0.000850895
1139 1 22.6525 5.02181 10.7864 -0.000500925 0.00467877 -0.00423947
1140 1 2.46077 5.04812 10.684 -0.00391751 0.00709096 -0.0119718
1141 1 2.51107 2.51533 10.7167 -0.00291035 0.0104099 -0.00472789
1142 1 5.07755 2.49115 10.8351 -0.00361029 -0.0071034 0.00381153
1143 1 5.04357 22.6136 10.7414 0.00621108 0.00614529 -0.00432647
1144 1 7.61946 22.6288 10.7174 -0.00835745 -0.00944085 -0.00309118
1145 1 0.0576402 12.5478 10.7083 0.00515486 -0.00708752 -0.0110909
1146 1 0.064953 10.0683 10.6968 -0.000896096 0.00134329 -0.000659601
1147 1 2.51755 10.0447 10.7552 -0.00620987 0.00432822 -0.00189339
1148 1 2.56087 7.54826 10.7504 -0.00258429 -0.00223709 -0.000104433
1149 1 5.0369 7.50703 10.7127 0.00253827 0.00662156 -0.00764607
1150 1 5.04142 5.03475 10.6823 -0.0024994 -0.00335217 0.00325656
1151 1 7.57106 5.06119 10.6815 -0.00632345 0.00361398 -0.00539849
1152 1 7.60407 2.46247 10.8179 0.00291241 0.00244279 -0.0094051
1153 1 10.1155 2.51986 10.7423 0.000405046 0.00257353 -0.000458349
1154 1 10.1995 22.689 10.7164 0.00728286 -0.00597325 0.00335145
1155 1 12.6376 22.6471 10.7156 0.000635631 0.000143387 0.0040245
1156 1 0.0507772 17.6405 10.7146 -0.00810205 0.00461733 0.00900392
1157 1 0.00939536 15.1343 10.8198 -0.00202704 0.00133596 -0.0010604
1158 1 2.58959 15.0334 10.7121 -0.00637265 -0.00643143 0.00541284
1159 1 2.56912 12.596 10.6859 0.0020862 0.00707717 0.00321501
1160 1 5.11267 12.597 10.7542 0.00578491 -0.00151218 0.00742684
1161 1 5.01557 10.0472 10.7031 -0.00538829 0.00444294 0.00150848
1162 1 7.56603 10.1322 10.7323 0.0066099 -0.001874 -0.00535198
1163 1 7.52567 7.54459 10.7461 -0.00458271 -0.00432045 0.0011097
1164 1 10.069 7.55583 10.7577 0.00217209 0.00999527 -0.00285421
1165 1 10.0969 5.03346 10.7427 0.00371105 0.00628499 -0.00179215
1166 1 12.5687 5.02923 10.7535 0.00250441 -0.000656394 -0.00212093
1167 1 12.5772 2.53501 10.7233 0.00157356 0.00195226 -0.00607267
1168 1 15.1662 2.54068 10.782 0.00746054 0.0031301 0.0056865
1169 1 15.1531 0.0198939 10.7478 -0.00537203 0.00396559 -0.00210392
1170 1 17.7267 22.6711 10.7126 -0.00317624 -0.00374895 -0.0059568
1171 1 0.032853 20.1523 10.7479 -0.00116469 0.00173844 -0.00126607
1172 1 2.56395 20.1188 10.7926 -0.00606458 0.00106588 -0.000961863
1173 1 2.57745 17.668 10.7683 0.00582746 -0.00244874 0.000954486
1174 1 5.06165 17.6088 10.6649 0.00244756 0.00360236 -0.00393199
1175 1 5.17868 15.1123 10.7373 -0.00541449 -0.0092675 -0.00328916
1176 1 7.63352 15.1338 10.7016 -0.00163606 0.00125595 0.000940799
1177 1 7.52754 12.6374 10.7283 -0.000906584 -0.00556722 -0.00979229
1178 1 10.0828 12.6532 10.7369 -0.00620568 0.00489115 -0.00135538
1179 1 10.076 10.0874 10.7767 -0.00250682 0.00144018 0.00471124
1180 1 12.6506 10.1033 10.7276 0.00440382 -0.00584008 -0.00259596
1181 1 12.5607 7.55226 10.69 0.000599022 -0.0080668 0.00192003
1182 1 15.1759 7.54123 10.7484 0.00079259 0.0010155 0.00219192
1183 1 15.0807 4.98477 10.7098 0.00231597 0.00424781 -0.00425589
1184 1 17.5645 4.98968 10.6953 0.000374557 0.000700243 -0.00102483
1185 1 17.6869 2.5211 10.7289 -0.0022352 -0.0151904 -0.00555711
1186 1 20.1763 2.57847 10.797 -0.00334904 0.00265524 -0.00788476
1187 1 20.187 22.6899 10.695 0.00786429 -0.00475112 -0.00447853
1188 1 5.11876 20.1325 10.6918 -0.0011373 -0.00794857 -0.00255243
1189 1 7.57721 20.1491 10.7617 -0.00290996 0.00353016 0.0033228
1190 1 7.52916 17.6767 10.7937 0.0015006 -0.00538616 0.000138693
1191 1 10.0129 17.7383 10.7185 0.00495361 0.0032693 -0.000201356
1192 1 10.159 15.1991 10.7181 -0.00337498 -0.00256523 -0.00860264
1193 1 12.6051 15.2105 10.7599 0.00470806 -0.00647357 -0.00140452
1194 1 12.6188 12.5616 10.7206 0.00180089 0.00107664 0.00330065
1195 1 15.1617 12.5525 10.7411 0.00606406 -0.0100687 0.000913607
1196 1 15.1586 10.0564 10.7024 0.00384376 -0.000875889 0.00132643
1197 1 17.6447 10.0979 10.715 -0.0046413 0.00707297 0.00303384
1198 1 17.6421 7.60764 10.6979 0.00739543 -0.00915313 -0.000667061
1199 1 20.1921 7.61364 10.6979 0.00726224 0.00430978 0.00570775
1200 1 20.1305 5.11295 10.7653 -0.000819468 -0.004026 -0.00219775
1201 1 10.1444 20.2625 10.7629 0.0079604 -0.00545086 0.0017689
1202 1 12.6274 20.1993 10.7288 0.00393002 -0.000158164 0.00190928
1203 1 12.5955 17.6976 10.7238 -0.00079267 -0.00473637 -0.0104446
1204 1 15.1356 17.6774 10.7631 0.0115778 -0.000761376 0.00125677
1205 1 15.1881 15.1158 10.7746 -0.00345721 -0.0049831 0.0107816
1206 1 17.6483 15.1666 10.7734 -0.00951445 -0.00426947 0.0102126
1207 1 17.6916 12.5971 10.7259 -0.00027062 0.00434406 0.0123731
1208 1 20.1991 12.6176 10.7319 -0.00535994 0.00268862 0.000533129
1209 1 20.2135 10.121 10.7653 -0.00100812 0.00277455 -0.0131478
1210 1 15.1593 20.2382 10.6268 -0.00578817 -0.00766329 -0.000719578
1211 1 17.6563 20.2497 10.7379 0.00538971 -0.0118565 0.0116598
1212 1 17.652 17.6678 10.7272 0.000516853 0.00408846 -0.00114785
1213 1 20.1643 17.6259 10.7261 0.0067988 0.00263455 0.00286764
1214 1 20.1438 15.158 10.7288 0.0114843 0.00216094 -0.00627052
1215 1 20.2025 20.1384 10.7059 -0.00811471 -0.000729437 -0.00565345
1216 3 21.4294 2.52111 11.5056 0 0 0
1217 3 21.4294 4.81713e-08 11.5056 0 0 0
1218 3 1.26055 2.22952e-08 11.5056 0 0 0
1219 3 21.4294 7.56333 11.5056 0 0 0
1220 3 21.4294 5.04222 11.5056 0 0 0
1221 3 1.26055 5.04222 11.5056 0 0 0
1222 3 1.26055 2.52111 11.5056 0 0 0
1223 3 3.78166 2.52111 11.5056 0 0 0
1224 3 3.78166 2.99699e-08 11.5056 0 0 0
1225 3 6.30277 6.17875e-08 11.5056 0 0 0
1226 3 21.4294 12.6055 11.5056 0 0 0
1227 3 21.4294 10.0844 11.5056 0 0 0
1228 3 1.26055 10.0844 11.5056 0 0 0
1229 3 1.26055 7.56333 11.5056 0 0 0
1230 3 3.78166 7.56333 11.5056 0 0 0
1231 3 3.78166 5.04222 11.5056 0 0 0
1232 3 6.30277 5.04222 11.5056 0 0 0
1233 3 6.30277 2.52111 11.5056 0 0 0
1234 3 8.82388 2.52111 11.5056 0 0 0
1235 3 8.82388 6.74308e-08 11.5056 0 0 0
1236 3 11.345 4.45433e-08 11.5056 0 0 0
1237 3 21.4294 17.6478 11.5056 0 0 0
1238 3 21.4294 15.1267 11.5056 0 0 0
1239 3 1.26055 15.1267 11.5056 0 0 0
1240 3 1.26055 12.6055 11.5056 0 0 0
1241 3 3.78166 12.6055 11.5056 0 0 0
1242 3 3.78166 10.0844 11.5056 0 0 0
1243 3 6.30277 10.0844 11.5056 0 0 0
1244 3 6.30277 7.56333 11.5056 0 0 0
1245 3 8.82388 7.56333 11.5056 0 0 0
1246 3 8.82388 5.04222 11.5056 0 0 0
1247 3 11.345 5.04222 11.5056 0 0 0
1248 3 11.345 2.52111 11.5056 0 0 0
1249 3 13.8661 2.52111 11.5056 0 0 0
1250 3 13.8661 3.60068e-08 11.5056 0 0 0
1251 3 16.3872 5.41821e-08 11.5056 0 0 0
1252 3 21.4294 20.1689 11.5056 0 0 0
1253 3 1.26055 20.1689 11.5056 0 0 0
1254 3 1.26055 17.6478 11.5056 0 0 0
1255 3 3.78166 17.6478 11.5056 0 0 0
1256 3 3.78166 15.1267 11.5056 0 0 0
1257 3 6.30277 15.1267 11.5056 0 0 0
1258 3 6.30277 12.6055 11.5056 0 0 0
1259 3 8.82388 12.6055 11.5056 0 0 0
1260 3 8.82388 10.0844 11.5056 0 0 0
1261 3 11.345 10.0844 11.5056 0 0 0
1262 3 11.345 7.56333 11.5056 0 0 0
1263 3 13.8661 7.56333 11.5056 0 0 0
1264 3 13.8661 5.04222 11.5056 0 0 0
1265 3 16.3872 5.04222 11.5056 0 0 0
1266 3 16.3872 2.52111 11.5056 0 0 0
1267 3 18.9083 2.52111 11.5056 0 0 0
1268 3 18.9083 6.56486e-08 11.5056 0 0 0
1269 3 3.78166 20.1689 11.5056 0 0 0
1270 3 6.30277 20.1689 11.5056 0 0 0
1271 3 6.30277 17.6478 11.5056 0 0 0
1272 3 8.82388 17.6478 11.5056 0 0 0
1273 3 8.82388 15.1267 11.5056 0 0 0
1274 3 11.345 15.1267 11.5056 0 0 0
1275 3 11.345 12.6055 11.5056 0 0 0
1276 3 13.8661 12.6055 11.5056 0 0 0
1277 3 13.8661 10.0844 11.5056 0 0 0
1278 3 16.3872 10.0844 11.5056 0 0 0
1279 3 16.3872 7.56333 11.5056 0 0 0
1280 3 18.9083 7.56333 11.5056 0 0 0
1281 3 18.9083 5.04222 11.5056 0 0 0
1282 3 8.82388 20.1689 11.5056 0 0 0
1283 3 11.345 20.1689 11.5056 0 0 0
1284 3 11.345 17.6478 11.5056 0 0 0
1285 3 13.8661 17.6478 11.5056 0 0 0
1286 3 13.8661 15.1267 11.5056 0 0 0
1287 3 16.3872 15.1267 11.5056 0 0 0
1288 3 16.3872 12.6055 11.5056 0 0 0
1289 3 18.9083 12.6055 11.5056 0 0 0
1290 3 18.9083 10.0844 11.5056 0 0 0
1291 3 13.8661 20.1689 11.5056 0 0 0
1292 3 16.3872 20.1689 11.5056 0 0 0
1293 3 16.3872 17.6478 11.5056 0 0 0
1294 3 18.9083 17.6478 11.5056 0 0 0
1295 3 18.9083 15.1267 11.5056 0 0 0
1296 3 18.9083 20.1689 11.5056 0 0 0
