LAMMPS (23 Jun 2022)
KOKKOS mode is enabled (src/KOKKOS/kokkos.cpp:105)
  will use up to 1 GPU(s) per node
WARNING: When using a single thread, the Kokkos Serial backend (i.e. Makefile.kokkos_mpi_only) gives better performance than the OpenMP backend (src/KOKKOS/kokkos.cpp:217)
  using 1 OpenMP thread(s) per MPI task
package kokkos
package kokkos neigh/qeq full neigh half newton on
units		real
include     config.lmp
# DiamondEtchMD generated config
# orientation=111  surface=2x1_single_O
# species=O  energy=0.5eV  angle=0.0deg  T=300.0K

variable    ML equal 90            # atoms per monolayer
variable    end_fluence equal 50   # in ML

variable    energ equal 0.5     # incident energy per atom (eV)
variable    angl equal 0.0       # incident particle angle (deg from normal)
variable    T equal 300.0    # substrate temperature (K)
variable    pot string REAX

variable    use_starting_data_file equal false
variable    starting_data_file string data.truncated

if "${pot} == REAX" then "variable    lat_a file lat_a.txt"
variable    lat_a file lat_a.txt

variable    x equal 5
variable    y equal 9
variable    lat_top equal 3
variable    z equal ${lat_top}+5
variable    z equal 3+5

variable    reconstruct equal false
variable    O_terminate equal true
variable    O_ether_terminate equal false

variable    i_above equal 6.0    # Å above surface to inject particle
variable    impact_time equal 2000.0
variable    thermalization_time equal 500.0

variable    M_C equal 12.011
variable    M_H equal 1.00784
variable    M_O equal 16.0
variable    M_Ar equal 39.948
variable    M_incident equal ${M_O}
variable    M_incident equal 16
variable    incident_type_index equal 3  # O

variable    seed_adjust equal 0
variable    simdepo equal 1
atom_style charge

boundary	p p m

variable    bottom equal -5/8 # edge is in the gap between layers to avoid flop issues
print       'BOTTOM ${bottom}'
BOTTOM -0.625

# Create the entire simulation space "big box" with 3 types of atoms (C, H, O)
lattice    diamond ${lat_a} orient z 1 1 1 orient x 2 -1 -1 orient y 0 1 -1 spacing $(3/sqrt(6)) $(1/sqrt(2)) $(sqrt(3)) origin 0 0 $(1*sqrt(3)/4)
lattice    diamond 3.5653871687699 orient z 1 1 1 orient x 2 -1 -1 orient y 0 1 -1 spacing $(3/sqrt(6)) $(1/sqrt(2)) $(sqrt(3)) origin 0 0 $(1*sqrt(3)/4)
lattice    diamond 3.5653871687699 orient z 1 1 1 orient x 2 -1 -1 orient y 0 1 -1 spacing 1.2247448713915891627 $(1/sqrt(2)) $(sqrt(3)) origin 0 0 $(1*sqrt(3)/4)
lattice    diamond 3.5653871687699 orient z 1 1 1 orient x 2 -1 -1 orient y 0 1 -1 spacing 1.2247448713915891627 0.70710678118654746172 $(sqrt(3)) origin 0 0 $(1*sqrt(3)/4)
lattice    diamond 3.5653871687699 orient z 1 1 1 orient x 2 -1 -1 orient y 0 1 -1 spacing 1.2247448713915891627 0.70710678118654746172 1.7320508075688771932 origin 0 0 $(1*sqrt(3)/4)
lattice    diamond 3.5653871687699 orient z 1 1 1 orient x 2 -1 -1 orient y 0 1 -1 spacing 1.2247448713915891627 0.70710678118654746172 1.7320508075688771932 origin 0 0 0.43301270189221929829
Lattice spacing in x,y,z = 4.3666896 2.5211094 6.1754317
variable   lat_ax equal ${lat_a}*(3/sqrt(6))
variable   lat_ax equal 3.5653871687699*(3/sqrt(6))
variable   lat_ay equal ${lat_a}*(1/sqrt(2))
variable   lat_ay equal 3.5653871687699*(1/sqrt(2))
variable   lat_az equal ${lat_a}*(sqrt(3))
variable   lat_az equal 3.5653871687699*(sqrt(3))
region     bbox block 0 $(v_x*2) 0 $(v_y*2) ${bottom} $(v_z) units lattice
region     bbox block 0 10 0 $(v_y*2) ${bottom} $(v_z) units lattice
region     bbox block 0 10 0 18 ${bottom} $(v_z) units lattice
region     bbox block 0 10 0 18 -0.625 $(v_z) units lattice
region     bbox block 0 10 0 18 -0.625 8 units lattice
create_box 3 bbox
Created orthogonal box = (0 0 -3.8596448) to (43.666896 45.37997 49.403454)
  1 by 1 by 1 MPI processor grid

# Create diamond cubic lattice in a subregion of bbox
region	        lbox block  -1e-6 ${x} -1e-6 ${y} ${bottom} ${lat_top} units lattice
region	        lbox block  -1e-6 5 -1e-6 ${y} ${bottom} ${lat_top} units lattice
region	        lbox block  -1e-6 5 -1e-6 9 ${bottom} ${lat_top} units lattice
region	        lbox block  -1e-6 5 -1e-6 9 -0.625 ${lat_top} units lattice
region	        lbox block  -1e-6 5 -1e-6 9 -0.625 3 units lattice
variable        sublat equal ${bottom}+1/2 # 2 layers == half a unit cell
variable        sublat equal -0.625+1/2 
region          anchor block INF INF INF INF ${bottom} ${sublat} units lattice # anchor bottom 2 layers
region          anchor block INF INF INF INF -0.625 ${sublat} units lattice 
region          anchor block INF INF INF INF -0.625 -0.125 units lattice 

if "${use_starting_data_file}" then     "read_data       ${starting_data_file} add merge"     "group carbon type 1"     "variable        n_lat_0  equal $(count(carbon)) # n_lat_0 is the starting number of carbon" else     "create_atoms    1 region lbox"     "variable        n_lat_0  equal $(12*v_x*v_y*v_lat_top) # 12 times the number of unit cells for 111"
create_atoms    1 region lbox
Created 2061 atoms
  using lattice units in orthogonal box = (0 0 -3.8596448) to (43.666896 45.37997 49.403454)
  create_atoms CPU = 0.004 seconds
variable        n_lat_0  equal $(12*v_x*v_y*v_lat_top) # 12 times the number of unit cells for 111
variable        n_lat_0  equal 1620 

set group all charge 0.0
Setting atom values ...
  2061 settings made for charge
print 'N_LAT_0 ${n_lat_0}'
N_LAT_0 1620

# Groups
group 	anchor region anchor
301 atoms in group anchor
group	insert empty
0 atoms in group insert
group 	mobile subtract all anchor
1760 atoms in group mobile
group   carbon type 1
2061 atoms in group carbon

# Particle masses
mass        1 ${M_C}
mass        1 12.011
mass        2 ${M_H}
mass        2 1.00784
mass        3 ${M_O}
mass        3 16

# Potential
pair_style reaxff NULL
pair_coeff * * ffield.reax C H O
Reading potential file ffield.reax with DATE: 2011-02-18
WARNING: Changed valency_val to valency_boc for X (src/REAXFF/reaxff_ffield.cpp:296)
fix reax_qeq all qeq/reaxff 1 0.0 6.0 1e-6 reaxff

change_box all x final 0 $(v_x) y final 0 $(v_y) z final ${bottom} $(v_z)
change_box all x final 0 5 y final 0 $(v_y) z final ${bottom} $(v_z)
change_box all x final 0 5 y final 0 9 z final ${bottom} $(v_z)
change_box all x final 0 5 y final 0 9 z final -0.625 $(v_z)
change_box all x final 0 5 y final 0 9 z final -0.625 8
Changing box ...
  orthogonal box = (0 0 -3.8596448) to (21.833448 45.37997 49.403454)
  orthogonal box = (0 0 -3.8596448) to (21.833448 22.689985 49.403454)
  orthogonal box = (0 0 -3.8596448) to (21.833448 22.689985 49.403454)
delete_atoms overlap $(sqrt(3)/8) all all
delete_atoms overlap 0.21650635094610964915 all all
System init for delete_atoms ...
Neighbor list info ...
  update every 1 steps, delay 10 steps, check yes
  max neighbors/atom: 2000, page size: 100000
  master list distance cutoff = 12
  ghost atom cutoff = 12
  binsize = 12, bins = 2 2 5
  3 neighbor lists, perpetual/occasional/extra = 2 1 0
  (1) command delete_atoms, occasional
      attributes: full, newton on
      pair build: full/bin/atomonly
      stencil: full/bin/3d
      bin: standard
  (2) pair reaxff/kk, perpetual
      attributes: half, newton off, ghost, kokkos_device
      pair build: half/bin/ghost/kk/device
      stencil: full/ghost/bin/3d
      bin: kk/device
  (3) fix qeq/reaxff/kk, perpetual
      attributes: full, newton off, kokkos_device
      pair build: full/bin/kk/device
      stencil: full/bin/3d
      bin: kk/device
WARNING: Fixes cannot yet send exchange data in Kokkos communication, switching to classic exchange/border communication (src/KOKKOS/comm_kokkos.cpp:581)
Deleted 171 atoms, new total = 1890

# 2x1 Single-Chain reconstruction: delete dangling top-layer atoms, displace second layer
if "!${use_starting_data_file}" then "variable row0 atom (round(x/${lat_ax}*2)%2==0)&&(z>((${lat_top}-1/4)*${lat_az}))" "variable row1 atom (round(x/${lat_ax}*2)%2==1)&&(z>((${lat_top}-1/4)*${lat_az}))" "group row0 variable row0" "group row1 variable row1" "delete_atoms group row0" "delete_atoms group row1" "group row0 clear" "group row1 clear" "variable row0 atom (round(x/${lat_ax}*2)%2==0)&&(z>((${lat_top}-1/2)*${lat_az}))&&(z<((${lat_top}-1/4)*${lat_az}))" "variable row1 atom (round(x/${lat_ax}*2)%2==1)&&(z>((${lat_top}-1/2)*${lat_az}))&&(z<((${lat_top}-1/4)*${lat_az}))" "group row0 variable row0" "group row1 variable row1" "displace_atoms row0 move 0.1 0 0 units lattice" "displace_atoms row1 move -0.1 0 0 units lattice" "variable row0 delete" "group row0 delete" "variable row1 delete" "group row1 delete"
variable row0 atom (round(x/${lat_ax}*2)%2==0)&&(z>((${lat_top}-1/4)*${lat_az}))
variable row0 atom (round(x/4.36668964947631*2)%2==0)&&(z>((${lat_top}-1/4)*${lat_az}))
variable row0 atom (round(x/4.36668964947631*2)%2==0)&&(z>((3-1/4)*${lat_az}))
variable row0 atom (round(x/4.36668964947631*2)%2==0)&&(z>((3-1/4)*6.17543172496362))
variable row1 atom (round(x/${lat_ax}*2)%2==1)&&(z>((${lat_top}-1/4)*${lat_az}))
variable row1 atom (round(x/4.36668964947631*2)%2==1)&&(z>((${lat_top}-1/4)*${lat_az}))
variable row1 atom (round(x/4.36668964947631*2)%2==1)&&(z>((3-1/4)*${lat_az}))
variable row1 atom (round(x/4.36668964947631*2)%2==1)&&(z>((3-1/4)*6.17543172496362))
group row0 variable row0
45 atoms in group row0
group row1 variable row1
45 atoms in group row1
delete_atoms group row0
Deleted 45 atoms, new total = 1845
delete_atoms group row1
Deleted 45 atoms, new total = 1800
group row0 clear
group row1 clear
variable row0 atom (round(x/${lat_ax}*2)%2==0)&&(z>((${lat_top}-1/2)*${lat_az}))&&(z<((${lat_top}-1/4)*${lat_az}))
variable row0 atom (round(x/4.36668964947631*2)%2==0)&&(z>((${lat_top}-1/2)*${lat_az}))&&(z<((${lat_top}-1/4)*${lat_az}))
variable row0 atom (round(x/4.36668964947631*2)%2==0)&&(z>((3-1/2)*${lat_az}))&&(z<((${lat_top}-1/4)*${lat_az}))
variable row0 atom (round(x/4.36668964947631*2)%2==0)&&(z>((3-1/2)*6.17543172496362))&&(z<((${lat_top}-1/4)*${lat_az}))
variable row0 atom (round(x/4.36668964947631*2)%2==0)&&(z>((3-1/2)*6.17543172496362))&&(z<((3-1/4)*${lat_az}))
variable row0 atom (round(x/4.36668964947631*2)%2==0)&&(z>((3-1/2)*6.17543172496362))&&(z<((3-1/4)*6.17543172496362))
variable row1 atom (round(x/${lat_ax}*2)%2==1)&&(z>((${lat_top}-1/2)*${lat_az}))&&(z<((${lat_top}-1/4)*${lat_az}))
variable row1 atom (round(x/4.36668964947631*2)%2==1)&&(z>((${lat_top}-1/2)*${lat_az}))&&(z<((${lat_top}-1/4)*${lat_az}))
variable row1 atom (round(x/4.36668964947631*2)%2==1)&&(z>((3-1/2)*${lat_az}))&&(z<((${lat_top}-1/4)*${lat_az}))
variable row1 atom (round(x/4.36668964947631*2)%2==1)&&(z>((3-1/2)*6.17543172496362))&&(z<((${lat_top}-1/4)*${lat_az}))
variable row1 atom (round(x/4.36668964947631*2)%2==1)&&(z>((3-1/2)*6.17543172496362))&&(z<((3-1/4)*${lat_az}))
variable row1 atom (round(x/4.36668964947631*2)%2==1)&&(z>((3-1/2)*6.17543172496362))&&(z<((3-1/4)*6.17543172496362))
group row0 variable row0
45 atoms in group row0
group row1 variable row1
45 atoms in group row1
displace_atoms row0 move 0.1 0 0 units lattice
Displacing atoms ...
displace_atoms row1 move -0.1 0 0 units lattice
Displacing atoms ...
variable row0 delete
group row0 delete
variable row1 delete
group row1 delete

if "${O_terminate} && !${use_starting_data_file}" then "variable term_top equal ${lat_top}+(1/8/${lat_az})" "variable term_bottom equal ${lat_top}" "region term block 0 ${x} 0 ${y} ${term_bottom} ${term_top} units lattice" "create_atoms 3 region term" "#variable row0 atom (round(x/${lat_ax}*2)%2==0)&&(z>((${lat_top})*${lat_az}))&&(z<((${lat_top}+1/4)*${lat_az}))" "#group row0 variable row0" "#delete_atoms group row0" "#group row0 clear" "group O type 3" "#displace_atoms O move 0.0 0.25 0.05 units lattice" "displace_atoms O move -0.15 -0.4 -0.06 units lattice" "group O delete"
variable term_top equal ${lat_top}+(1/8/${lat_az})
variable term_top equal 3+(1/8/${lat_az})
variable term_top equal 3+(1/8/6.17543172496362)
variable term_bottom equal ${lat_top}
variable term_bottom equal 3
region term block 0 ${x} 0 ${y} ${term_bottom} ${term_top} units lattice
region term block 0 5 0 ${y} ${term_bottom} ${term_top} units lattice
region term block 0 5 0 9 ${term_bottom} ${term_top} units lattice
region term block 0 5 0 9 3 ${term_top} units lattice
region term block 0 5 0 9 3 3.02024149979583 units lattice
create_atoms 3 region term
Created 90 atoms
  using lattice units in orthogonal box = (0 0 -3.8596448) to (21.833448 22.689985 49.403454)
  create_atoms CPU = 0.001 seconds
#variable row0 atom (round(x/${lat_ax}*2)%2==0)&&(z>((${lat_top})*${lat_az}))&&(z<((${lat_top}+1/4)*${lat_az}))
#group row0 variable row0
#delete_atoms group row0
#group row0 clear
group O type 3
90 atoms in group O
#displace_atoms O move 0.0 0.25 0.05 units lattice
displace_atoms O move -0.15 -0.4 -0.06 units lattice
Displacing atoms ...
group O delete

minimize 1.0e-5 1.0e-6 1000 10000

CITE-CITE-CITE-CITE-CITE-CITE-CITE-CITE-CITE-CITE-CITE-CITE-CITE

Your simulation uses code contributions which should be cited:

- pair reaxff command:

@Article{Aktulga12,
 author = {H. M. Aktulga, J. C. Fogarty, S. A. Pandit, A. Y. Grama},
 title = {Parallel reactive molecular dynamics: Numerical methods and algorithmic techniques},
 journal = {Parallel Computing},
 year =    2012,
 volume =  38,
 pages =   {245--259}
}

- fix qeq/reaxff command:

@Article{Aktulga12,
 author = {H. M. Aktulga, J. C. Fogarty, S. A. Pandit, A. Y. Grama},
 title = {Parallel reactive molecular dynamics: Numerical methods and algorithmic techniques},
 journal = {Parallel Computing},
 year =    2012,
 volume =  38,
 pages =   {245--259}
}

CITE-CITE-CITE-CITE-CITE-CITE-CITE-CITE-CITE-CITE-CITE-CITE-CITE

WARNING: Using 'neigh_modify every 1 delay 0 check yes' setting during minimization (src/min.cpp:187)
Neighbor list info ...
  update every 1 steps, delay 0 steps, check yes
  max neighbors/atom: 2000, page size: 100000
  master list distance cutoff = 12
  ghost atom cutoff = 12
  binsize = 12, bins = 2 2 5
  2 neighbor lists, perpetual/occasional/extra = 2 0 0
  (1) pair reaxff/kk, perpetual
      attributes: half, newton off, ghost, kokkos_device
      pair build: half/bin/ghost/kk/device
      stencil: full/ghost/bin/3d
      bin: kk/device
  (2) fix qeq/reaxff/kk, perpetual
      attributes: full, newton off, kokkos_device
      pair build: full/bin/kk/device
      stencil: full/bin/3d
      bin: kk/device
Per MPI rank memory allocation (min/avg/max) = 63.55 | 63.55 | 63.55 Mbytes
   Step          Temp          E_pair         E_mol          TotEng         Press          Volume    
         0   0             -318554.51      0             -318554.51      20753.965      26386.572    
        10   0             -323575.86      0             -323575.86      1743.2934      26386.572    
Loop time of 1.21429 on 1 procs for 10 steps with 1890 atoms

99.7% CPU use with 1 MPI tasks x 1 OpenMP threads

Minimization stats:
  Stopping criterion = energy tolerance
  Energy initial, next-to-last, final = 
     -318554.510796678  -323575.862522048  -323575.861369123
  Force two-norm initial, final = 1945.8917 190.35468
  Force max component initial, final = 108.9175 11.597926
  Final line search alpha, max atom move = 5.1391632e-10 5.9603632e-09
  Iterations, force evaluations = 10 65

MPI task timing breakdown:
Section |  min time  |  avg time  |  max time  |%varavg| %total
---------------------------------------------------------------
Pair    | 0.74507    | 0.74507    | 0.74507    |   0.0 | 61.36
Neigh   | 0          | 0          | 0          |   0.0 |  0.00
Comm    | 0.0010814  | 0.0010814  | 0.0010814  |   0.0 |  0.09
Output  | 0          | 0          | 0          |   0.0 |  0.00
Modify  | 0.43938    | 0.43938    | 0.43938    |   0.0 | 36.18
Other   |            | 0.02876    |            |       |  2.37

Nlocal:           1890 ave        1890 max        1890 min
Histogram: 1 0 0 0 0 0 0 0 0 0
Nghost:           6267 ave        6267 max        6267 min
Histogram: 1 0 0 0 0 0 0 0 0 0
Neighs:    1.31626e+06 ave 1.31626e+06 max 1.31626e+06 min
Histogram: 1 0 0 0 0 0 0 0 0 0
FullNghs:  1.91232e+06 ave 1.91232e+06 max 1.91232e+06 min
Histogram: 1 0 0 0 0 0 0 0 0 0

Total # of neighbors = 1912320
Ave neighs/atom = 1011.8095
Neighbor list builds = 0
Dangerous builds = 0
reset_timestep  0 time 0.0
write_data      111_2x1SC_0K.dat nofix nocoeff
System init for write_data ...

# initial thermalization w/ nose-hoover since it's easy
if "!${use_starting_data_file}" then "thermo          1000" "thermo_style    custom step time temp" "compute     	 mtemp mobile temp" "compute_modify  mtemp dynamic/dof yes" "thermo_modify   temp mtemp" "thermo_modify   lost warn flush yes" "velocity        mobile create ${T} 459087" "fix             1 mobile nvt temp $T $T $(100*dt)" "timestep        1" "run             10000" "unfix           1" "reset_timestep  0 time 0.0 # pretend this never happened"
thermo          1000
thermo_style    custom step time temp
compute     	 mtemp mobile temp
compute_modify  mtemp dynamic/dof yes
thermo_modify   temp mtemp
WARNING: Temperature for thermo pressure is not for group all (src/thermo.cpp:520)
thermo_modify   lost warn flush yes
velocity        mobile create ${T} 459087
velocity        mobile create 300 459087
fix             1 mobile nvt temp $T $T $(100*dt)
fix             1 mobile nvt temp 300 $T $(100*dt)
fix             1 mobile nvt temp 300 300 $(100*dt)
fix             1 mobile nvt temp 300 300 100
timestep        1
run             10000
Per MPI rank memory allocation (min/avg/max) = 62.99 | 62.99 | 62.99 Mbytes
   Step          Time           Temp     
         0   0              300          
