Loading lammps/kokkos/gpu_della9_2022
  Loading requirement: gcc-toolset/14 openmpi/gcc/4.1.6
    fftw/gcc/openmpi-4.1.6/3.3.10 cudatoolkit/12.8
LAMMPS (23 Jun 2022)
KOKKOS mode is enabled (src/KOKKOS/kokkos.cpp:105)
  will use up to 1 GPU(s) per node
WARNING: When using a single thread, the Kokkos Serial backend (i.e. Makefile.kokkos_mpi_only) gives better performance than the OpenMP backend (src/KOKKOS/kokkos.cpp:217)
  using 1 OpenMP thread(s) per MPI task
BOTTOM -0.625
Lattice spacing in x,y,z = 4.3666896 2.5211094 6.1754317
Created orthogonal box = (0 0 -3.8596448) to (43.666896 45.37997 49.403454)
  1 by 1 by 1 MPI processor grid
Created 2061 atoms
  using lattice units in orthogonal box = (0 0 -3.8596448) to (43.666896 45.37997 49.403454)
  create_atoms CPU = 0.005 seconds
Setting atom values ...
  2061 settings made for charge
N_LAT_0 1620
301 atoms in group anchor
0 atoms in group insert
1760 atoms in group mobile
2061 atoms in group carbon
Reading potential file ffield.reax with DATE: 2011-02-18
WARNING: Changed valency_val to valency_boc for X (src/REAXFF/reaxff_ffield.cpp:296)
Changing box ...
  orthogonal box = (0 0 -3.8596448) to (21.833448 45.37997 49.403454)
  orthogonal box = (0 0 -3.8596448) to (21.833448 22.689985 49.403454)
  orthogonal box = (0 0 -3.8596448) to (21.833448 22.689985 49.403454)
System init for delete_atoms ...
Neighbor list info ...
  update every 1 steps, delay 10 steps, check yes
  max neighbors/atom: 2000, page size: 100000
  master list distance cutoff = 12
  ghost atom cutoff = 12
  binsize = 12, bins = 2 2 5
  3 neighbor lists, perpetual/occasional/extra = 2 1 0
  (1) command delete_atoms, occasional
      attributes: full, newton on
      pair build: full/bin/atomonly
      stencil: full/bin/3d
      bin: standard
  (2) pair reaxff/kk, perpetual
      attributes: half, newton off, ghost, kokkos_device
      pair build: half/bin/ghost/kk/device
      stencil: full/ghost/bin/3d
      bin: kk/device
  (3) fix qeq/reaxff/kk, perpetual
      attributes: full, newton off, kokkos_device
      pair build: full/bin/kk/device
      stencil: full/bin/3d
      bin: kk/device
WARNING: Fixes cannot yet send exchange data in Kokkos communication, switching to classic exchange/border communication (src/KOKKOS/comm_kokkos.cpp:581)
Deleted 171 atoms, new total = 1890
45 atoms in group row0
45 atoms in group row1
Deleted 45 atoms, new total = 1845
Deleted 45 atoms, new total = 1800
45 atoms in group row0
45 atoms in group row1
Displacing atoms ...
Displacing atoms ...
Created 90 atoms
  using lattice units in orthogonal box = (0 0 -3.8596448) to (21.833448 22.689985 49.403454)
  create_atoms CPU = 0.001 seconds
90 atoms in group O
Displacing atoms ...

CITE-CITE-CITE-CITE-CITE-CITE-CITE-CITE-CITE-CITE-CITE-CITE-CITE

Your simulation uses code contributions which should be cited:
- pair reaxff command:
- fix qeq/reaxff command:
The log file lists these citations in BibTeX format.

CITE-CITE-CITE-CITE-CITE-CITE-CITE-CITE-CITE-CITE-CITE-CITE-CITE

WARNING: Using 'neigh_modify every 1 delay 0 check yes' setting during minimization (src/min.cpp:187)
Neighbor list info ...
  update every 1 steps, delay 0 steps, check yes
  max neighbors/atom: 2000, page size: 100000
  master list distance cutoff = 12
  ghost atom cutoff = 12
  binsize = 12, bins = 2 2 5
  2 neighbor lists, perpetual/occasional/extra = 2 0 0
  (1) pair reaxff/kk, perpetual
      attributes: half, newton off, ghost, kokkos_device
      pair build: half/bin/ghost/kk/device
      stencil: full/ghost/bin/3d
      bin: kk/device
  (2) fix qeq/reaxff/kk, perpetual
      attributes: full, newton off, kokkos_device
      pair build: full/bin/kk/device
      stencil: full/bin/3d
      bin: kk/device
Setting up cg/kk style minimization ...
  Unit style    : real
  Current step  : 0
Per MPI rank memory allocation (min/avg/max) = 62.58 | 62.58 | 62.58 Mbytes
   Step          Temp          E_pair         E_mol          TotEng         Press          Volume    
         0   0             -313139.17      0             -313139.17      15238.18       26386.572    
         6   0             -315039.35      0             -315039.35      17152.894      26386.572    
Loop time of 3.2115 on 1 procs for 6 steps with 1890 atoms

99.5% CPU use with 1 MPI tasks x 1 OpenMP threads

Minimization stats:
  Stopping criterion = energy tolerance
  Energy initial, next-to-last, final = 
     -313139.171276585  -315039.346027291  -315039.345632462
  Force two-norm initial, final = 1916.1989 324.16109
  Force max component initial, final = 160.13208 11.954743
  Final line search alpha, max atom move = 3.8952012e-12 4.656613e-11
  Iterations, force evaluations = 6 183

MPI task timing breakdown:
Section |  min time  |  avg time  |  max time  |%varavg| %total
---------------------------------------------------------------
Pair    | 1.9826     | 1.9826     | 1.9826     |   0.0 | 61.74
Neigh   | 0          | 0          | 0          |   0.0 |  0.00
Comm    | 0.0027919  | 0.0027919  | 0.0027919  |   0.0 |  0.09
Output  | 0          | 0          | 0          |   0.0 |  0.00
Modify  | 1.1687     | 1.1687     | 1.1687     |   0.0 | 36.39
Other   |            | 0.05735    |            |       |  1.79

Nlocal:           1890 ave        1890 max        1890 min
Histogram: 1 0 0 0 0 0 0 0 0 0
Nghost:           6266 ave        6266 max        6266 min
Histogram: 1 0 0 0 0 0 0 0 0 0
Neighs:    1.28089e+06 ave 1.28089e+06 max 1.28089e+06 min
Histogram: 1 0 0 0 0 0 0 0 0 0
FullNghs:  1.86183e+06 ave 1.86183e+06 max 1.86183e+06 min
Histogram: 1 0 0 0 0 0 0 0 0 0

Total # of neighbors = 1861830
Ave neighs/atom = 985.09524
Neighbor list builds = 0
Dangerous builds = 0
System init for write_data ...
WARNING: Temperature for thermo pressure is not for group all (src/thermo.cpp:520)
Setting up Verlet run ...
  Unit style    : real
  Current step  : 0
  Time step     : 1
Per MPI rank memory allocation (min/avg/max) = 61.99 | 61.99 | 61.99 Mbytes
   Step          Time           Temp     
         0   0              300          
      1000   1000           375.67514    
      2000   2000           368.4549     
      3000   3000           370.93662    
      4000   4000           379.85335    
      5000   5000           360.81838    
      6000   6000           383.03107    
      7000   7000           371.69313    
      8000   8000           378.16299    
      9000   9000           373.78364    
     10000   10000          379.18849    
Loop time of 128.885 on 1 procs for 10000 steps with 1890 atoms

Performance: 6.704 ns/day, 3.580 hours/ns, 77.589 timesteps/s
99.6% CPU use with 1 MPI tasks x 1 OpenMP threads

MPI task timing breakdown:
Section |  min time  |  avg time  |  max time  |%varavg| %total
---------------------------------------------------------------
Pair    | 94.778     | 94.778     | 94.778     |   0.0 | 73.54
Neigh   | 0          | 0          | 0          |   0.0 |  0.00
Comm    | 2.7532     | 2.7532     | 2.7532     |   0.0 |  2.14
Output  | 0.0032403  | 0.0032403  | 0.0032403  |   0.0 |  0.00
Modify  | 31.038     | 31.038     | 31.038     |   0.0 | 24.08
Other   |            | 0.3126     |            |       |  0.24

Nlocal:           1890 ave        1890 max        1890 min
Histogram: 1 0 0 0 0 0 0 0 0 0
Nghost:           6266 ave        6266 max        6266 min
Histogram: 1 0 0 0 0 0 0 0 0 0
Neighs:     1.2819e+06 ave  1.2819e+06 max  1.2819e+06 min
Histogram: 1 0 0 0 0 0 0 0 0 0
FullNghs:  1.86066e+06 ave 1.86066e+06 max 1.86066e+06 min
Histogram: 1 0 0 0 0 0 0 0 0 0

Total # of neighbors = 1860660
Ave neighs/atom = 984.47619
Neighbor list builds = 0
Dangerous builds = 0
System init for write_data ...
System init for write_data ...
0 1620 0 0
0 -0.625 1620
Total wall time: 0:02:12
srun: error: della-l03g4: task 0: Exited with exit code 1
srun: Terminating StepId=6632491.1
LAMMPS exited with code 1 — not re-submitting.
