Loading lammps/kokkos/gpu_della9_2022
  Loading requirement: gcc-toolset/14 openmpi/gcc/4.1.6
    fftw/gcc/openmpi-4.1.6/3.3.10 cudatoolkit/12.8
LAMMPS (23 Jun 2022)
KOKKOS mode is enabled (src/KOKKOS/kokkos.cpp:105)
  will use up to 1 GPU(s) per node
WARNING: When using a single thread, the Kokkos Serial backend (i.e. Makefile.kokkos_mpi_only) gives better performance than the OpenMP backend (src/KOKKOS/kokkos.cpp:217)
  using 1 OpenMP thread(s) per MPI task
BOTTOM -0.625
Lattice spacing in x,y,z = 4.3666896 2.5211094 6.1754317
Created orthogonal box = (0 0 -3.8596448) to (43.666896 45.37997 49.403454)
  1 by 1 by 1 MPI processor grid
Created 2061 atoms
  using lattice units in orthogonal box = (0 0 -3.8596448) to (43.666896 45.37997 49.403454)
  create_atoms CPU = 0.005 seconds
Setting atom values ...
  2061 settings made for charge
N_LAT_0 1620
301 atoms in group anchor
0 atoms in group insert
1760 atoms in group mobile
2061 atoms in group carbon
Reading potential file ffield.reax with DATE: 2011-02-18
WARNING: Changed valency_val to valency_boc for X (src/REAXFF/reaxff_ffield.cpp:296)
Changing box ...
  orthogonal box = (0 0 -3.8596448) to (21.833448 45.37997 49.403454)
  orthogonal box = (0 0 -3.8596448) to (21.833448 22.689985 49.403454)
  orthogonal box = (0 0 -3.8596448) to (21.833448 22.689985 49.403454)
System init for delete_atoms ...
Neighbor list info ...
  update every 1 steps, delay 10 steps, check yes
  max neighbors/atom: 2000, page size: 100000
  master list distance cutoff = 12
  ghost atom cutoff = 12
  binsize = 12, bins = 2 2 5
  3 neighbor lists, perpetual/occasional/extra = 2 1 0
  (1) command delete_atoms, occasional
      attributes: full, newton on
      pair build: full/bin/atomonly
      stencil: full/bin/3d
      bin: standard
  (2) pair reaxff/kk, perpetual
      attributes: half, newton off, ghost, kokkos_device
      pair build: half/bin/ghost/kk/device
      stencil: full/ghost/bin/3d
      bin: kk/device
  (3) fix qeq/reaxff/kk, perpetual
      attributes: full, newton off, kokkos_device
      pair build: full/bin/kk/device
      stencil: full/bin/3d
      bin: kk/device
WARNING: Fixes cannot yet send exchange data in Kokkos communication, switching to classic exchange/border communication (src/KOKKOS/comm_kokkos.cpp:581)
Deleted 171 atoms, new total = 1890
45 atoms in group row0
45 atoms in group row1
Deleted 45 atoms, new total = 1845
Deleted 45 atoms, new total = 1800
45 atoms in group row0
45 atoms in group row1
Displacing atoms ...
Displacing atoms ...

CITE-CITE-CITE-CITE-CITE-CITE-CITE-CITE-CITE-CITE-CITE-CITE-CITE

Your simulation uses code contributions which should be cited:
- pair reaxff command:
- fix qeq/reaxff command:
The log file lists these citations in BibTeX format.

CITE-CITE-CITE-CITE-CITE-CITE-CITE-CITE-CITE-CITE-CITE-CITE-CITE

WARNING: Using 'neigh_modify every 1 delay 0 check yes' setting during minimization (src/min.cpp:187)
Neighbor list info ...
  update every 1 steps, delay 0 steps, check yes
  max neighbors/atom: 2000, page size: 100000
  master list distance cutoff = 12
  ghost atom cutoff = 12
  binsize = 12, bins = 2 2 5
  2 neighbor lists, perpetual/occasional/extra = 2 0 0
  (1) pair reaxff/kk, perpetual
      attributes: half, newton off, ghost, kokkos_device
      pair build: half/bin/ghost/kk/device
      stencil: full/ghost/bin/3d
      bin: kk/device
  (2) fix qeq/reaxff/kk, perpetual
      attributes: full, newton off, kokkos_device
      pair build: full/bin/kk/device
      stencil: full/bin/3d
      bin: kk/device
Setting up cg/kk style minimization ...
  Unit style    : real
  Current step  : 0
Per MPI rank memory allocation (min/avg/max) = 65.91 | 65.91 | 65.91 Mbytes
   Step          Temp          E_pair         E_mol          TotEng         Press          Volume    
         0   0             -312427.84      0             -312427.84      23308.848      26386.572    
         4   0             -314300.77      0             -314300.77      24913.014      26386.572    
Loop time of 1.39585 on 1 procs for 4 steps with 1800 atoms

99.8% CPU use with 1 MPI tasks x 1 OpenMP threads

Minimization stats:
  Stopping criterion = linesearch alpha is zero
  Energy initial, next-to-last, final = 
     -312427.841464988  -314300.771114888  -314300.771114431
  Force two-norm initial, final = 1916.3694 348.28555
  Force max component initial, final = 160.13535 12.732802
  Final line search alpha, max atom move = 6.601772e-14 8.4059056e-13
  Iterations, force evaluations = 4 77

MPI task timing breakdown:
Section |  min time  |  avg time  |  max time  |%varavg| %total
---------------------------------------------------------------
Pair    | 0.84822    | 0.84822    | 0.84822    |   0.0 | 60.77
Neigh   | 0          | 0          | 0          |   0.0 |  0.00
Comm    | 0.0012364  | 0.0012364  | 0.0012364  |   0.0 |  0.09
Output  | 0          | 0          | 0          |   0.0 |  0.00
Modify  | 0.52141    | 0.52141    | 0.52141    |   0.0 | 37.35
Other   |            | 0.025      |            |       |  1.79

Nlocal:           1800 ave        1800 max        1800 min
Histogram: 1 0 0 0 0 0 0 0 0 0
Nghost:           5968 ave        5968 max        5968 min
Histogram: 1 0 0 0 0 0 0 0 0 0
Neighs:    1.24556e+06 ave 1.24556e+06 max 1.24556e+06 min
Histogram: 1 0 0 0 0 0 0 0 0 0
FullNghs:  1.80882e+06 ave 1.80882e+06 max 1.80882e+06 min
Histogram: 1 0 0 0 0 0 0 0 0 0

Total # of neighbors = 1808820
Ave neighs/atom = 1004.9
Neighbor list builds = 0
Dangerous builds = 0
System init for write_data ...
WARNING: Temperature for thermo pressure is not for group all (src/thermo.cpp:520)
Setting up Verlet run ...
  Unit style    : real
  Current step  : 0
  Time step     : 1
Per MPI rank memory allocation (min/avg/max) = 65.29 | 65.29 | 65.29 Mbytes
   Step          Time           Temp     
         0   0              300          
      1000   1000           353.23148    
      2000   2000           348.34693    
      3000   3000           357.03334    
      4000   4000           362.08638    
      5000   5000           351.3504     
      6000   6000           363.09857    
      7000   7000           354.18266    
      8000   8000           347.75131    
      9000   9000           347.94602    
     10000   10000          345.43531    
Loop time of 130.192 on 1 procs for 10000 steps with 1800 atoms

Performance: 6.636 ns/day, 3.616 hours/ns, 76.809 timesteps/s
99.7% CPU use with 1 MPI tasks x 1 OpenMP threads

MPI task timing breakdown:
Section |  min time  |  avg time  |  max time  |%varavg| %total
---------------------------------------------------------------
Pair    | 95.864     | 95.864     | 95.864     |   0.0 | 73.63
Neigh   | 0          | 0          | 0          |   0.0 |  0.00
Comm    | 2.6791     | 2.6791     | 2.6791     |   0.0 |  2.06
Output  | 0.002933   | 0.002933   | 0.002933   |   0.0 |  0.00
Modify  | 31.332     | 31.332     | 31.332     |   0.0 | 24.07
Other   |            | 0.3141     |            |       |  0.24

Nlocal:           1800 ave        1800 max        1800 min
Histogram: 1 0 0 0 0 0 0 0 0 0
Nghost:           5968 ave        5968 max        5968 min
Histogram: 1 0 0 0 0 0 0 0 0 0
Neighs:    1.24679e+06 ave 1.24679e+06 max 1.24679e+06 min
Histogram: 1 0 0 0 0 0 0 0 0 0
FullNghs:  1.80783e+06 ave 1.80783e+06 max 1.80783e+06 min
Histogram: 1 0 0 0 0 0 0 0 0 0

Total # of neighbors = 1807830
Ave neighs/atom = 1004.35
Neighbor list builds = 0
Dangerous builds = 0
System init for write_data ...
System init for write_data ...
0 1620 0 0
0 -0.625 1620
Total wall time: 0:02:12
srun: error: della-l05g6: task 0: Exited with exit code 1
srun: Terminating StepId=6632490.1
LAMMPS exited with code 1 — not re-submitting.
