Loading lammps/kokkos/gpu_della9_2022
  Loading requirement: gcc-toolset/14 openmpi/gcc/4.1.6
    fftw/gcc/openmpi-4.1.6/3.3.10 cudatoolkit/12.8
LAMMPS (23 Jun 2022)
KOKKOS mode is enabled (src/KOKKOS/kokkos.cpp:105)
  will use up to 1 GPU(s) per node
WARNING: When using a single thread, the Kokkos Serial backend (i.e. Makefile.kokkos_mpi_only) gives better performance than the OpenMP backend (src/KOKKOS/kokkos.cpp:217)
  using 1 OpenMP thread(s) per MPI task
BOTTOM -0.625
Lattice spacing in x,y,z = 2.5211094 2.5211094 3.5653872
Created orthogonal box = (0 0 -2.228367) to (22.689985 22.689985 28.523097)
  1 by 1 by 1 MPI processor grid
Created 1215 atoms
  using lattice units in orthogonal box = (0 0 -2.228367) to (22.689985 22.689985 28.523097)
  create_atoms CPU = 0.005 seconds
Setting atom values ...
  1215 settings made for charge
N_LAT_0 1944
162 atoms in group anchor
0 atoms in group insert
1053 atoms in group mobile
1215 atoms in group carbon
Reading potential file ffield.reax with DATE: 2011-02-18
WARNING: Changed valency_val to valency_boc for X (src/REAXFF/reaxff_ffield.cpp:296)
Changing box ...
  orthogonal box = (0 0 -2.228367) to (22.689985 22.689985 28.523097)
  orthogonal box = (0 0 -2.228367) to (22.689985 22.689985 28.523097)
  orthogonal box = (0 0 -2.228367) to (22.689985 22.689985 28.523097)
System init for delete_atoms ...
Neighbor list info ...
  update every 1 steps, delay 10 steps, check yes
  max neighbors/atom: 2000, page size: 100000
  master list distance cutoff = 12
  ghost atom cutoff = 12
  binsize = 12, bins = 2 2 3
  3 neighbor lists, perpetual/occasional/extra = 2 1 0
  (1) command delete_atoms, occasional
      attributes: full, newton on
      pair build: full/bin/atomonly
      stencil: full/bin/3d
      bin: standard
  (2) pair reaxff/kk, perpetual
      attributes: half, newton off, ghost, kokkos_device
      pair build: half/bin/ghost/kk/device
      stencil: full/ghost/bin/3d
      bin: kk/device
  (3) fix qeq/reaxff/kk, perpetual
      attributes: full, newton off, kokkos_device
      pair build: full/bin/kk/device
      stencil: full/bin/3d
      bin: kk/device
WARNING: Fixes cannot yet send exchange data in Kokkos communication, switching to classic exchange/border communication (src/KOKKOS/comm_kokkos.cpp:581)
Deleted 0 atoms, new total = 1215

CITE-CITE-CITE-CITE-CITE-CITE-CITE-CITE-CITE-CITE-CITE-CITE-CITE

Your simulation uses code contributions which should be cited:
- pair reaxff command:
- fix qeq/reaxff command:
The log file lists these citations in BibTeX format.

CITE-CITE-CITE-CITE-CITE-CITE-CITE-CITE-CITE-CITE-CITE-CITE-CITE

WARNING: Using 'neigh_modify every 1 delay 0 check yes' setting during minimization (src/min.cpp:187)
Neighbor list info ...
  update every 1 steps, delay 0 steps, check yes
  max neighbors/atom: 2000, page size: 100000
  master list distance cutoff = 12
  ghost atom cutoff = 12
  binsize = 12, bins = 2 2 3
  2 neighbor lists, perpetual/occasional/extra = 2 0 0
  (1) pair reaxff/kk, perpetual
      attributes: half, newton off, ghost, kokkos_device
      pair build: half/bin/ghost/kk/device
      stencil: full/ghost/bin/3d
      bin: kk/device
  (2) fix qeq/reaxff/kk, perpetual
      attributes: full, newton off, kokkos_device
      pair build: full/bin/kk/device
      stencil: full/bin/3d
      bin: kk/device
Setting up cg/kk style minimization ...
  Unit style    : real
  Current step  : 0
Per MPI rank memory allocation (min/avg/max) = 38.44 | 38.44 | 38.44 Mbytes
   Step          Temp          E_pair         E_mol          TotEng         Press          Volume    
         0   0             -210443.5       0             -210443.5       42752.228      15831.943    
         4   0             -210644.91      0             -210644.91     -3962.8872      15831.943    
Loop time of 0.591153 on 1 procs for 4 steps with 1215 atoms

99.5% CPU use with 1 MPI tasks x 1 OpenMP threads

Minimization stats:
  Stopping criterion = energy tolerance
  Energy initial, next-to-last, final = 
     -210443.500576604  -210643.442580374  -210644.910348721
  Force two-norm initial, final = 998.72246 307.09751
  Force max component initial, final = 63.863581 16.227677
  Final line search alpha, max atom move = 0.0030518976 0.049525209
  Iterations, force evaluations = 4 32

MPI task timing breakdown:
Section |  min time  |  avg time  |  max time  |%varavg| %total
---------------------------------------------------------------
Pair    | 0.37099    | 0.37099    | 0.37099    |   0.0 | 62.76
Neigh   | 0          | 0          | 0          |   0.0 |  0.00
Comm    | 0.0008199  | 0.0008199  | 0.0008199  |   0.0 |  0.14
Output  | 0          | 0          | 0          |   0.0 |  0.00
Modify  | 0.20686    | 0.20686    | 0.20686    |   0.0 | 34.99
Other   |            | 0.01248    |            |       |  2.11

Nlocal:           1215 ave        1215 max        1215 min
Histogram: 1 0 0 0 0 0 0 0 0 0
Nghost:           3919 ave        3919 max        3919 min
Histogram: 1 0 0 0 0 0 0 0 0 0
Neighs:         716037 ave      716037 max      716037 min
Histogram: 1 0 0 0 0 0 0 0 0 0
FullNghs:  1.03923e+06 ave 1.03923e+06 max 1.03923e+06 min
Histogram: 1 0 0 0 0 0 0 0 0 0

Total # of neighbors = 1039230
Ave neighs/atom = 855.33333
Neighbor list builds = 0
Dangerous builds = 0
WARNING: Using 'neigh_modify every 1 delay 0 check yes' setting during minimization (src/min.cpp:187)
Setting up cg/kk style minimization ...
  Unit style    : real
  Current step  : 0
Per MPI rank memory allocation (min/avg/max) = 38.42 | 38.42 | 38.42 Mbytes
   Step          Temp          E_pair         E_mol          TotEng         Press          Volume    
         0   0             -210644.91      0             -210644.91     -3962.8872      15831.943    
         5   0             -210714.49      0             -210714.49     -3134.3002      15831.943    
Loop time of 1.46411 on 1 procs for 5 steps with 1215 atoms

99.5% CPU use with 1 MPI tasks x 1 OpenMP threads

Minimization stats:
  Stopping criterion = linesearch alpha is zero
  Energy initial, next-to-last, final = 
     -210644.910348851  -210714.489374585  -210714.489373869
  Force two-norm initial, final = 307.09751 268.17151
  Force max component initial, final = 16.227677 14.986194
  Final line search alpha, max atom move = 9.7102143e-14 1.4551915e-12
  Iterations, force evaluations = 5 89

MPI task timing breakdown:
Section |  min time  |  avg time  |  max time  |%varavg| %total
---------------------------------------------------------------
Pair    | 0.87075    | 0.87075    | 0.87075    |   0.0 | 59.47
Neigh   | 0          | 0          | 0          |   0.0 |  0.00
Comm    | 0.0019595  | 0.0019595  | 0.0019595  |   0.0 |  0.13
Output  | 0          | 0          | 0          |   0.0 |  0.00
Modify  | 0.5653     | 0.5653     | 0.5653     |   0.0 | 38.61
Other   |            | 0.02611    |            |       |  1.78

Nlocal:           1215 ave        1215 max        1215 min
Histogram: 1 0 0 0 0 0 0 0 0 0
Nghost:           3919 ave        3919 max        3919 min
Histogram: 1 0 0 0 0 0 0 0 0 0
Neighs:         716764 ave      716764 max      716764 min
Histogram: 1 0 0 0 0 0 0 0 0 0
FullNghs:  1.03793e+06 ave 1.03793e+06 max 1.03793e+06 min
Histogram: 1 0 0 0 0 0 0 0 0 0

Total # of neighbors = 1037934
Ave neighs/atom = 854.26667
Neighbor list builds = 0
Dangerous builds = 0
WARNING: Using 'neigh_modify every 1 delay 0 check yes' setting during minimization (src/min.cpp:187)
Setting up cg/kk style minimization ...
  Unit style    : real
  Current step  : 0
Per MPI rank memory allocation (min/avg/max) = 38.42 | 38.42 | 38.42 Mbytes
   Step          Temp          E_pair         E_mol          TotEng         Press          Volume    
         0   0             -210714.49      0             -210714.49     -3134.3002      15831.943    
         1   0             -210714.49      0             -210714.49     -3134.3002      15831.943    
Loop time of 1.19684 on 1 procs for 1 steps with 1215 atoms

99.7% CPU use with 1 MPI tasks x 1 OpenMP threads

Minimization stats:
  Stopping criterion = linesearch alpha is zero
  Energy initial, next-to-last, final = 
     -210714.489374633  -210714.489374633  -210714.489373822
  Force two-norm initial, final = 268.17151 268.17151
  Force max component initial, final = 14.986194 14.986194
  Final line search alpha, max atom move = 9.7102143e-14 1.4551915e-12
  Iterations, force evaluations = 1 73

MPI task timing breakdown:
Section |  min time  |  avg time  |  max time  |%varavg| %total
---------------------------------------------------------------
Pair    | 0.71505    | 0.71505    | 0.71505    |   0.0 | 59.74
Neigh   | 0          | 0          | 0          |   0.0 |  0.00
Comm    | 0.0016226  | 0.0016226  | 0.0016226  |   0.0 |  0.14
Output  | 0          | 0          | 0          |   0.0 |  0.00
Modify  | 0.45892    | 0.45892    | 0.45892    |   0.0 | 38.34
Other   |            | 0.02125    |            |       |  1.78

Nlocal:           1215 ave        1215 max        1215 min
Histogram: 1 0 0 0 0 0 0 0 0 0
Nghost:           3919 ave        3919 max        3919 min
Histogram: 1 0 0 0 0 0 0 0 0 0
Neighs:         716755 ave      716755 max      716755 min
Histogram: 1 0 0 0 0 0 0 0 0 0
FullNghs:  1.03793e+06 ave 1.03793e+06 max 1.03793e+06 min
Histogram: 1 0 0 0 0 0 0 0 0 0

Total # of neighbors = 1037934
Ave neighs/atom = 854.26667
Neighbor list builds = 0
Dangerous builds = 0
System init for write_data ...
WARNING: Temperature for thermo pressure is not for group all (src/thermo.cpp:520)
Setting up Verlet run ...
  Unit style    : real
  Current step  : 0
  Time step     : 1
Per MPI rank memory allocation (min/avg/max) = 38.07 | 38.07 | 38.07 Mbytes
   Step          Time           Temp     
         0   0              300          
      1000   1000           343.12624    
      2000   2000           356.5907     
      3000   3000           338.27642    
      4000   4000           342.22341    
      5000   5000           346.84769    
      6000   6000           344.17515    
      7000   7000           350.73192    
      8000   8000           348.90036    
      9000   9000           362.46228    
     10000   10000          340.61146    
Loop time of 123.9 on 1 procs for 10000 steps with 1215 atoms

Performance: 6.973 ns/day, 3.442 hours/ns, 80.710 timesteps/s
99.6% CPU use with 1 MPI tasks x 1 OpenMP threads

MPI task timing breakdown:
Section |  min time  |  avg time  |  max time  |%varavg| %total
---------------------------------------------------------------
Pair    | 84.582     | 84.582     | 84.582     |   0.0 | 68.27
Neigh   | 0          | 0          | 0          |   0.0 |  0.00
Comm    | 2.4727     | 2.4727     | 2.4727     |   0.0 |  2.00
Output  | 0.0042497  | 0.0042497  | 0.0042497  |   0.0 |  0.00
Modify  | 36.468     | 36.468     | 36.468     |   0.0 | 29.43
Other   |            | 0.3734     |            |       |  0.30

Nlocal:           1215 ave        1215 max        1215 min
Histogram: 1 0 0 0 0 0 0 0 0 0
Nghost:           3919 ave        3919 max        3919 min
Histogram: 1 0 0 0 0 0 0 0 0 0
Neighs:         716755 ave      716755 max      716755 min
Histogram: 1 0 0 0 0 0 0 0 0 0
FullNghs:  1.03793e+06 ave 1.03793e+06 max 1.03793e+06 min
Histogram: 1 0 0 0 0 0 0 0 0 0

Total # of neighbors = 1037934
Ave neighs/atom = 854.26667
Neighbor list builds = 0
Dangerous builds = 0
System init for write_data ...
System init for write_data ...
0 1944 0 0
0 -0.625 1944
Total wall time: 0:02:07
srun: error: della-i14g13: task 0: Exited with exit code 1
srun: Terminating StepId=6632119.1
LAMMPS exited with code 1 — not re-submitting.
