Loading lammps/kokkos/gpu_della9_2022
  Loading requirement: gcc-toolset/14 openmpi/gcc/4.1.6
    fftw/gcc/openmpi-4.1.6/3.3.10 cudatoolkit/12.8
LAMMPS (23 Jun 2022)
KOKKOS mode is enabled (src/KOKKOS/kokkos.cpp:105)
  will use up to 1 GPU(s) per node
WARNING: When using a single thread, the Kokkos Serial backend (i.e. Makefile.kokkos_mpi_only) gives better performance than the OpenMP backend (src/KOKKOS/kokkos.cpp:217)
  using 1 OpenMP thread(s) per MPI task
BOTTOM -0.625
Lattice spacing in x,y,z = 5.0422189 3.5653872 7.5633283
Created orthogonal box = (0 0 -4.7270802) to (20.168876 21.392323 75.633283)
  1 by 1 by 1 MPI processor grid
Created 3264 atoms
  using lattice units in orthogonal box = (0 0 -4.7270802) to (20.168876 21.392323 75.633283)
  create_atoms CPU = 0.006 seconds
Setting atom values ...
  3264 settings made for charge
N_LAT_0 2880
288 atoms in group anchor
0 atoms in group insert
2976 atoms in group mobile
3264 atoms in group carbon
Reading potential file ffield.reax with DATE: 2011-02-18
WARNING: Changed valency_val to valency_boc for X (src/REAXFF/reaxff_ffield.cpp:296)
Changing box ...
  orthogonal box = (0 0 -4.7270802) to (20.168876 21.392323 75.633283)
  orthogonal box = (0 0 -4.7270802) to (20.168876 21.392323 75.633283)
  orthogonal box = (0 0 -4.7270802) to (20.168876 21.392323 75.633283)
System init for delete_atoms ...
Neighbor list info ...
  update every 1 steps, delay 10 steps, check yes
  max neighbors/atom: 2000, page size: 100000
  master list distance cutoff = 12
  ghost atom cutoff = 12
  binsize = 12, bins = 2 2 7
  3 neighbor lists, perpetual/occasional/extra = 2 1 0
  (1) command delete_atoms, occasional
      attributes: full, newton on
      pair build: full/bin/atomonly
      stencil: full/bin/3d
      bin: standard
  (2) pair reaxff/kk, perpetual
      attributes: half, newton off, ghost, kokkos_device
      pair build: half/bin/ghost/kk/device
      stencil: full/ghost/bin/3d
      bin: kk/device
  (3) fix qeq/reaxff/kk, perpetual
      attributes: full, newton off, kokkos_device
      pair build: full/bin/kk/device
      stencil: full/bin/3d
      bin: kk/device
WARNING: Fixes cannot yet send exchange data in Kokkos communication, switching to classic exchange/border communication (src/KOKKOS/comm_kokkos.cpp:581)
Deleted 0 atoms, new total = 3264

CITE-CITE-CITE-CITE-CITE-CITE-CITE-CITE-CITE-CITE-CITE-CITE-CITE

Your simulation uses code contributions which should be cited:
- pair reaxff command:
- fix qeq/reaxff command:
The log file lists these citations in BibTeX format.

CITE-CITE-CITE-CITE-CITE-CITE-CITE-CITE-CITE-CITE-CITE-CITE-CITE

WARNING: Using 'neigh_modify every 1 delay 0 check yes' setting during minimization (src/min.cpp:187)
Neighbor list info ...
  update every 1 steps, delay 0 steps, check yes
  max neighbors/atom: 2000, page size: 100000
  master list distance cutoff = 12
  ghost atom cutoff = 12
  binsize = 12, bins = 2 2 7
  2 neighbor lists, perpetual/occasional/extra = 2 0 0
  (1) pair reaxff/kk, perpetual
      attributes: half, newton off, ghost, kokkos_device
      pair build: half/bin/ghost/kk/device
      stencil: full/ghost/bin/3d
      bin: kk/device
  (2) fix qeq/reaxff/kk, perpetual
      attributes: full, newton off, kokkos_device
      pair build: full/bin/kk/device
      stencil: full/bin/3d
      bin: kk/device
Setting up cg/kk style minimization ...
  Unit style    : real
  Current step  : 0
Per MPI rank memory allocation (min/avg/max) = 119.9 | 119.9 | 119.9 Mbytes
   Step          Temp          E_pair         E_mol          TotEng         Press          Volume    
         0   0             -592515.12      0             -592515.12      88419.653      34672.21     
         1   0             -592515.12      0             -592515.12      88419.653      34672.21     
Loop time of 1.39902 on 1 procs for 1 steps with 3264 atoms

99.7% CPU use with 1 MPI tasks x 1 OpenMP threads

Minimization stats:
  Stopping criterion = linesearch alpha is zero
  Energy initial, next-to-last, final = 
     -592515.120664742  -592515.120664742  -592515.120664161
  Force two-norm initial, final = 906.49921 906.49921
  Force max component initial, final = 62.091612 62.091612
  Final line search alpha, max atom move = 1.1718101e-14 7.2759576e-13
  Iterations, force evaluations = 1 74

MPI task timing breakdown:
Section |  min time  |  avg time  |  max time  |%varavg| %total
---------------------------------------------------------------
Pair    | 0.99964    | 0.99964    | 0.99964    |   0.0 | 71.45
Neigh   | 0          | 0          | 0          |   0.0 |  0.00
Comm    | 0.001751   | 0.001751   | 0.001751   |   0.0 |  0.13
Output  | 0          | 0          | 0          |   0.0 |  0.00
Modify  | 0.36374    | 0.36374    | 0.36374    |   0.0 | 26.00
Other   |            | 0.0339     |            |       |  2.42

Nlocal:           3264 ave        3264 max        3264 min
Histogram: 1 0 0 0 0 0 0 0 0 0
Nghost:          11900 ave       11900 max       11900 min
Histogram: 1 0 0 0 0 0 0 0 0 0
Neighs:    2.62943e+06 ave 2.62943e+06 max 2.62943e+06 min
Histogram: 1 0 0 0 0 0 0 0 0 0
FullNghs:  3.76819e+06 ave 3.76819e+06 max 3.76819e+06 min
Histogram: 1 0 0 0 0 0 0 0 0 0

Total # of neighbors = 3768192
Ave neighs/atom = 1154.4706
Neighbor list builds = 0
Dangerous builds = 0
System init for write_data ...
WARNING: Temperature for thermo pressure is not for group all (src/thermo.cpp:520)
Setting up Verlet run ...
  Unit style    : real
  Current step  : 0
  Time step     : 1
Per MPI rank memory allocation (min/avg/max) = 118.8 | 118.8 | 118.8 Mbytes
   Step          Time           Temp     
         0   0              300          
      1000   1000           325.47764    
      2000   2000           325.00819    
      3000   3000           319.71287    
      4000   4000           330.92714    
      5000   5000           328.30607    
      6000   6000           332.96655    
      7000   7000           336.04987    
      8000   8000           337.81856    
      9000   9000           330.57367    
     10000   10000          327.07495    
Loop time of 153.487 on 1 procs for 10000 steps with 3264 atoms

Performance: 5.629 ns/day, 4.264 hours/ns, 65.152 timesteps/s
99.6% CPU use with 1 MPI tasks x 1 OpenMP threads

MPI task timing breakdown:
Section |  min time  |  avg time  |  max time  |%varavg| %total
---------------------------------------------------------------
Pair    | 109.73     | 109.73     | 109.73     |   0.0 | 71.49
Neigh   | 0          | 0          | 0          |   0.0 |  0.00
Comm    | 4.096      | 4.096      | 4.096      |   0.0 |  2.67
Output  | 0.0025252  | 0.0025252  | 0.0025252  |   0.0 |  0.00
Modify  | 39.284     | 39.284     | 39.284     |   0.0 | 25.59
Other   |            | 0.3746     |            |       |  0.24

Nlocal:           3264 ave        3264 max        3264 min
Histogram: 1 0 0 0 0 0 0 0 0 0
Nghost:          11900 ave       11900 max       11900 min
Histogram: 1 0 0 0 0 0 0 0 0 0
Neighs:    2.62943e+06 ave 2.62943e+06 max 2.62943e+06 min
Histogram: 1 0 0 0 0 0 0 0 0 0
FullNghs:  3.76819e+06 ave 3.76819e+06 max 3.76819e+06 min
Histogram: 1 0 0 0 0 0 0 0 0 0

Total # of neighbors = 3768192
Ave neighs/atom = 1154.4706
Neighbor list builds = 0
Dangerous builds = 0
System init for write_data ...
System init for write_data ...
0 2880 0 0
0 -0.625 2880
Total wall time: 0:02:35
srun: error: della-i14g12: task 0: Exited with exit code 1
srun: Terminating StepId=6632484.1
LAMMPS exited with code 1 — not re-submitting.
