Loading lammps/kokkos/gpu_della9_2022
  Loading requirement: gcc-toolset/14 openmpi/gcc/4.1.6
    fftw/gcc/openmpi-4.1.6/3.3.10 cudatoolkit/12.8
LAMMPS (23 Jun 2022)
KOKKOS mode is enabled (src/KOKKOS/kokkos.cpp:105)
  will use up to 1 GPU(s) per node
WARNING: When using a single thread, the Kokkos Serial backend (i.e. Makefile.kokkos_mpi_only) gives better performance than the OpenMP backend (src/KOKKOS/kokkos.cpp:217)
  using 1 OpenMP thread(s) per MPI task
BOTTOM -0.625
Lattice spacing in x,y,z = 4.3666896 2.5211094 6.1754317
Created orthogonal box = (0 0 -3.8596448) to (43.666896 45.37997 49.403454)
  1 by 1 by 1 MPI processor grid
Created 2061 atoms
  using lattice units in orthogonal box = (0 0 -3.8596448) to (43.666896 45.37997 49.403454)
  create_atoms CPU = 0.006 seconds
Setting atom values ...
  2061 settings made for charge
N_LAT_0 1620
301 atoms in group anchor
0 atoms in group insert
1760 atoms in group mobile
2061 atoms in group carbon
Reading potential file ffield.reax with DATE: 2011-02-18
WARNING: Changed valency_val to valency_boc for X (src/REAXFF/reaxff_ffield.cpp:296)
Changing box ...
  orthogonal box = (0 0 -3.8596448) to (21.833448 45.37997 49.403454)
  orthogonal box = (0 0 -3.8596448) to (21.833448 22.689985 49.403454)
  orthogonal box = (0 0 -3.8596448) to (21.833448 22.689985 49.403454)
System init for delete_atoms ...
Neighbor list info ...
  update every 1 steps, delay 10 steps, check yes
  max neighbors/atom: 2000, page size: 100000
  master list distance cutoff = 12
  ghost atom cutoff = 12
  binsize = 12, bins = 2 2 5
  3 neighbor lists, perpetual/occasional/extra = 2 1 0
  (1) command delete_atoms, occasional
      attributes: full, newton on
      pair build: full/bin/atomonly
      stencil: full/bin/3d
      bin: standard
  (2) pair reaxff/kk, perpetual
      attributes: half, newton off, ghost, kokkos_device
      pair build: half/bin/ghost/kk/device
      stencil: full/ghost/bin/3d
      bin: kk/device
  (3) fix qeq/reaxff/kk, perpetual
      attributes: full, newton off, kokkos_device
      pair build: full/bin/kk/device
      stencil: full/bin/3d
      bin: kk/device
WARNING: Fixes cannot yet send exchange data in Kokkos communication, switching to classic exchange/border communication (src/KOKKOS/comm_kokkos.cpp:581)
Deleted 171 atoms, new total = 1890
45 atoms in group row0
45 atoms in group row1
Displacing atoms ...
Displacing atoms ...
45 atoms in group row0
45 atoms in group row1
Displacing atoms ...
Displacing atoms ...
Created 90 atoms
  using lattice units in orthogonal box = (0 0 -3.8596448) to (21.833448 22.689985 49.403454)
  create_atoms CPU = 0.001 seconds
90 atoms in group O
Displacing atoms ...

CITE-CITE-CITE-CITE-CITE-CITE-CITE-CITE-CITE-CITE-CITE-CITE-CITE

Your simulation uses code contributions which should be cited:
- pair reaxff command:
- fix qeq/reaxff command:
The log file lists these citations in BibTeX format.

CITE-CITE-CITE-CITE-CITE-CITE-CITE-CITE-CITE-CITE-CITE-CITE-CITE

WARNING: Using 'neigh_modify every 1 delay 0 check yes' setting during minimization (src/min.cpp:187)
Neighbor list info ...
  update every 1 steps, delay 0 steps, check yes
  max neighbors/atom: 2000, page size: 100000
  master list distance cutoff = 12
  ghost atom cutoff = 12
  binsize = 12, bins = 2 2 5
  2 neighbor lists, perpetual/occasional/extra = 2 0 0
  (1) pair reaxff/kk, perpetual
      attributes: half, newton off, ghost, kokkos_device
      pair build: half/bin/ghost/kk/device
      stencil: full/ghost/bin/3d
      bin: kk/device
  (2) fix qeq/reaxff/kk, perpetual
      attributes: full, newton off, kokkos_device
      pair build: full/bin/kk/device
      stencil: full/bin/3d
      bin: kk/device
Setting up cg/kk style minimization ...
  Unit style    : real
  Current step  : 0
Per MPI rank memory allocation (min/avg/max) = 65.94 | 65.94 | 65.94 Mbytes
   Step          Temp          E_pair         E_mol          TotEng         Press          Volume    
         0   0             -327706.87      0             -327706.87      8455.1684      26386.572    
         8   0             -331921.89      0             -331921.89     -15018.848      26386.572    
Loop time of 0.810093 on 1 procs for 8 steps with 1980 atoms

99.6% CPU use with 1 MPI tasks x 1 OpenMP threads

Minimization stats:
  Stopping criterion = energy tolerance
  Energy initial, next-to-last, final = 
     -327706.865549113  -331920.681564801  -331921.889910869
  Force two-norm initial, final = 2637.83 328.89938
  Force max component initial, final = 254.38704 13.699972
  Final line search alpha, max atom move = 2.3660519e-06 3.2414844e-05
  Iterations, force evaluations = 8 37

MPI task timing breakdown:
Section |  min time  |  avg time  |  max time  |%varavg| %total
---------------------------------------------------------------
Pair    | 0.46015    | 0.46015    | 0.46015    |   0.0 | 56.80
Neigh   | 0          | 0          | 0          |   0.0 |  0.00
Comm    | 0.00093565 | 0.00093565 | 0.00093565 |   0.0 |  0.12
Output  | 0          | 0          | 0          |   0.0 |  0.00
Modify  | 0.33396    | 0.33396    | 0.33396    |   0.0 | 41.22
Other   |            | 0.01504    |            |       |  1.86

Nlocal:           1980 ave        1980 max        1980 min
Histogram: 1 0 0 0 0 0 0 0 0 0
Nghost:           6565 ave        6565 max        6565 min
Histogram: 1 0 0 0 0 0 0 0 0 0
Neighs:    1.36568e+06 ave 1.36568e+06 max 1.36568e+06 min
Histogram: 1 0 0 0 0 0 0 0 0 0
FullNghs:  1.98549e+06 ave 1.98549e+06 max 1.98549e+06 min
Histogram: 1 0 0 0 0 0 0 0 0 0

Total # of neighbors = 1985490
Ave neighs/atom = 1002.7727
Neighbor list builds = 0
Dangerous builds = 0
System init for write_data ...
WARNING: Temperature for thermo pressure is not for group all (src/thermo.cpp:520)
Setting up Verlet run ...
  Unit style    : real
  Current step  : 0
  Time step     : 1
Per MPI rank memory allocation (min/avg/max) = 65.4 | 65.4 | 65.4 Mbytes
   Step          Time           Temp     
         0   0              300          
      1000   1000           376.19265    
      2000   2000           356.1708     
      3000   3000           365.82577    
      4000   4000           366.67758    
      5000   5000           372.41674    
      6000   6000           370.10961    
      7000   7000           370.81663    
      8000   8000           368.13656    
      9000   9000           376.34308    
     10000   10000          367.10838    
Loop time of 140.185 on 1 procs for 10000 steps with 1980 atoms

Performance: 6.163 ns/day, 3.894 hours/ns, 71.334 timesteps/s
99.6% CPU use with 1 MPI tasks x 1 OpenMP threads

MPI task timing breakdown:
Section |  min time  |  avg time  |  max time  |%varavg| %total
---------------------------------------------------------------
Pair    | 99.189     | 99.189     | 99.189     |   0.0 | 70.76
Neigh   | 0          | 0          | 0          |   0.0 |  0.00
Comm    | 2.9229     | 2.9229     | 2.9229     |   0.0 |  2.09
Output  | 0.0042169  | 0.0042169  | 0.0042169  |   0.0 |  0.00
Modify  | 37.698     | 37.698     | 37.698     |   0.0 | 26.89
Other   |            | 0.3709     |            |       |  0.26

Nlocal:           1980 ave        1980 max        1980 min
Histogram: 1 0 0 0 0 0 0 0 0 0
Nghost:           6565 ave        6565 max        6565 min
Histogram: 1 0 0 0 0 0 0 0 0 0
Neighs:    1.36807e+06 ave 1.36807e+06 max 1.36807e+06 min
Histogram: 1 0 0 0 0 0 0 0 0 0
FullNghs:  1.98603e+06 ave 1.98603e+06 max 1.98603e+06 min
Histogram: 1 0 0 0 0 0 0 0 0 0

Total # of neighbors = 1986030
Ave neighs/atom = 1003.0455
Neighbor list builds = 0
Dangerous builds = 0
System init for write_data ...
System init for write_data ...
0 1620 0 0
0 -0.625 1620
Total wall time: 0:02:21
srun: error: della-i14g12: task 0: Exited with exit code 1
srun: Terminating StepId=6632489.1
LAMMPS exited with code 1 — not re-submitting.
