LAMMPS data file via write_data, version 23 Jun 2022, timestep = 0

1792 atoms
3 atom types

0 20.168875556741614 xlo xhi
0 20.168875556741614 ylo yhi
-2.2283669804811876 39.219258856468905 zlo zhi

Masses

1 12.011
2 1.00784
3 16

Atoms # charge/kk

1 1 -1.2675692547424549e-03 5.8265008928204433e-20 3.7816641668890525e+00 -8.9134679252961224e-01 0 0 0
2 1 -1.3617207664379512e-03 2.8062205788451106e-20 1.2605547222963509e+00 -8.9134679252961224e-01 0 0 0
3 1 8.0341824648730159e-03 1.2605547222963509e+00 1.2605547222963509e+00 -1.7826935841493849e+00 0 0 0
4 1 -1.3375708916417031e-03 2.5211094445927018e+00 1.2605547222963507e+00 -8.9134679252961224e-01 0 0 0
6 1 -1.3334113714061847e-03 7.6616158873073468e-20 6.3027736114817543e+00 -8.9134679252961224e-01 0 0 0
7 1 8.0262736886712611e-03 1.2605547222963507e+00 6.3027736114817543e+00 -1.7826935841493849e+00 0 0 0
8 1 8.0315751285178379e-03 1.2605547222963509e+00 3.7816641668890529e+00 -1.7826935841493849e+00 0 0 0
9 1 -1.3309683205678605e-03 2.5211094445927023e+00 6.3027736114817552e+00 -8.9134679252961224e-01 0 0 0
10 1 -1.4380240105398431e-03 2.5211094445927018e+00 3.7816641668890525e+00 -8.9134679252961224e-01 0 0 0
11 1 8.0541781058405329e-03 3.7816641668890525e+00 3.7816641668890525e+00 -1.7826935841493849e+00 0 0 0
12 1 8.0295180316904448e-03 3.7816641668890529e+00 1.2605547222963509e+00 -1.7826935841493849e+00 0 0 0
13 1 -1.3466184083178357e-03 5.0422188891854045e+00 3.7816641668890534e+00 -8.9134679252961224e-01 0 0 0
14 1 -1.2714322229527017e-03 5.0422188891854036e+00 1.2605547222963509e+00 -8.9134679252961224e-01 0 0 0
15 1 8.0441986841385590e-03 6.3027736114817543e+00 1.2605547222963507e+00 -1.7826935841493849e+00 0 0 0
24 1 8.0306985651555085e-03 3.7816641668890529e+00 6.3027736114817543e+00 -1.7826935841493849e+00 0 0 0
26 1 -1.2756584913327048e-03 5.0422188891854027e+00 6.3027736114817543e+00 -8.9134679252961224e-01 0 0 0
27 1 8.0249244977971187e-03 6.3027736114817543e+00 6.3027736114817543e+00 -1.7826935841493849e+00 0 0 0
28 1 8.0243332643430264e-03 6.3027736114817543e+00 3.7816641668890529e+00 -1.7826935841493849e+00 0 0 0
129 1 2.1949858748711438e-03 2.0161475993955321e+01 2.5135908045888806e+00 5.8579256926706423e-02 -1 0 0
130 1 1.7464108409652719e-03 1.5879372561658132e-02 3.7403023245307572e+00 2.7145434596352458e+00 0 0 0
131 1 1.8838649930432352e-03 5.4637598705682949e-04 1.2730491357338753e+00 2.6787738085080623e+00 0 0 0
132 1 2.0647045509751966e-03 1.2336847904355346e+00 2.5641206254106561e+00 9.2462734717963446e-01 0 0 0
133 1 2.1569837146194165e-03 2.0144772527731600e+01 2.9371625543353617e-02 -1.3998744512831182e-03 -1 0 0
134 1 2.4673040027339090e-03 1.2603433554970263e+00 1.2558603553478884e+00 1.7453212581931770e+00 0 0 0
135 1 2.2912766019880931e-03 2.5251327875018093e+00 1.3156650756226870e-02 2.8292388567668202e-02 0 0 0
136 1 2.1444513757581580e-03 1.2152881469651908e+00 3.1637680015015462e-02 9.2886518903145820e-01 0 0 0
137 1 1.9056328533854942e-03 2.5224393086878716e+00 1.2302621628649411e+00 2.6953759504872594e+00 0 0 0
138 1 1.9202860313989982e-03 3.7869964048334390e+00 2.4636860281544892e-02 8.7636281649473691e-01 0 0 0
141 1 1.7574298186065079e-03 3.3078106452530807e-02 6.3267078012899249e+00 2.7055526297974200e+00 0 0 0
143 1 2.2209692344575373e-03 2.0161427329065596e+01 5.0606451267861408e+00 1.4854380616115244e-02 -1 0 0
144 1 2.5284531179879510e-03 1.2572019315627958e+00 6.3170651279019845e+00 1.8350277098143581e+00 0 0 0
145 1 2.4438792703154570e-03 1.2366194530643331e+00 3.7641847803588000e+00 1.8170355212753537e+00 0 0 0
146 1 2.2433854029291029e-03 2.5307006054586259e+00 5.0104065042410317e+00 1.9295229652186111e-03 0 0 0
147 1 2.2274475169727468e-03 1.2352461421137078e+00 5.0326605817604406e+00 9.5342403453765523e-01 0 0 0
148 1 1.9460524276271687e-03 2.5588607144419999e+00 6.3624169644845177e+00 2.7006061643801469e+00 0 0 0
149 1 1.8678879258389217e-03 2.4707453221822311e+00 3.8126347544846371e+00 2.7626256784779955e+00 0 0 0
150 1 2.1309233308641996e-03 3.7704464613797328e+00 5.0483191322221366e+00 8.9775610750936075e-01 0 0 0
151 1 2.2560593437677291e-03 2.4901206234622464e+00 2.5648867140864020e+00 -2.4041942989043514e-02 0 0 0
152 1 2.4821177372364050e-03 3.7562696356672132e+00 3.7724084826226307e+00 1.8508051269136283e+00 0 0 0
153 1 2.5075427064091237e-03 3.7518618350003679e+00 1.2673601933263352e+00 1.7482788009819044e+00 0 0 0
154 1 2.1912127093187839e-03 5.0243729874985057e+00 2.5774232876715386e+00 7.4628805097563658e-02 0 0 0
155 1 2.1069405928664129e-03 3.7534814553478633e+00 2.5519970030788710e+00 9.6099137562202419e-01 0 0 0
156 1 1.8464848704196908e-03 4.9713096837124908e+00 3.7722168013227209e+00 2.7267692630910925e+00 0 0 0
157 1 1.8619031602360382e-03 5.0746760981464352e+00 1.2698505600244103e+00 2.6589481240375599e+00 0 0 0
158 1 2.1731299791943278e-03 6.2588617022013207e+00 2.5726826297799237e+00 8.7908922687491908e-01 0 0 0
159 1 2.1576396209349855e-03 5.0161150743410925e+00 6.6618786638528826e-02 6.8820905479351921e-02 0 0 0
160 1 2.4928624133196613e-03 6.3072542729047125e+00 1.2851714473959304e+00 1.8290932462894574e+00 0 0 0
162 1 2.0827215656900721e-03 6.2457892881696777e+00 3.0043496324070825e-02 9.3155795702860489e-01 0 0 0
179 1 2.4842712742849399e-03 3.7839832446004698e+00 6.2918857199384037e+00 1.7640085422643388e+00 0 0 0
183 1 1.8675910932788927e-03 5.0622611349461275e+00 6.3160642483888072e+00 2.7066714513311196e+00 0 0 0
185 1 2.2253036224628218e-03 5.0704331507792553e+00 5.0337480740577432e+00 3.3306863729088948e-02 0 0 0
186 1 2.4659173210782237e-03 6.3012209456071062e+00 6.3185639505928020e+00 1.8364801597324540e+00 0 0 0
187 1 2.4496918369226956e-03 6.2521360388293035e+00 3.8665535852038309e+00 1.8242408374755394e+00 0 0 0
189 1 1.9759729140956086e-03 6.2984855261424304e+00 5.0796560518361078e+00 9.5912694569116752e-01 0 0 0
385 1 1.8415054080712281e-03 2.0167078531854763e+01 2.5526479309387691e+00 3.5876771669173131e+00 -1 0 0
388 1 2.0653789373786409e-03 1.2676198901026787e+00 2.4673425215847842e+00 4.4587295340471487e+00 0 0 0
389 1 1.9770693029920079e-03 2.0141538531787027e+01 4.1500294112897164e-02 3.5662606669212678e+00 -1 0 0
391 1 1.8653312085176678e-03 2.5937431119737213e+00 1.0423217932985342e-02 3.5852777692091311e+00 0 0 0
392 1 2.1767587153195146e-03 1.3345640692698639e+00 3.3903812692144715e-02 4.4423389256427877e+00 0 0 0
394 1 2.1686303690210290e-03 3.8545875810401018e+00 2.4541311578640916e-02 4.5244422665372035e+00 0 0 0
399 1 1.8857210386289097e-03 2.0124384654599385e+01 5.0317869000748416e+00 3.5276553363027636e+00 -1 0 0
402 1 1.8751668365522716e-03 2.5271242031763173e+00 5.0882634920050851e+00 3.5794522168791749e+00 0 0 0
403 1 2.1874059943668054e-03 1.2858532851900482e+00 5.0270732558946740e+00 4.4911853678832987e+00 0 0 0
406 1 2.1152788038219998e-03 3.7963391241983531e+00 4.9984946118731504e+00 4.4931584571513623e+00 0 0 0
407 1 1.8906811556523761e-03 2.5329901995863158e+00 2.5063358310072168e+00 3.5751718758388038e+00 0 0 0
410 1 1.9039589618284095e-03 5.0170592044387501e+00 2.4788067505170330e+00 3.5920120954524775e+00 0 0 0
411 1 2.0739545559917702e-03 3.7905833938266702e+00 2.5333558980056101e+00 4.4820638082268109e+00 0 0 0
414 1 2.1657045678537038e-03 6.2961571729552119e+00 2.5044830220862209e+00 4.5240594608504185e+00 0 0 0
415 1 1.9390839212935192e-03 5.1033755245313035e+00 1.6250036361588241e-02 3.5900674302464379e+00 0 0 0
418 1 2.0745266661634297e-03 6.3255128556110645e+00 2.0150820299464584e+01 4.5637884322952988e+00 0 -1 0
441 1 1.8290466748889704e-03 5.0558242279033028e+00 5.0681544300227710e+00 3.5657747831545858e+00 0 0 0
445 1 2.1478476746828665e-03 6.2716364835043574e+00 5.0746544674172736e+00 4.4915444554087554e+00 0 0 0
16 1 -1.4247954854748601e-03 7.5633283337781059e+00 1.2605547222963516e+00 -8.9134679252961224e-01 0 0 0
29 1 -1.3200521461023036e-03 7.5633283337781059e+00 6.3027736114817543e+00 -8.9134679252961224e-01 0 0 0
30 1 -1.2811853585654907e-03 7.5633283337781050e+00 3.7816641668890520e+00 -8.9134679252961224e-01 0 0 0
31 1 8.0226946548712513e-03 8.8238830560744557e+00 3.7816641668890525e+00 -1.7826935841493849e+00 0 0 0
32 1 8.0457445487095072e-03 8.8238830560744557e+00 1.2605547222963511e+00 -1.7826935841493849e+00 0 0 0
33 1 -1.3484130359076511e-03 1.0084437778370807e+01 3.7816641668890529e+00 -8.9134679252961224e-01 0 0 0
34 1 -1.4557106565630906e-03 1.0084437778370807e+01 1.2605547222963498e+00 -8.9134679252961224e-01 0 0 0
35 1 8.0627584834702844e-03 1.1344992500667157e+01 1.2605547222963507e+00 -1.7826935841493849e+00 0 0 0
36 1 -1.3967878631622962e-03 1.2605547222963509e+01 1.2605547222963516e+00 -8.9134679252961224e-01 0 0 0
52 1 8.0348533330325371e-03 8.8238830560744557e+00 6.3027736114817543e+00 -1.7826935841493849e+00 0 0 0
54 1 -1.3136425189950462e-03 1.0084437778370805e+01 6.3027736114817534e+00 -8.9134679252961224e-01 0 0 0
55 1 8.0010939226596491e-03 1.1344992500667159e+01 6.3027736114817561e+00 -1.7826935841493849e+00 0 0 0
56 1 8.0133612111040545e-03 1.1344992500667157e+01 3.7816641668890525e+00 -1.7826935841493849e+00 0 0 0
57 1 -1.3162873809749592e-03 1.2605547222963509e+01 6.3027736114817543e+00 -8.9134679252961224e-01 0 0 0
58 1 -1.2980262759297691e-03 1.2605547222963509e+01 3.7816641668890512e+00 -8.9134679252961224e-01 0 0 0
161 1 2.2035986416809109e-03 7.5358908470208386e+00 6.4663155618346027e-02 2.3880837203785407e-02 0 0 0
163 1 1.7852612299366843e-03 7.5611443593717889e+00 1.2244159996573845e+00 2.7521078587014927e+00 0 0 0
164 1 2.1479893743770089e-03 8.7493460172330924e+00 2.1556695141481245e-03 9.0105628470606136e-01 0 0 0
188 1 2.2537976049393452e-03 7.5152988636080620e+00 5.0612182275072488e+00 5.1379221259313546e-02 0 0 0
190 1 1.8152225056501446e-03 7.6145820836398634e+00 6.3141145669250784e+00 2.6967921475013963e+00 0 0 0
191 1 1.9148158535747270e-03 7.4831563009511379e+00 3.7934827758333589e+00 2.6565264787599236e+00 0 0 0
192 1 2.1276049915935043e-03 8.8210698241361687e+00 5.0328551272791096e+00 9.0949634357466946e-01 0 0 0
193 1 2.1121935971202916e-03 7.5312540046478809e+00 2.4884841570980170e+00 -7.7808696637954970e-03 0 0 0
194 1 2.5309602260062307e-03 8.7687545652636736e+00 3.7686707270754360e+00 1.7888172353938820e+00 0 0 0
195 1 2.5047199784616323e-03 8.7423710542054796e+00 1.2687942035475943e+00 1.8250652107309135e+00 0 0 0
196 1 2.2192980524783899e-03 1.0065970469145938e+01 2.4588872681308485e+00 -4.5285784925555420e-02 0 0 0
197 1 2.1760297331115839e-03 8.7574680860866287e+00 2.5141687985018089e+00 8.7153340140486424e-01 0 0 0
198 1 1.8937001020354546e-03 1.0051963411831522e+01 3.7615845804539214e+00 2.6766712012754463e+00 0 0 0
199 1 1.8875632482336210e-03 1.0038519949541003e+01 1.2965117166178621e+00 2.6953771668000308e+00 0 0 0
200 1 2.0616550616073667e-03 1.1339121377126148e+01 2.4744010534721479e+00 8.8129526878705144e-01 0 0 0
201 1 2.1770114248945227e-03 1.0032862404921374e+01 9.7572594953606023e-03 9.2074185346488046e-04 0 0 0
202 1 2.3968841010557213e-03 1.1260336067059033e+01 1.2695919289196220e+00 1.8079956749048403e+00 0 0 0
203 1 2.3101711249681376e-03 1.2537811913105481e+01 6.1552736235571167e-03 1.7890250757121858e-02 0 0 0
204 1 2.0732092796649790e-03 1.1221058202900752e+01 2.0154498385397360e+01 9.3607880307528091e-01 0 -1 0
205 1 1.9942745096151720e-03 1.2550370565347032e+01 1.2550125262444671e+00 2.6481009381984917e+00 0 0 0
237 1 2.5033846402311502e-03 8.8388971424537583e+00 6.2686487343586146e+00 1.8340741672297061e+00 0 0 0
241 1 1.8909827113095465e-03 1.0118143880856499e+01 6.3042475217497991e+00 2.6993032924431777e+00 0 0 0
243 1 2.2218083929756126e-03 1.0079206345186842e+01 4.9950552100154821e+00 1.2049952575479559e-02 0 0 0
244 1 2.4561806724884110e-03 1.1384273272866576e+01 6.2921624958478093e+00 1.8508595881120955e+00 0 0 0
245 1 2.6123925714103277e-03 1.1311927917012808e+01 3.7174164462308825e+00 1.7869146962408837e+00 0 0 0
246 1 2.1249746701593815e-03 1.2574255609903670e+01 4.9999241730319737e+00 -1.5854799562279507e-02 0 0 0
247 1 2.1941751070164357e-03 1.1353865430223806e+01 5.0563677217112932e+00 8.7938696889554013e-01 0 0 0
248 1 1.8210412073778109e-03 1.2600133564206576e+01 6.3243265905173045e+00 2.6750885220823708e+00 0 0 0
249 1 1.8460367669433484e-03 1.2630586697307615e+01 3.7491095687671701e+00 2.6706541851944059e+00 0 0 0
251 1 2.1853166661813658e-03 1.2602296481459010e+01 2.4734791347467588e+00 5.1625469948728527e-02 0 0 0
417 1 1.9258254120120832e-03 7.5748039796914881e+00 2.0138576449307422e+01 3.6244960082233986e+00 0 -1 0
420 1 2.0362457911076255e-03 8.8813068230016832e+00 4.3777885085301622e-02 4.4827784735194864e+00 0 0 0
444 1 1.9209542222600323e-03 7.5475911916286904e+00 5.0589997701393061e+00 3.5814911445934858e+00 0 0 0
448 1 2.1278929263292504e-03 8.8444532207130244e+00 5.0523789485418558e+00 4.4745912315099936e+00 0 0 0
449 1 1.9783563693941192e-03 7.5400899490574469e+00 2.4949059204130695e+00 3.6221051719412132e+00 0 0 0
452 1 1.7859876453201965e-03 1.0059537126270564e+01 2.5611389240705509e+00 3.5583684465709244e+00 0 0 0
453 1 2.1080336540482895e-03 8.8347400957072750e+00 2.5357074090064886e+00 4.4909335515117430e+00 0 0 0
456 1 2.1077257797468712e-03 1.1338903058956193e+01 2.5130108273779634e+00 4.4443783552206817e+00 0 0 0
457 1 1.8443507810903949e-03 1.0095642440485699e+01 2.0155084809471560e+01 3.6052073041791544e+00 0 -1 0
459 1 1.8065543281747319e-03 1.2583261853358449e+01 2.0137905924992040e+01 3.5357127704031330e+00 0 -1 0
460 1 2.0540697996346783e-03 1.1353438734373787e+01 1.0189526483902287e-02 4.4538649265652666e+00 0 0 0
499 1 1.8654722302531949e-03 1.0070077389193493e+01 5.0573526093275607e+00 3.5818412451162516e+00 0 0 0
502 1 1.8775903548095651e-03 1.2623700590767378e+01 5.0544892394564664e+00 3.5644335597168624e+00 0 0 0
503 1 2.1259371611951198e-03 1.1354907893732351e+01 5.0158520990922097e+00 4.4612264735801448e+00 0 0 0
507 1 1.9622799949414716e-03 1.2607335796680685e+01 2.5148366763739562e+00 3.5806678021554261e+00 0 0 0
59 1 8.0292270337756193e-03 1.3866101945259860e+01 3.7816641668890538e+00 -1.7826935841493849e+00 0 0 0
60 1 8.0470558993969276e-03 1.3866101945259860e+01 1.2605547222963507e+00 -1.7826935841493849e+00 0 0 0
61 1 -1.3028414894451980e-03 1.5126656667556210e+01 3.7816641668890529e+00 -8.9134679252961224e-01 0 0 0
62 1 -1.3786627112215518e-03 1.5126656667556210e+01 1.2605547222963498e+00 -8.9134679252961224e-01 0 0 0
63 1 8.0251485810533280e-03 1.6387211389852563e+01 1.2605547222963525e+00 -1.7826935841493849e+00 0 0 0
64 1 -1.3509003735495588e-03 1.7647766112148911e+01 1.2605547222963516e+00 -8.9134679252961224e-01 0 0 0
84 1 8.0433775561833433e-03 1.3866101945259860e+01 6.3027736114817543e+00 -1.7826935841493849e+00 0 0 0
86 1 -1.3074785996776105e-03 1.5126656667556212e+01 6.3027736114817543e+00 -8.9134679252961224e-01 0 0 0
87 1 8.0342413154204356e-03 1.6387211389852560e+01 6.3027736114817534e+00 -1.7826935841493849e+00 0 0 0
88 1 8.0011281993194409e-03 1.6387211389852560e+01 3.7816641668890529e+00 -1.7826935841493849e+00 0 0 0
89 1 -1.3719813979541163e-03 1.7647766112148911e+01 6.3027736114817543e+00 -8.9134679252961224e-01 0 0 0
90 1 -1.2281731173085164e-03 1.7647766112148915e+01 3.7816641668890529e+00 -8.9134679252961224e-01 0 0 0
91 1 8.0159308579939009e-03 1.8908320834445263e+01 3.7816641668890520e+00 -1.7826935841493849e+00 0 0 0
92 1 8.0331795032157673e-03 1.8908320834445263e+01 1.2605547222963498e+00 -1.7826935841493849e+00 0 0 0
112 1 8.0384097486549278e-03 1.8908320834445263e+01 6.3027736114817543e+00 -1.7826935841493849e+00 0 0 0
206 1 1.9722604899622192e-03 1.3825295403197476e+01 2.0146311554785800e+01 8.9799110731858700e-01 0 -1 0
250 1 2.1678859989398844e-03 1.3837871345775486e+01 5.0658851728535961e+00 9.0985371109363078e-01 0 0 0
252 1 2.5643629830272483e-03 1.3830250201992664e+01 3.7696399086319832e+00 1.7918008162504067e+00 0 0 0
253 1 2.4761269304891670e-03 1.3827393172341457e+01 1.1909602321979442e+00 1.7076635500815120e+00 0 0 0
254 1 2.1959259268546261e-03 1.5119760743494055e+01 2.5159817322413143e+00 -9.4683110681444260e-03 0 0 0
255 1 2.0887503397917849e-03 1.3865825048247999e+01 2.4418877324477939e+00 8.6168858818803584e-01 0 0 0
256 1 1.8509930722278869e-03 1.5081675485519810e+01 3.8135114085727460e+00 2.6807458951983225e+00 0 0 0
257 1 2.0265343692529741e-03 1.5132429668052701e+01 1.2411113979562405e+00 2.6505071878346644e+00 0 0 0
258 1 2.0635243694466067e-03 1.6397979155305208e+01 2.5352594511079238e+00 8.9333796919987174e-01 0 0 0
259 1 2.2044657378736403e-03 1.5132451658111078e+01 2.0152472341879022e+01 -1.3392606594720127e-02 0 -1 0
260 1 2.4756458377964102e-03 1.6355355110096571e+01 1.3055403921891657e+00 1.7917468876754870e+00 0 0 0
261 1 2.1974135207577339e-03 1.7640997159445117e+01 2.0166986303002204e+01 -7.0459997076207162e-04 0 -1 0
262 1 2.2136449247951327e-03 1.6354941714011062e+01 2.0130960856541165e+01 9.0645360937262986e-01 0 -1 0
263 1 1.9004997249626790e-03 1.7604047948805654e+01 1.2863290342369993e+00 2.6858840047952612e+00 0 0 0
264 1 2.1164274542223140e-03 1.8892068220901816e+01 4.0975213834755827e-03 8.9397593043234691e-01 0 0 0
301 1 2.5185164240793855e-03 1.3849437510354944e+01 6.3316360261511111e+00 1.7815354439536450e+00 0 0 0
305 1 1.9584944448377143e-03 1.5101353391315637e+01 6.2891137552717744e+00 2.7317083476002457e+00 0 0 0
307 1 2.2628088979566269e-03 1.5151768531462194e+01 5.0430990777364517e+00 6.4091977223161858e-02 0 0 0
308 1 2.5840431990434704e-03 1.6384884721236485e+01 6.2746977920901719e+00 1.7821044550366580e+00 0 0 0
309 1 2.6209966393220419e-03 1.6369285634045529e+01 3.7820554976916076e+00 1.7716857347115087e+00 0 0 0
310 1 2.2008280256627837e-03 1.7640930149048973e+01 5.1251064645443725e+00 1.4403460380854324e-02 0 0 0
311 1 1.9383412372985173e-03 1.6395536353711130e+01 5.0679442809887716e+00 8.9711572663130845e-01 0 0 0
312 1 1.9072664270538516e-03 1.7642373648426840e+01 6.3101062662969563e+00 2.7318272635450809e+00 0 0 0
313 1 1.8120265674085969e-03 1.7678763193063094e+01 3.8400728592479552e+00 2.6878842086717123e+00 0 0 0
314 1 2.1313281198913998e-03 1.8875392174447281e+01 5.0786572609782050e+00 9.1963046298472473e-01 0 0 0
315 1 2.2280732401515797e-03 1.7633712460546153e+01 2.5206258995351352e+00 2.5501333812788421e-02 0 0 0
316 1 2.5686095428505435e-03 1.8903680664580673e+01 3.7948309409404719e+00 1.8140505775675784e+00 0 0 0
317 1 2.4421518822722284e-03 1.8881380228145979e+01 1.2230449493209767e+00 1.8042128038008258e+00 0 0 0
318 1 2.1472777314569913e-03 1.8918169692565886e+01 2.4494485921079980e+00 9.2181390287377774e-01 0 0 0
355 1 2.5261374200763187e-03 1.8972234692167735e+01 6.3102553786762661e+00 1.8316885899502839e+00 0 0 0
462 1 2.1486277237131534e-03 1.3899471404848702e+01 2.0149195568126569e+01 4.3530040752046766e+00 0 -1 0
506 1 2.1444376320569900e-03 1.3844930568856601e+01 5.0342969763990988e+00 4.4178391982263268e+00 0 0 0
510 1 1.8379811373564756e-03 1.5149454778841747e+01 2.5582801453712900e+00 3.5819480577972382e+00 0 0 0
511 1 2.0661316934741012e-03 1.3942346168657577e+01 2.5427117928423821e+00 4.4898231019318056e+00 0 0 0
514 1 2.0576557459194671e-03 1.6331534014932036e+01 2.5465784003421263e+00 4.4639095728671991e+00 0 0 0
515 1 1.7685895359554813e-03 1.5162705300792480e+01 2.0147064833861439e+01 3.5255141912994579e+00 0 -1 0
517 1 1.8934806719644313e-03 1.7594473953991887e+01 1.9689326245943880e-03 3.5835101970197378e+00 0 0 0
518 1 2.0691682716340652e-03 1.6397266160742333e+01 2.3981868391692477e-02 4.5118271499950797e+00 0 0 0
520 1 2.0619783570595936e-03 1.8864704538376621e+01 2.0154670520171027e+01 4.4661486614658878e+00 0 -1 0
563 1 1.7519582538588392e-03 1.5139898881181896e+01 5.0353171461385182e+00 3.5376969218759831e+00 0 0 0
566 1 1.8429824588314075e-03 1.7680289589063904e+01 5.0668939672420050e+00 3.5442439017089025e+00 0 0 0
567 1 2.1822582855132110e-03 1.6392905865071885e+01 5.0385115521046195e+00 4.4594334681790970e+00 0 0 0
570 1 2.1527055820928392e-03 1.8966677241692700e+01 5.0628778099931253e+00 4.4779771971018159e+00 0 0 0
571 1 1.9817481642282119e-03 1.7676539957855226e+01 2.5419939087557650e+00 3.5560523433497209e+00 0 0 0
574 1 2.0970474391577855e-03 1.8918011058351119e+01 2.4816029421630441e+00 4.4757567132819869e+00 0 0 0
5 1 -1.3226172439140169e-03 7.2904697889390891e-20 8.8238830560744574e+00 -8.9134679252961224e-01 0 0 0
18 1 -1.2763553903621663e-03 4.9251146677668384e-20 1.1344992500667157e+01 -8.9134679252961224e-01 0 0 0
19 1 8.0138758231525602e-03 1.2605547222963507e+00 1.1344992500667157e+01 -1.7826935841493849e+00 0 0 0
20 1 8.0181277708777730e-03 1.2605547222963511e+00 8.8238830560744557e+00 -1.7826935841493849e+00 0 0 0
21 1 -1.3700144478414897e-03 2.5211094445927014e+00 1.1344992500667159e+01 -8.9134679252961224e-01 0 0 0
22 1 -1.3235304306242598e-03 2.5211094445927014e+00 8.8238830560744557e+00 -8.9134679252961224e-01 0 0 0
23 1 8.0305171591927745e-03 3.7816641668890525e+00 8.8238830560744557e+00 -1.7826935841493849e+00 0 0 0
25 1 -1.3189927917671579e-03 5.0422188891854036e+00 8.8238830560744557e+00 -8.9134679252961224e-01 0 0 0
44 1 8.0449944802062842e-03 3.7816641668890525e+00 1.1344992500667157e+01 -1.7826935841493849e+00 0 0 0
46 1 -1.3392205411525745e-03 5.0422188891854027e+00 1.1344992500667157e+01 -8.9134679252961224e-01 0 0 0
47 1 8.0323887205845310e-03 6.3027736114817561e+00 1.1344992500667159e+01 -1.7826935841493849e+00 0 0 0
48 1 8.0266225638079489e-03 6.3027736114817543e+00 8.8238830560744557e+00 -1.7826935841493849e+00 0 0 0
139 1 2.1920386872572297e-03 5.1283481743664271e-03 7.5735346167287876e+00 3.0390326283266003e-02 0 0 0
140 1 1.9328085933400126e-03 7.4886704284578873e-02 8.8331847596463877e+00 2.6841228992734716e+00 0 0 0
142 1 2.0105761276492150e-03 1.2335165133683013e+00 7.5744793632162670e+00 8.6756353400537733e-01 0 0 0
165 1 2.2926905025201986e-03 4.9048704981240053e-02 1.2654814357446627e+01 5.5540703576693308e-02 0 0 0
167 1 1.9062979765630207e-03 4.5516689608543472e-02 1.1364367577179918e+01 2.6894468670362559e+00 0 0 0
168 1 2.0631506771082051e-03 1.2749593931138310e+00 1.2642718478024651e+01 9.0927016954506146e-01 0 0 0
169 1 2.1429438125417188e-03 4.8484426262063243e-03 1.0089833591633194e+01 1.7641214011210347e-02 0 0 0
170 1 2.4590421898749238e-03 1.3128386384603832e+00 1.1357137792804957e+01 1.8024857854215075e+00 0 0 0
171 1 2.5126177447883833e-03 1.3237055755762686e+00 8.7805061869669281e+00 1.7707822799153548e+00 0 0 0
172 1 2.1305819740430549e-03 2.4979754812359753e+00 1.0113604153644760e+01 -3.4031616169139613e-02 0 0 0
173 1 2.1793301908317204e-03 1.2491570651949881e+00 1.0140294357425875e+01 9.0033406548246087e-01 0 0 0
174 1 1.8865799742842737e-03 2.5461197578923218e+00 1.1336785996922824e+01 2.7008734552808544e+00 0 0 0
175 1 1.9675703915002360e-03 2.5307864084455103e+00 8.8441571545977187e+00 2.6947177628678305e+00 0 0 0
176 1 2.1783228879065780e-03 3.7810492978800081e+00 1.0095853736653119e+01 8.4601281542230011e-01 0 0 0
177 1 2.2416158441599791e-03 2.5003418976770835e+00 7.5551592392635376e+00 1.7553074465364728e-02 0 0 0
178 1 2.6012070905429589e-03 3.8107619315199202e+00 8.7886670399835722e+00 1.7287699879420324e+00 0 0 0
180 1 2.2251423123728154e-03 5.0408636043171065e+00 7.6024488046918730e+00 5.9098360918940884e-02 0 0 0
181 1 1.9915382428878055e-03 3.7723752889260864e+00 7.5132865562025426e+00 9.1718129656910563e-01 0 0 0
182 1 1.8905876288394781e-03 5.0814894703567717e+00 8.8226585057208506e+00 2.6459569589156806e+00 0 0 0
184 1 2.0759193690711216e-03 6.3110985780674627e+00 7.5247193579289666e+00 8.7438481083866049e-01 0 0 0
219 1 2.2093129875324787e-03 2.5210626142038302e+00 1.2614964107214984e+01 4.3450235508960773e-02 0 0 0
221 1 2.4508724119939517e-03 3.7794621965329727e+00 1.1370908869385309e+01 1.7819744587773352e+00 0 0 0
222 1 2.2886238611591952e-03 5.0416865110388285e+00 1.2614020969649502e+01 5.8815670249764918e-02 0 0 0
223 1 2.0395564286473091e-03 3.7695071592458262e+00 1.2588246474622791e+01 9.3661913601692626e-01 0 0 0
225 1 1.9202212833348041e-03 5.0385506988371604e+00 1.1388551580158964e+01 2.6120686675307758e+00 0 0 0
226 1 2.1605966176551092e-03 6.3154088583381833e+00 1.2612163634646640e+01 9.4086356063829590e-01 0 0 0
227 1 2.1576346538846234e-03 5.0715119723163200e+00 1.0120989778597851e+01 2.0762007307137217e-02 0 0 0
228 1 2.5001858727937941e-03 6.3222553711667180e+00 1.1330794806092991e+01 1.8106781951773419e+00 0 0 0
229 1 2.5312304521817185e-03 6.2968201949302403e+00 8.8377757253425138e+00 1.7505874792825258e+00 0 0 0
231 1 2.0237517805561356e-03 6.3546832790590111e+00 1.0096732154799001e+01 8.7345175575156619e-01 0 0 0
395 1 1.9722594387515256e-03 6.9802967083574363e-02 7.5761038973449750e+00 3.6267391567324805e+00 0 0 0
398 1 2.0778666411064690e-03 1.2509554079749163e+00 7.5900083037325698e+00 4.6002456579959228e+00 0 0 0
421 1 1.8550331186037332e-03 2.5096943077861471e-02 1.2617275334712225e+01 3.6044736639319002e+00 0 0 0
424 1 2.1270117805417149e-03 1.2983734573598726e+00 1.2587165522410434e+01 4.4796524131918911e+00 0 0 0
425 1 1.8872068726003889e-03 2.8467632518990708e-02 1.0074949883098588e+01 3.5807115097986877e+00 0 0 0
428 1 1.8322815954817642e-03 2.4836611502713835e+00 1.0111756263309733e+01 3.6054646118056932e+00 0 0 0
429 1 2.0887649023045326e-03 1.2881434682474822e+00 1.0098816602089300e+01 4.5107775320607448e+00 0 0 0
432 1 2.2605949774304737e-03 3.7562807611451086e+00 1.0029530611760791e+01 4.5157726902463651e+00 0 0 0
433 1 1.9736137948935190e-03 2.5187437031696822e+00 7.6097192410542265e+00 3.6852339357442907e+00 0 0 0
436 1 1.8717156048604997e-03 5.0431212724765482e+00 7.5869619018076691e+00 3.6000001333443330e+00 0 0 0
437 1 2.0945915956195505e-03 3.8075985906433774e+00 7.5298383628222378e+00 4.5007884850085587e+00 0 0 0
440 1 2.2080002509173398e-03 6.2997867728677139e+00 7.5851163827374917e+00 4.4871306889293860e+00 0 0 0
475 1 1.8139126044144031e-03 2.5161915817167615e+00 1.2632693302422568e+01 3.5897213819063616e+00 0 0 0
478 1 1.8940817180918951e-03 5.0187144052561612e+00 1.2627637884021084e+01 3.5678038285308458e+00 0 0 0
479 1 2.1589092760540001e-03 3.7378706427571089e+00 1.2604041263715974e+01 4.4832328515438364e+00 0 0 0
482 1 2.1337339192872601e-03 6.2585067733226749e+00 1.2638971911316341e+01 4.4817869694294439e+00 0 0 0
483 1 1.9932475234891649e-03 5.0295551710916486e+00 1.0084971981181200e+01 3.5475489010686294e+00 0 0 0
487 1 2.1303999042216431e-03 6.2627151114430575e+00 1.0101258178213445e+01 4.4527541324689128e+00 0 0 0
49 1 -1.3450861381198733e-03 7.5633283337781050e+00 1.1344992500667157e+01 -8.9134679252961224e-01 0 0 0
50 1 -1.3736815170953217e-03 7.5633283337781041e+00 8.8238830560744557e+00 -8.9134679252961224e-01 0 0 0
51 1 8.0292645724389048e-03 8.8238830560744574e+00 8.8238830560744574e+00 -1.7826935841493849e+00 0 0 0
53 1 -1.3279098986074254e-03 1.0084437778370807e+01 8.8238830560744557e+00 -8.9134679252961224e-01 0 0 0
76 1 8.0234285909579605e-03 8.8238830560744557e+00 1.1344992500667159e+01 -1.7826935841493849e+00 0 0 0
78 1 -1.3582367871094814e-03 1.0084437778370807e+01 1.1344992500667159e+01 -8.9134679252961224e-01 0 0 0
79 1 8.0294559826626834e-03 1.1344992500667157e+01 1.1344992500667157e+01 -1.7826935841493849e+00 0 0 0
80 1 8.0203328293948842e-03 1.1344992500667159e+01 8.8238830560744557e+00 -1.7826935841493849e+00 0 0 0
81 1 -1.2750577040645521e-03 1.2605547222963509e+01 1.1344992500667157e+01 -8.9134679252961224e-01 0 0 0
82 1 -1.3673717042278354e-03 1.2605547222963509e+01 8.8238830560744574e+00 -8.9134679252961224e-01 0 0 0
230 1 2.0931970854062548e-03 7.5269916086241428e+00 1.0065699440245554e+01 -1.7322086063880578e-02 0 0 0
232 1 1.8231559860581999e-03 7.6070623070652719e+00 1.1345337419502346e+01 2.7396510934708420e+00 0 0 0
233 1 1.9444886769413160e-03 7.5903577336641366e+00 8.8398135082952862e+00 2.6857069919107599e+00 0 0 0
234 1 2.1082474929761882e-03 8.8070628674464064e+00 1.0084973566095925e+01 8.4518255858726798e-01 0 0 0
235 1 2.1936428625039693e-03 7.5810407097911963e+00 7.5845815768466096e+00 7.9432013201789532e-03 0 0 0
236 1 2.5530372222252271e-03 8.8363793974569695e+00 8.8500626551650310e+00 1.7851853731328924e+00 0 0 0
238 1 2.1295060029372943e-03 1.0151148642658654e+01 7.5633501540501582e+00 -1.7708293867503423e-02 0 0 0
239 1 2.2772854968249189e-03 8.8611300039813159e+00 7.5284269136480280e+00 8.7501147933302004e-01 0 0 0
240 1 1.8405549798458393e-03 1.0064002660058238e+01 8.8039937734968685e+00 2.7112321209877361e+00 0 0 0
242 1 2.0282436967397786e-03 1.1363849665582368e+01 7.4965061644071280e+00 8.8714042331241805e-01 0 0 0
283 1 2.2086012704622478e-03 7.5847723729125791e+00 1.2593214952384347e+01 -5.9990278187466283e-03 0 0 0
285 1 2.5150648761452237e-03 8.8044438049754881e+00 1.1333911623092389e+01 1.7779871683733310e+00 0 0 0
286 1 2.2248381101136554e-03 1.0015645656777933e+01 1.2604647893644882e+01 4.0231325708459470e-02 0 0 0
287 1 2.0281269195802525e-03 8.8020873036435319e+00 1.2625917257756477e+01 9.4786859354590358e-01 0 0 0
289 1 1.7976803623664032e-03 1.0078586603510690e+01 1.1348500260461325e+01 2.6541742724915864e+00 0 0 0
290 1 2.0767613547213277e-03 1.1337516111702849e+01 1.2616462887084715e+01 8.8932492079865177e-01 0 0 0
291 1 2.1589574960709681e-03 1.0072892788015793e+01 1.0112800305397142e+01 -8.4170262752312763e-03 0 0 0
292 1 2.4641378224458887e-03 1.1285058234090108e+01 1.1369736510625190e+01 1.8203854184515997e+00 0 0 0
293 1 2.6076175460863203e-03 1.1338269385319796e+01 8.7970590472833639e+00 1.7099282543141110e+00 0 0 0
294 1 2.1762884113457315e-03 1.2605368241499832e+01 1.0046806449932266e+01 -3.8748727540417662e-03 0 0 0
295 1 2.1701570307864210e-03 1.1345295255403745e+01 1.0127482935311951e+01 9.0148975131592168e-01 0 0 0
296 1 1.9089304127661219e-03 1.2596947951853906e+01 1.1367072572186702e+01 2.6616602025661820e+00 0 0 0
297 1 1.8610453130440243e-03 1.2567838235300643e+01 8.8572165759728883e+00 2.6863205153143612e+00 0 0 0
299 1 2.1366923610032203e-03 1.2587790881743475e+01 7.5552627239199746e+00 2.4068988076588811e-02 0 0 0
337 1 2.2346814767976375e-03 1.2580636349229698e+01 1.2618995688002824e+01 4.7584759615610900e-02 0 0 0
486 1 1.8670417258789245e-03 7.5752164878919919e+00 1.0137205048878531e+01 3.5883098387826977e+00 0 0 0
490 1 2.1101592609659536e-03 8.7912533155019528e+00 1.0047776927262868e+01 4.4965510717360528e+00 0 0 0
491 1 1.8813892403829059e-03 7.5608756621379074e+00 7.5746856300212091e+00 3.5477593851255196e+00 0 0 0
494 1 1.8762234663787225e-03 1.0085442121376900e+01 7.6008172814405146e+00 3.5754743773617048e+00 0 0 0
495 1 2.2113015836214295e-03 8.8037242315865054e+00 7.6184709239943427e+00 4.5110590781346485e+00 0 0 0
498 1 2.0693074729958047e-03 1.1338484096733749e+01 7.5534021931791004e+00 4.5005831180227114e+00 0 0 0
539 1 1.9367099774307175e-03 7.5957511524080052e+00 1.2639940433837518e+01 3.6119092899332088e+00 0 0 0
542 1 1.8445325792940022e-03 1.0044843336387402e+01 1.2583474204819655e+01 3.5834737679846413e+00 0 0 0
543 1 2.0950980544318684e-03 8.8570168115470249e+00 1.2603169400003276e+01 4.5308267862779266e+00 0 0 0
546 1 2.0222739260967286e-03 1.1278524974882901e+01 1.2638788200444592e+01 4.4809951350698380e+00 0 0 0
547 1 1.9640934049040115e-03 1.0109124953377194e+01 1.0090220440514960e+01 3.5660519677064548e+00 0 0 0
550 1 1.8236631491085331e-03 1.2586124090339991e+01 1.0133653296847550e+01 3.5291611386006556e+00 0 0 0
551 1 2.1230907542025414e-03 1.1370430580563163e+01 1.0075287632324240e+01 4.4653188879017849e+00 0 0 0
555 1 1.9186759611484806e-03 1.2565911298087185e+01 7.6085306486550310e+00 3.5788031185055869e+00 0 0 0
593 1 1.8809248223814220e-03 1.2570719568548654e+01 1.2603176276877781e+01 3.5764545959443401e+00 0 0 0
83 1 8.0496053902978128e-03 1.3866101945259858e+01 8.8238830560744557e+00 -1.7826935841493849e+00 0 0 0
85 1 -1.4038910376035414e-03 1.5126656667556210e+01 8.8238830560744557e+00 -8.9134679252961224e-01 0 0 0
104 1 8.0108992092688281e-03 1.3866101945259860e+01 1.1344992500667157e+01 -1.7826935841493849e+00 0 0 0
106 1 -1.3049796322787226e-03 1.5126656667556210e+01 1.1344992500667159e+01 -8.9134679252961224e-01 0 0 0
107 1 8.0335005021657212e-03 1.6387211389852563e+01 1.1344992500667159e+01 -1.7826935841493849e+00 0 0 0
108 1 8.0500116441632099e-03 1.6387211389852560e+01 8.8238830560744557e+00 -1.7826935841493849e+00 0 0 0
109 1 -1.2739142934828796e-03 1.7647766112148911e+01 1.1344992500667157e+01 -8.9134679252961224e-01 0 0 0
110 1 -1.3344817403398207e-03 1.7647766112148915e+01 8.8238830560744557e+00 -8.9134679252961224e-01 0 0 0
111 1 8.0348084477006813e-03 1.8908320834445263e+01 8.8238830560744574e+00 -1.7826935841493849e+00 0 0 0
124 1 8.0249422344684917e-03 1.8908320834445263e+01 1.1344992500667157e+01 -1.7826935841493849e+00 0 0 0
298 1 2.0235860596079999e-03 1.3852501343079817e+01 1.0045298516294052e+01 9.0227186501662693e-01 0 0 0
300 1 2.5655712241284198e-03 1.3835069852489806e+01 8.8367641357258240e+00 1.7905033089965772e+00 0 0 0
302 1 2.1949298342225647e-03 1.5141168569233647e+01 7.5581522919541184e+00 3.8327307640883053e-02 0 0 0
303 1 2.0555313284741062e-03 1.3869392598859939e+01 7.5604002500174809e+00 8.4329344096095316e-01 0 0 0
304 1 1.7597162002369329e-03 1.5145988965449094e+01 8.8448621488882306e+00 2.7025157524779404e+00 0 0 0
306 1 2.0983828223328353e-03 1.6394132896752396e+01 7.6112249599875845e+00 9.2194956605071077e-01 0 0 0
339 1 2.5416207025834021e-03 1.3892540029882809e+01 1.1327902230739946e+01 1.7661420106867738e+00 0 0 0
340 1 2.1824423968494341e-03 1.5087414645129194e+01 1.2567317503496739e+01 6.1233235649970439e-03 0 0 0
341 1 2.0705025561696530e-03 1.3875330586055528e+01 1.2588786356437634e+01 8.7748667896036725e-01 0 0 0
343 1 1.8448282079360045e-03 1.5144267131072771e+01 1.1309463122890307e+01 2.6379306989845883e+00 0 0 0
344 1 2.1623155859594565e-03 1.6393646396494109e+01 1.2605378893164874e+01 9.1076875561207971e-01 0 0 0
345 1 2.1793394898336938e-03 1.5121170432584284e+01 1.0014035044802423e+01 5.4010491313010497e-04 0 0 0
346 1 2.5031022803324934e-03 1.6393973832527401e+01 1.1318940991289839e+01 1.7879450328134852e+00 0 0 0
347 1 2.4568541691644117e-03 1.6335777186559707e+01 8.8121087490686989e+00 1.8182448779728770e+00 0 0 0
348 1 2.2989276260213126e-03 1.7648139075915953e+01 1.0083825657879350e+01 7.1464136680237850e-02 0 0 0
349 1 2.0532470447408194e-03 1.6341017402028751e+01 1.0056746855636794e+01 9.0833587852086894e-01 0 0 0
350 1 1.9208509742972425e-03 1.7689297414559633e+01 1.1314375090878512e+01 2.6797755576958551e+00 0 0 0
351 1 1.9343505573863173e-03 1.7669378401351892e+01 8.8761244109384236e+00 2.6935676982904369e+00 0 0 0
352 1 2.0966636507276214e-03 1.8937177091369136e+01 1.0102883715621052e+01 9.0251358841626250e-01 0 0 0
353 1 2.1957299544746556e-03 1.7647563779988996e+01 7.5909909566524698e+00 3.8809357244544714e-02 0 0 0
354 1 2.5603638397241101e-03 1.8931164772641463e+01 8.8293246722922234e+00 1.7835583203699719e+00 0 0 0
356 1 2.1007131663769532e-03 1.8883094498608287e+01 7.5716694360997181e+00 8.9733299913578857e-01 0 0 0
375 1 2.1897606424949659e-03 1.7659295128673868e+01 1.2632031457574170e+01 1.0812252268005107e-02 0 0 0
377 1 2.4958756564908416e-03 1.8960235242775429e+01 1.1375921983656825e+01 1.8082990292280141e+00 0 0 0
378 1 2.1732394736164264e-03 1.8862353041712648e+01 1.2635785689993074e+01 9.4138842177816529e-01 0 0 0
554 1 2.1232096294455283e-03 1.3887245689825447e+01 1.0117432183225114e+01 4.4273168775759553e+00 0 0 0
558 1 1.9067679924017831e-03 1.5124079730737060e+01 7.6409228141916188e+00 3.5873634083379229e+00 0 0 0
559 1 2.1010510232602904e-03 1.3847617821906184e+01 7.5846004782407030e+00 4.4721046438415373e+00 0 0 0
562 1 2.0326849144878169e-03 1.6365032473849336e+01 7.6033835804771259e+00 4.4381113006168071e+00 0 0 0
596 1 1.9286101034958504e-03 1.5142303569537427e+01 1.2607011446077836e+01 3.5758125595089503e+00 0 0 0
597 1 2.1104767467950204e-03 1.3835604808646945e+01 1.2561387682941378e+01 4.4234469699162648e+00 0 0 0
600 1 2.0945349457955065e-03 1.6380494167346729e+01 1.2586486995178733e+01 4.4016682469848414e+00 0 0 0
601 1 1.8859502205705342e-03 1.5119315413053432e+01 1.0080078764608205e+01 3.5523602952809750e+00 0 0 0
604 1 1.7913934595684172e-03 1.7715032592550386e+01 1.0095804769172839e+01 3.6023600460505558e+00 0 0 0
605 1 2.2235541871274194e-03 1.6473276598143240e+01 1.0082014887274770e+01 4.4949631294095180e+00 0 0 0
608 1 2.1347243035609686e-03 1.8964795669008335e+01 1.0100907214871995e+01 4.5125133296421058e+00 0 0 0
609 1 1.9556922144790215e-03 1.7684016478157663e+01 7.6145959553653428e+00 3.5839914092754963e+00 0 0 0
612 1 2.0796634292011909e-03 1.8935910961132656e+01 7.5880558376131733e+00 4.5164535151151446e+00 0 0 0
631 1 1.8985999951005410e-03 1.7692088144677363e+01 1.2588900458507128e+01 3.5805063949703033e+00 0 0 0
634 1 2.1170356518635486e-03 1.8954472617408364e+01 1.2626981821474027e+01 4.4626191809031841e+00 0 0 0
17 1 -1.3162227830373534e-03 1.8979384606938887e-20 1.3866101945259860e+01 -8.9134679252961224e-01 0 0 0
37 1 -1.3128511404018851e-03 3.6344613204918172e-21 1.8908320834445263e+01 -8.9134679252961224e-01 0 0 0
38 1 -1.3719016056665631e-03 0.0000000000000000e+00 1.6387211389852560e+01 -8.9134679252961224e-01 0 0 0
39 1 8.0315921310144412e-03 1.2605547222963525e+00 1.6387211389852563e+01 -1.7826935841493849e+00 0 0 0
40 1 8.0312609936326902e-03 1.2605547222963507e+00 1.3866101945259860e+01 -1.7826935841493849e+00 0 0 0
41 1 -1.3312524741056000e-03 2.5211094445927014e+00 1.6387211389852560e+01 -8.9134679252961224e-01 0 0 0
42 1 -1.3092151620718510e-03 2.5211094445927014e+00 1.3866101945259858e+01 -8.9134679252961224e-01 0 0 0
43 1 8.0460394069977754e-03 3.7816641668890538e+00 1.3866101945259860e+01 -1.7826935841493849e+00 0 0 0
45 1 -1.3500828742807661e-03 5.0422188891854027e+00 1.3866101945259860e+01 -8.9134679252961224e-01 0 0 0
65 1 8.0332868830700170e-03 1.2605547222963498e+00 1.8908320834445263e+01 -1.7826935841493849e+00 0 0 0
66 1 -1.3379998783638260e-03 2.5211094445927031e+00 1.8908320834445263e+01 -8.9134679252961224e-01 0 0 0
67 1 8.0106347806316314e-03 3.7816641668890520e+00 1.8908320834445263e+01 -1.7826935841493849e+00 0 0 0
68 1 8.0213049893868224e-03 3.7816641668890529e+00 1.6387211389852560e+01 -1.7826935841493849e+00 0 0 0
69 1 -1.2253628185200441e-03 5.0422188891854027e+00 1.8908320834445263e+01 -8.9134679252961224e-01 0 0 0
70 1 -1.3248584183518655e-03 5.0422188891854045e+00 1.6387211389852560e+01 -8.9134679252961224e-01 0 0 0
71 1 8.0113657970430317e-03 6.3027736114817534e+00 1.6387211389852560e+01 -1.7826935841493849e+00 0 0 0
72 1 8.0347394270718943e-03 6.3027736114817543e+00 1.3866101945259860e+01 -1.7826935841493849e+00 0 0 0
93 1 8.0105267323015358e-03 6.3027736114817543e+00 1.8908320834445263e+01 -1.7826935841493849e+00 0 0 0
166 1 1.9889709008250461e-03 4.6730698794126384e-02 1.3891813358151580e+01 2.6877551714970447e+00 0 0 0
207 1 2.1739658657470400e-03 1.5629713262770153e-02 1.7657700650985561e+01 5.3450760652944494e-03 0 0 0
208 1 1.7605219971062248e-03 6.4517680464315202e-03 1.8912865577524325e+01 2.7409697111393245e+00 0 0 0
209 1 1.8194059911178326e-03 4.6906995800230181e-02 1.6391814285595814e+01 2.7549572169548511e+00 0 0 0
210 1 2.1741484246947159e-03 1.2834392737337372e+00 1.7668793439108192e+01 9.1648509711915138e-01 0 0 0
211 1 2.2329680153593020e-03 2.0163684370773595e+01 1.5172129202362898e+01 3.4768801851536094e-02 -1 0 0
212 1 2.4721170702232146e-03 1.2592184757250318e+00 1.6391695302267113e+01 1.8059471571248153e+00 0 0 0
213 1 2.4749922736147061e-03 1.3061302122894949e+00 1.3888160398858009e+01 1.8504854128825274e+00 0 0 0
214 1 2.1621151451579413e-03 2.5478897432115448e+00 1.5141573117951904e+01 1.0261243746075847e-02 0 0 0
215 1 2.1483033316466861e-03 1.2764847901263083e+00 1.5145413828104683e+01 8.7878875449794236e-01 0 0 0
216 1 1.8583123423925947e-03 2.5409648024025553e+00 1.6372757079085954e+01 2.6497509474758210e+00 0 0 0
217 1 1.6975120612778775e-03 2.5517330236879756e+00 1.3868608638704170e+01 2.6858036107552210e+00 0 0 0
218 1 2.1369853365102590e-03 3.7886146564271650e+00 1.5146561749691601e+01 8.8491892092457591e-01 0 0 0
220 1 2.5418459687242940e-03 3.7463657488632993e+00 1.3896718549995859e+01 1.8085719275603902e+00 0 0 0
224 1 1.8188030031582258e-03 5.0465754860047571e+00 1.3883446394922849e+01 2.7118399728445888e+00 0 0 0
265 1 2.5426653373218145e-03 1.2128355477107120e+00 1.8900554110657758e+01 1.8569047589695002e+00 0 0 0
266 1 1.9919269712720933e-03 2.5759835355858134e+00 1.8908268331338292e+01 2.6727493121151764e+00 0 0 0
267 1 2.2154284745391308e-03 2.5189474419682609e+00 1.7670924050977987e+01 3.3362656271207903e-03 0 0 0
268 1 2.5395568636401057e-03 3.8373255996795912e+00 1.8948817745614800e+01 1.7553895512953379e+00 0 0 0
269 1 2.4209436055367840e-03 3.7861491752800851e+00 1.6382376422044828e+01 1.8336041501167786e+00 0 0 0
270 1 2.1074675068301347e-03 5.0780730872466551e+00 1.7631746986120156e+01 -9.9366532668700089e-03 0 0 0
271 1 2.2236844675787766e-03 3.8240218079040091e+00 1.7656227882180541e+01 8.9160784918430847e-01 0 0 0
272 1 1.8436917219677061e-03 5.0520828387230718e+00 1.8906917611337814e+01 2.7095034007918404e+00 0 0 0
273 1 1.8881644164206999e-03 5.0134286061536848e+00 1.6354081322759477e+01 2.6602340733954506e+00 0 0 0
274 1 2.1638936325486715e-03 6.3047943613851816e+00 1.7624231503600559e+01 9.1423859787923112e-01 0 0 0
275 1 2.2131981085557846e-03 5.0851802730180928e+00 1.5080590879825349e+01 6.4169812726642232e-03 0 0 0
276 1 2.5251412617121214e-03 6.2923257720290042e+00 1.6331324002855105e+01 1.7719793570451738e+00 0 0 0
277 1 2.5019864082534782e-03 6.3326898922878287e+00 1.3852240661304043e+01 1.8810342637320494e+00 0 0 0
279 1 2.0974470710467975e-03 6.3181331063283093e+00 1.5101303452839598e+01 9.0438263678236863e-01 0 0 0
319 1 2.6029032120352333e-03 6.2983432791412035e+00 1.8920233482387751e+01 1.7859874164087972e+00 0 0 0
463 1 1.9168765625829313e-03 1.5059003025588590e-02 1.7669868459159428e+01 3.6362024835281517e+00 0 0 0
466 1 2.1027438425527357e-03 1.2886242565252930e+00 1.7672172749417282e+01 4.5093599812481644e+00 0 0 0
467 1 1.8199036534512704e-03 3.6277486303239639e-02 1.5147161486466224e+01 3.6313531978977478e+00 0 0 0
470 1 1.9280176914679890e-03 2.4835501674705367e+00 1.5101264982874241e+01 3.5622128827672501e+00 0 0 0
471 1 2.0757030949340089e-03 1.2461701645724048e+00 1.5164496142028399e+01 4.5107327250303104e+00 0 0 0
474 1 2.2055322530008777e-03 3.7704274074437603e+00 1.5149871158971729e+01 4.5092373489680400e+00 0 0 0
523 1 1.9396303582396818e-03 2.5239991646326256e+00 1.7648772066090128e+01 3.5809858311845182e+00 0 0 0
526 1 1.9064517720433615e-03 5.0289049521084390e+00 1.7632107110053354e+01 3.5619810989069811e+00 0 0 0
527 1 2.1266497241607240e-03 3.7943615068414709e+00 1.7619877884064483e+01 4.5342302165882495e+00 0 0 0
530 1 2.0908724183758571e-03 6.2576422786644672e+00 1.7656795463932593e+01 4.4604376420821508e+00 0 0 0
531 1 1.8858160293532074e-03 5.0245716484349208e+00 1.5096163458184671e+01 3.6252406391982874e+00 0 0 0
535 1 2.0943772535099332e-03 6.3603186325613041e+00 1.5161641664038909e+01 4.4245348145074912e+00 0 0 0
73 1 -1.3299798756397159e-03 7.5633283337781041e+00 1.6387211389852560e+01 -8.9134679252961224e-01 0 0 0
74 1 -1.3237737461653015e-03 7.5633283337781059e+00 1.3866101945259860e+01 -8.9134679252961224e-01 0 0 0
75 1 8.0200987892050761e-03 8.8238830560744557e+00 1.3866101945259858e+01 -1.7826935841493849e+00 0 0 0
77 1 -1.2960919519035777e-03 1.0084437778370807e+01 1.3866101945259858e+01 -8.9134679252961224e-01 0 0 0
94 1 -1.2220763204352637e-03 7.5633283337781059e+00 1.8908320834445263e+01 -8.9134679252961224e-01 0 0 0
95 1 8.0144104177071445e-03 8.8238830560744574e+00 1.8908320834445263e+01 -1.7826935841493849e+00 0 0 0
96 1 8.0382070675553956e-03 8.8238830560744557e+00 1.6387211389852560e+01 -1.7826935841493849e+00 0 0 0
97 1 -1.3192545201935037e-03 1.0084437778370805e+01 1.8908320834445263e+01 -8.9134679252961224e-01 0 0 0
98 1 -1.3077430683765998e-03 1.0084437778370807e+01 1.6387211389852560e+01 -8.9134679252961224e-01 0 0 0
99 1 8.0192493736252878e-03 1.1344992500667159e+01 1.6387211389852563e+01 -1.7826935841493849e+00 0 0 0
100 1 8.0456100740258964e-03 1.1344992500667157e+01 1.3866101945259860e+01 -1.7826935841493849e+00 0 0 0
101 1 -1.3283241343641742e-03 1.2605547222963509e+01 1.6387211389852560e+01 -8.9134679252961224e-01 0 0 0
102 1 -1.3290411846394868e-03 1.2605547222963509e+01 1.3866101945259860e+01 -8.9134679252961224e-01 0 0 0
113 1 8.0178123116195713e-03 1.1344992500667157e+01 1.8908320834445263e+01 -1.7826935841493849e+00 0 0 0
114 1 -1.3749662805836698e-03 1.2605547222963509e+01 1.8908320834445263e+01 -8.9134679252961224e-01 0 0 0
278 1 2.2326626286583249e-03 7.5931272954578173e+00 1.5137216961804699e+01 3.9971416501511488e-02 0 0 0
280 1 1.9515500792330188e-03 7.5977674782051015e+00 1.6363638856408553e+01 2.6655869161082797e+00 0 0 0
281 1 1.7338433960342253e-03 7.5900057900763160e+00 1.3836596195720608e+01 2.7013064857688951e+00 0 0 0
282 1 2.0626423787582625e-03 8.8491234351986172e+00 1.5063275601124790e+01 9.0095215834513820e-01 0 0 0
284 1 2.4314112606351238e-03 8.7814768313585834e+00 1.3847245796316756e+01 1.8468778911871542e+00 0 0 0
288 1 1.8585472585396850e-03 1.0094858308791032e+01 1.3836215580580925e+01 2.6884830376237390e+00 0 0 0
320 1 1.9175554540491681e-03 7.6168492231235421e+00 1.8910918228129677e+01 2.7186258608963323e+00 0 0 0
321 1 2.1993179004669325e-03 7.5878361088639048e+00 1.7634917032503324e+01 3.1732760567646359e-02 0 0 0
322 1 2.4420414633724934e-03 8.8548371532808279e+00 1.8917434284620697e+01 1.8446511027613279e+00 0 0 0
323 1 2.5265832746777738e-03 8.8732608885473816e+00 1.6405786594919263e+01 1.7711335119009679e+00 0 0 0
324 1 2.1826830788117917e-03 1.0104771161710030e+01 1.7625360386824553e+01 7.7260684227002758e-03 0 0 0
325 1 2.1303630576963431e-03 8.7998339856502810e+00 1.7701836396465133e+01 9.3936479175108401e-01 0 0 0
326 1 1.7511320702831171e-03 1.0096441506710399e+01 1.8887144908190326e+01 2.7117622258340672e+00 0 0 0
327 1 1.7818500815726924e-03 1.0121841893061193e+01 1.6417747955236244e+01 2.6507145355107218e+00 0 0 0
328 1 2.1609447436685154e-03 1.1377019596542665e+01 1.7647022968226242e+01 8.6076108748731739e-01 0 0 0
329 1 2.2064829602405529e-03 1.0071534159508317e+01 1.5116936582768762e+01 8.2418416527950331e-02 0 0 0
330 1 2.4824110412743098e-03 1.1324581842509822e+01 1.6380468578182132e+01 1.7841066985770391e+00 0 0 0
331 1 2.4589536130590014e-03 1.1329883759519818e+01 1.3854931737197903e+01 1.7788677319621689e+00 0 0 0
332 1 2.1993699616647332e-03 1.2576089600286711e+01 1.5127862633183360e+01 2.0403977796815895e-02 0 0 0
333 1 2.0392632963327456e-03 1.1344982306857382e+01 1.5115006105149879e+01 9.3546578853331586e-01 0 0 0
334 1 1.9562828834593887e-03 1.2624260022258081e+01 1.6362002716337429e+01 2.6825336153548429e+00 0 0 0
335 1 1.9060317160301430e-03 1.2617522736422321e+01 1.3839419128738605e+01 2.6774225655073369e+00 0 0 0
357 1 2.5378945912056788e-03 1.1265592119068820e+01 1.8953402408939493e+01 1.8011832838885915e+00 0 0 0
358 1 1.8884420782535878e-03 1.2615396220673512e+01 1.8915602710023379e+01 2.6902101187370855e+00 0 0 0
359 1 2.1582964078488290e-03 1.2593099177627510e+01 1.7683286608264151e+01 -1.4588774058969488e-02 0 0 0
534 1 1.7783122653438816e-03 7.6320347783071982e+00 1.5158949894835127e+01 3.5809657271561450e+00 0 0 0
538 1 2.0774903828951808e-03 8.7820700517831689e+00 1.5112394733711625e+01 4.4832136623063059e+00 0 0 0
577 1 1.9387784683284378e-03 7.5843364734080412e+00 1.7612250354003280e+01 3.6143760892061070e+00 0 0 0
580 1 1.8532523242134956e-03 1.0071880319380371e+01 1.7620688491158656e+01 3.5799342223625277e+00 0 0 0
581 1 2.0429967724522593e-03 8.8386780793011326e+00 1.7638268419683708e+01 4.4748367116894512e+00 0 0 0
584 1 2.1468246561961919e-03 1.1353751780466563e+01 1.7666773307746652e+01 4.4476702732312914e+00 0 0 0
585 1 1.8910463094444576e-03 1.0091103556473280e+01 1.5126716273659834e+01 3.5390382432329743e+00 0 0 0
588 1 1.9071414655601226e-03 1.2582512089008789e+01 1.5081818564725339e+01 3.5770301365504662e+00 0 0 0
589 1 2.0186172247995270e-03 1.1268486443191401e+01 1.5132053221236189e+01 4.4170395892538474e+00 0 0 0
615 1 1.8443369495639247e-03 1.2621412408848029e+01 1.7680987654466740e+01 3.5617008375009860e+00 0 0 0
103 1 8.0118689473333907e-03 1.3866101945259860e+01 1.3866101945259860e+01 -1.7826935841493849e+00 0 0 0
105 1 -1.2830771210593809e-03 1.5126656667556210e+01 1.3866101945259858e+01 -8.9134679252961224e-01 0 0 0
115 1 8.0506078109839965e-03 1.3866101945259858e+01 1.8908320834445263e+01 -1.7826935841493849e+00 0 0 0
116 1 8.0230642827019381e-03 1.3866101945259858e+01 1.6387211389852560e+01 -1.7826935841493849e+00 0 0 0
117 1 -1.3751549268237013e-03 1.5126656667556212e+01 1.8908320834445263e+01 -8.9134679252961224e-01 0 0 0
118 1 -1.3966476924472707e-03 1.5126656667556210e+01 1.6387211389852560e+01 -8.9134679252961224e-01 0 0 0
119 1 8.0454051727576591e-03 1.6387211389852560e+01 1.6387211389852560e+01 -1.7826935841493849e+00 0 0 0
120 1 8.0299771373244806e-03 1.6387211389852560e+01 1.3866101945259858e+01 -1.7826935841493849e+00 0 0 0
121 1 -1.4322048256630116e-03 1.7647766112148911e+01 1.6387211389852563e+01 -8.9134679252961224e-01 0 0 0
122 1 -1.3616457478686863e-03 1.7647766112148911e+01 1.3866101945259860e+01 -8.9134679252961224e-01 0 0 0
123 1 8.0319890868848446e-03 1.8908320834445263e+01 1.3866101945259858e+01 -1.7826935841493849e+00 0 0 0
125 1 8.0260599600031762e-03 1.6387211389852563e+01 1.8908320834445266e+01 -1.7826935841493849e+00 0 0 0
126 1 -1.3796650329800236e-03 1.7647766112148911e+01 1.8908320834445259e+01 -8.9134679252961224e-01 0 0 0
127 1 8.0166713713098296e-03 1.8908320834445263e+01 1.8908320834445263e+01 -1.7826935841493849e+00 0 0 0
128 1 8.0336889504201234e-03 1.8908320834445266e+01 1.6387211389852563e+01 -1.7826935841493849e+00 0 0 0
336 1 2.1019164488403144e-03 1.3871635488624134e+01 1.5134018718295694e+01 8.6828676019273288e-01 0 0 0
338 1 2.5790617584475596e-03 1.3898044249400387e+01 1.3880162991220550e+01 1.7740604475803177e+00 0 0 0
342 1 1.8579299098063320e-03 1.5109537549280796e+01 1.3910605238960263e+01 2.7059666781486253e+00 0 0 0
360 1 2.5492225905029732e-03 1.3874787418853305e+01 1.8939431553899450e+01 1.7786277398946968e+00 0 0 0
361 1 2.5017432299793640e-03 1.3828741532752442e+01 1.6424264401987823e+01 1.7986351080575058e+00 0 0 0
362 1 2.1057625994968946e-03 1.5136132544581821e+01 1.7654205611523235e+01 -1.3490164607156321e-02 0 0 0
363 1 2.1625369153035630e-03 1.3900108838529386e+01 1.7625411034606504e+01 8.6828887788006170e-01 0 0 0
364 1 1.8113052160015576e-03 1.5138054764728562e+01 1.8895495318839075e+01 2.6933197663844037e+00 0 0 0
365 1 1.9595316934024765e-03 1.5156406118235880e+01 1.6410641734467244e+01 2.6656519842454300e+00 0 0 0
366 1 2.1089974325138794e-03 1.6367261951529425e+01 1.7637179762141020e+01 8.7817644700336528e-01 0 0 0
367 1 2.1050948835211148e-03 1.5072848361618220e+01 1.5171011024298640e+01 -2.6133722756120636e-02 0 0 0
368 1 2.4593178380756067e-03 1.6339219640174299e+01 1.6370629726402189e+01 1.7436099966837439e+00 0 0 0
369 1 2.4668168264229641e-03 1.6351904861596054e+01 1.3830729133334367e+01 1.7782613465501635e+00 0 0 0
370 1 2.1961959639440025e-03 1.7674258811558914e+01 1.5149806855778008e+01 -3.6951768433321729e-02 0 0 0
371 1 2.2214904034592799e-03 1.6383711974655284e+01 1.5102087183734231e+01 8.7268236207917760e-01 0 0 0
372 1 1.9838103854559214e-03 1.7620304185509884e+01 1.6398742211419574e+01 2.6751632599173742e+00 0 0 0
373 1 1.8498579382978711e-03 1.7590397150061680e+01 1.3886579482038400e+01 2.7161538617964918e+00 0 0 0
374 1 2.0926129090181791e-03 1.8893729928237736e+01 1.5154354122403509e+01 9.1983331171873317e-01 0 0 0
376 1 2.5470729659258242e-03 1.8867819074160202e+01 1.3915774238155812e+01 1.8053223710856574e+00 0 0 0
379 1 2.5167493210450369e-03 1.6421280902220438e+01 1.8853854005726944e+01 1.7895670285503940e+00 0 0 0
380 1 1.8439016863493975e-03 1.7658720698893255e+01 1.8923203492361427e+01 2.7010068768284525e+00 0 0 0
381 1 2.2185187147353968e-03 1.7657069081171414e+01 1.7640783369686968e+01 -5.3330687118352739e-02 0 0 0
382 1 2.5904053854124316e-03 1.8936492754473303e+01 1.8860064538266467e+01 1.7926365151805030e+00 0 0 0
383 1 2.5286865115985700e-03 1.8962423181328351e+01 1.6367413057372051e+01 1.8471172118913624e+00 0 0 0
384 1 2.1696432417860588e-03 1.8931077680993067e+01 1.7637515814235059e+01 9.0074430286166374e-01 0 0 0
592 1 2.1817182257404403e-03 1.3832710569097616e+01 1.5118874794608198e+01 4.5018863320487306e+00 0 0 0
618 1 1.7535403091983759e-03 1.5134995635091917e+01 1.7698514084533528e+01 3.6097242930485058e+00 0 0 0
619 1 2.0289437992910037e-03 1.3859984208036650e+01 1.7706094984598668e+01 4.4019432837486745e+00 0 0 0
622 1 2.1113325457578110e-03 1.6338487877531659e+01 1.7735061951331648e+01 4.4630299538659006e+00 0 0 0
623 1 1.8922141991184588e-03 1.5139933167242921e+01 1.5156788684184571e+01 3.6035688513427182e+00 0 0 0
626 1 1.7923339836476001e-03 1.7572021401763799e+01 1.5128607231834703e+01 3.5256250127743960e+00 0 0 0
627 1 2.0530097392582997e-03 1.6362114323983999e+01 1.5145694588085643e+01 4.4830034421328921e+00 0 0 0
630 1 2.2628370362385857e-03 1.8866640841617173e+01 1.5171111849606948e+01 4.4260863471620278e+00 0 0 0
637 1 1.9386096694143093e-03 1.7635359180564354e+01 1.7675739149037135e+01 3.5607454238733172e+00 0 0 0
640 1 2.1326557771116843e-03 1.8903891277280572e+01 1.7676746256787769e+01 4.5164872743283029e+00 0 0 0
386 1 2.1001930728664357e-03 5.3202934326752785e-02 3.7219414662982682e+00 6.2194478676598992e+00 0 0 0
387 1 2.1088045188660288e-03 3.1418438672776876e-02 1.2605923967499133e+00 6.2722626213014081e+00 0 0 0
390 1 2.0989863728617065e-03 1.3042481006934599e+00 1.2803541381542805e+00 5.3539978493127824e+00 0 0 0
393 1 2.0886321695225253e-03 2.5610069477902586e+00 1.2785120199421902e+00 6.3709085808209940e+00 0 0 0
397 1 2.0595936949358959e-03 3.2342894584154549e-03 6.2946937941816694e+00 6.3061091921997088e+00 0 0 0
400 1 2.0794072100690326e-03 1.2678982429187431e+00 6.3016484553420460e+00 5.3950794307535892e+00 0 0 0
401 1 2.0420651813032025e-03 1.3000814507932834e+00 3.7759217832509298e+00 5.3342096965589381e+00 0 0 0
404 1 2.1310486002219251e-03 2.5087719976753875e+00 6.2673054924819001e+00 6.3106829612550843e+00 0 0 0
405 1 2.0715104891833309e-03 2.5140367611228185e+00 3.7849434219149520e+00 6.2938112768878272e+00 0 0 0
408 1 2.0799144822830446e-03 3.8484972743193162e+00 3.7652911085421734e+00 5.3571747876941762e+00 0 0 0
409 1 2.0922585529293981e-03 3.7865704511394260e+00 1.3065024736131936e+00 5.4415263220952221e+00 0 0 0
412 1 2.0758669328049214e-03 5.0575544931254299e+00 3.8072561996799035e+00 6.3331168262179469e+00 0 0 0
413 1 1.9727892274029038e-03 5.0552609302785818e+00 1.2755356911894433e+00 6.2632434936264554e+00 0 0 0
416 1 2.0281858644016623e-03 6.3535844741731538e+00 1.2164849169989655e+00 5.4051102984430033e+00 0 0 0
435 1 2.0888618174193462e-03 3.8157239319756360e+00 6.2657411057404886e+00 5.4005606785316331e+00 0 0 0
439 1 2.0250593743593530e-03 5.0291485523297466e+00 6.2755020229908727e+00 6.2723513953784886e+00 0 0 0
442 1 2.0972034314595835e-03 6.3114042992634101e+00 6.2861644911666721e+00 5.3877830267684876e+00 0 0 0
443 1 2.0992887239233609e-03 6.3459208586761129e+00 3.7514185379322638e+00 5.4181781552857062e+00 0 0 0
641 1 2.0368341494844937e-03 2.0143861837689983e+01 2.5161316475207500e+00 7.1195673618465181e+00 -1 0 0
642 1 2.0745495136541051e-03 1.9000984355130528e-02 3.7286155098662870e+00 9.8556406401016972e+00 0 0 0
643 1 2.0936778671065991e-03 1.9217775498915471e-02 1.2070275518128424e+00 9.8490111044749007e+00 0 0 0
644 1 2.1000715751515013e-03 1.2240696305578334e+00 2.5079726314601016e+00 8.0933922919509449e+00 0 0 0
645 1 2.0083104846216763e-03 8.3152744874382692e-02 2.0167437873019317e+01 7.1332329566191568e+00 0 -1 0
646 1 1.8808861055792498e-03 1.2940924008882908e+00 1.2469756027681085e+00 8.9857096182581806e+00 0 0 0
647 1 1.9913236129649311e-03 2.5593746666588117e+00 2.0144344190766269e+01 7.2185268737397399e+00 0 -1 0
648 1 2.0181629043055827e-03 1.3083972966629176e+00 2.0143897006322010e+01 8.0586306438589528e+00 0 -1 0
649 1 2.1833311674460706e-03 2.5405624748160336e+00 1.2284560142764414e+00 9.8771460159411895e+00 0 0 0
650 1 2.0024774594502737e-03 3.8005016792026702e+00 2.0140574398537407e+01 8.0826544512588967e+00 0 -1 0
653 1 2.1430350570069969e-03 7.7928133820228535e-03 6.2904540112233827e+00 9.8704581262703410e+00 0 0 0
655 1 2.1192022636384888e-03 2.0159203364695305e+01 5.0329847316062120e+00 7.2036591328346384e+00 -1 0 0
656 1 1.8374907242682279e-03 1.2319491117681178e+00 6.3438552390880139e+00 9.0227540509966211e+00 0 0 0
657 1 1.8589728310092178e-03 1.2674894164687300e+00 3.7293139692540005e+00 9.0441131430720443e+00 0 0 0
658 1 2.0104627868319362e-03 2.4830850805823133e+00 4.9687811013762770e+00 7.1994913688714668e+00 0 0 0
659 1 2.1412888576977252e-03 1.2140627906175669e+00 5.0452769922928979e+00 8.0885477481727328e+00 0 0 0
660 1 2.1385179729913259e-03 2.4970782733738091e+00 6.3126629338850675e+00 9.8904640730899605e+00 0 0 0
661 1 2.0899735288409148e-03 2.5156410128168059e+00 3.7662387296581450e+00 9.8871812076391521e+00 0 0 0
662 1 2.0249046291214690e-03 3.7222737113049496e+00 5.0094288366806534e+00 8.0794605930956074e+00 0 0 0
663 1 2.0487113553932434e-03 2.5086002286877735e+00 2.5488680979753648e+00 7.1842283460324641e+00 0 0 0
664 1 1.8402264350338329e-03 3.7725025375392152e+00 3.7692617265294137e+00 8.9655018054987607e+00 0 0 0
665 1 1.7879920744227782e-03 3.7825955970071705e+00 1.2225102393553844e+00 8.9929834075386879e+00 0 0 0
666 1 2.1114816249080881e-03 5.0685806630916410e+00 2.4730440670023484e+00 7.1640457600578653e+00 0 0 0
667 1 2.1060457026501420e-03 3.7724561220210209e+00 2.4738004905813940e+00 8.1329183208564597e+00 0 0 0
668 1 2.1573949486828107e-03 5.0336015647791772e+00 3.7537735939364723e+00 9.8447361388833041e+00 0 0 0
669 1 2.2105930884860330e-03 5.0455364782186738e+00 1.2535089867169673e+00 9.8710511775439382e+00 0 0 0
670 1 2.0535612735846248e-03 6.3279305162572932e+00 2.5168338927228091e+00 8.0491048974165977e+00 0 0 0
671 1 2.1077483696668275e-03 5.0619937609736931e+00 8.0266293214791042e-03 7.2049312801163827e+00 0 0 0
672 1 1.8599253323943270e-03 6.3638727544248717e+00 1.2601406401064403e+00 8.9457380507918085e+00 0 0 0
674 1 1.9838258423804825e-03 6.2979621075883729e+00 1.9210307360765806e-02 8.0462962363655546e+00 0 0 0
691 1 1.9395793377530455e-03 3.7587862695780738e+00 6.2839202068392677e+00 8.9977595085410158e+00 0 0 0
695 1 2.1937121663580601e-03 5.0836092968308773e+00 6.2918258306550037e+00 9.8990332955081168e+00 0 0 0
697 1 2.0994076046373269e-03 4.9873306190983824e+00 5.0521066257459966e+00 7.2028352270646678e+00 0 0 0
698 1 1.8341225834114336e-03 6.3328347425704994e+00 6.3058829900619751e+00 8.9598180701697920e+00 0 0 0
699 1 1.9137771605692579e-03 6.2648518037685514e+00 3.7859895280024349e+00 8.9608204089897807e+00 0 0 0
701 1 2.0870166024694282e-03 6.3138118345800427e+00 5.0719991885802020e+00 8.0834706052164496e+00 0 0 0
897 1 2.5833388151669267e-03 2.0167117839843431e+01 2.5103183001258262e+00 1.0747763163172268e+01 -1 0 0
900 1 1.8834441344265423e-03 1.2943945272646349e+00 2.5055080159987306e+00 1.1670214690019822e+01 0 0 0
901 1 2.4657356442452389e-03 2.0168644582106165e+01 2.0141681327394750e+01 1.0696481811987194e+01 -1 -1 0
903 1 2.5051032976023510e-03 2.5964593703844385e+00 2.0111722762819628e+01 1.0782774738071963e+01 0 -1 0
904 1 1.9673688368542328e-03 1.2732204169306778e+00 2.0128408779470085e+01 1.1631129800391385e+01 0 -1 0
906 1 1.7815208229497676e-03 3.8001063737057224e+00 2.0161649503707594e+01 1.1683794362792916e+01 0 -1 0
911 1 2.5378271920440507e-03 2.0135449801084096e+01 5.0074168620090731e+00 1.0834993452274492e+01 -1 0 0
914 1 2.5440262991994690e-03 2.5350225602236507e+00 5.0441021272927635e+00 1.0778600390863629e+01 0 0 0
915 1 1.8525025144432935e-03 1.2274222060196947e+00 5.0300869112155606e+00 1.1676227753742694e+01 0 0 0
918 1 1.8814521838300072e-03 3.7939147088804717e+00 5.0215951127099610e+00 1.1651077139764565e+01 0 0 0
919 1 2.4478058517873992e-03 2.5585165375650294e+00 2.5341272247481541e+00 1.0778924552839678e+01 0 0 0
922 1 2.5010465987870254e-03 5.0484891012264121e+00 2.5298747706367544e+00 1.0800963503393241e+01 0 0 0
923 1 1.7962298394544058e-03 3.7660545884518006e+00 2.4947371948320596e+00 1.1671853099953932e+01 0 0 0
926 1 1.8008915254385733e-03 6.2940063617905677e+00 2.4934063501232875e+00 1.1646736288254003e+01 0 0 0
927 1 2.4717282847110046e-03 5.0851437615568367e+00 2.0155226144728818e+01 1.0739386332584344e+01 0 -1 0
930 1 1.9323537841120007e-03 6.3223716274218731e+00 2.0083201104904099e+01 1.1634542901869075e+01 0 -1 0
953 1 2.4714047103619671e-03 5.0312741321878853e+00 5.0509447460265440e+00 1.0782073416084840e+01 0 0 0
957 1 1.8959831417901829e-03 6.2728996517064388e+00 4.9974461313573375e+00 1.1678262763004746e+01 0 0 0
419 1 2.0119891745762845e-03 7.5886671623528601e+00 1.2352077593947566e+00 6.2943651601360786e+00 0 0 0
446 1 2.0591976244152752e-03 7.5730062792221853e+00 6.3315635046082006e+00 6.2713878918757331e+00 0 0 0
447 1 2.0320393133699400e-03 7.5839519839736322e+00 3.8248619484526487e+00 6.2406429582358873e+00 0 0 0
450 1 2.0240722583578638e-03 8.8133466705035861e+00 3.8225456832217843e+00 5.3329209028468112e+00 0 0 0
451 1 2.0746227838322339e-03 8.8807101771481616e+00 1.2809130491151486e+00 5.3646628912188365e+00 0 0 0
454 1 2.0874082704027937e-03 1.0091036203814076e+01 3.7711102052364032e+00 6.2373020682281961e+00 0 0 0
455 1 1.9815816707615154e-03 1.0106337773184851e+01 1.2701818146456521e+00 6.2861954360464773e+00 0 0 0
458 1 2.1408825553653030e-03 1.1343240255740403e+01 1.2391821286673037e+00 5.3411993949636161e+00 0 0 0
461 1 2.0726700555022391e-03 1.2656815509707766e+01 1.2590578653395710e+00 6.2519265900373568e+00 0 0 0
493 1 2.0743138004709256e-03 8.8492775895049025e+00 6.3506126968108481e+00 5.4125058374793511e+00 0 0 0
497 1 2.0214512337060472e-03 1.0066047329009688e+01 6.2930119736571104e+00 6.2659784672672032e+00 0 0 0
500 1 2.1261620367119902e-03 1.1295268720310881e+01 6.2978782659871060e+00 5.3664387850652329e+00 0 0 0
501 1 2.0795617838398812e-03 1.1365145593931301e+01 3.7712827622864671e+00 5.3144870063407899e+00 0 0 0
504 1 2.0325035723425850e-03 1.2571108481750681e+01 6.3323258922521655e+00 6.2887628187356484e+00 0 0 0
505 1 2.0475994033949296e-03 1.2619564703886651e+01 3.7893313448126844e+00 6.2452750025377766e+00 0 0 0
673 1 2.0721687412015889e-03 7.5841534059915361e+00 2.0161204450416786e+01 7.1607539437759149e+00 0 -1 0
675 1 1.9999354415957049e-03 7.5582107823209403e+00 1.2245192055596894e+00 9.7879641904781955e+00 0 0 0
676 1 2.0076402221952156e-03 8.8453075458718864e+00 1.0946672614505609e-02 8.0313779777555290e+00 0 0 0
700 1 2.1083669487828045e-03 7.5772274983229266e+00 5.1088272847236906e+00 7.1632188438419382e+00 0 0 0
702 1 2.1232018550808060e-03 7.5518759083678981e+00 6.2543357274245563e+00 9.8596409661623277e+00 0 0 0
703 1 2.0925662954182291e-03 7.5537250478113043e+00 3.7242963736385182e+00 9.8499573914409595e+00 0 0 0
704 1 1.9657400600048142e-03 8.8187038897764296e+00 5.0548306791558844e+00 8.0583494591185989e+00 0 0 0
705 1 2.1300082008396579e-03 7.6052589757461178e+00 2.5413767248035692e+00 7.1373080912890314e+00 0 0 0
706 1 1.9576903625232187e-03 8.8106462143337776e+00 3.7442759463187372e+00 8.9140976073511435e+00 0 0 0
707 1 1.9287940995997741e-03 8.8596796371508511e+00 1.2524191285420674e+00 8.9262382132089026e+00 0 0 0
708 1 2.0005878333343844e-03 1.0142946479298738e+01 2.5798324452139521e+00 7.1371227914875828e+00 0 0 0
709 1 2.0043610101185337e-03 8.8660795259582734e+00 2.5428304910631518e+00 7.9996790270449605e+00 0 0 0
710 1 2.0966797259060776e-03 1.0134870772094565e+01 3.7762307439637852e+00 9.8003032503632284e+00 0 0 0
711 1 2.1512711673787148e-03 1.0080953700455279e+01 1.2081963724282214e+00 9.8451131830182774e+00 0 0 0
712 1 2.0762872912294568e-03 1.1366312232610357e+01 2.5375613824869330e+00 7.9940024088062369e+00 0 0 0
713 1 2.0983020563853007e-03 1.0116921190392441e+01 4.0433158502108678e-02 7.1297173016648383e+00 0 0 0
714 1 1.9465392086483986e-03 1.1388246924372126e+01 1.2650240656893950e+00 8.9058089377078762e+00 0 0 0
715 1 2.0091369399422802e-03 1.2678464124645902e+01 3.3724851862512159e-02 7.1276603906947074e+00 0 0 0
716 1 2.0507741295975076e-03 1.1374515679201952e+01 7.7179510365377683e-03 8.0304519662740947e+00 0 0 0
717 1 2.0965460129511245e-03 1.2626316765805663e+01 1.2625326980743958e+00 9.8389957300718471e+00 0 0 0
749 1 1.8487402585457497e-03 8.8047272026694205e+00 6.2828309944511975e+00 8.9837917554751741e+00 0 0 0
753 1 2.0972111846864496e-03 1.0037026835721473e+01 6.2690330796946059e+00 9.8535751805623484e+00 0 0 0
755 1 2.0848044758499914e-03 1.0068647777268437e+01 5.0556396720508330e+00 7.1806051649873082e+00 0 0 0
756 1 1.9568736965409625e-03 1.1308872153816335e+01 6.2843579586362779e+00 8.9433300906596358e+00 0 0 0
757 1 1.9005879249971689e-03 1.1380288690123617e+01 3.7818440863146972e+00 8.9517056846865657e+00 0 0 0
758 1 2.1503987199846634e-03 1.2599956480996076e+01 5.0853389304310195e+00 7.1340416733060783e+00 0 0 0
759 1 1.9963945332354808e-03 1.1340992092097755e+01 5.0235201161142360e+00 8.0225036281365281e+00 0 0 0
760 1 2.0968968283150312e-03 1.2596118518944689e+01 6.3124714058117162e+00 9.7937622566625340e+00 0 0 0
761 1 2.1078704521485447e-03 1.2647382872617273e+01 3.8035719125744754e+00 9.8489518762491564e+00 0 0 0
763 1 2.0664381012708661e-03 1.2680065402901127e+01 2.5720231328066676e+00 7.1148907154274568e+00 0 0 0
929 1 2.5654317846468891e-03 7.6173657498967060e+00 1.7481060043800067e-02 1.0733689252527324e+01 0 0 0
932 1 1.8468888791902955e-03 8.8360029340826269e+00 4.6333477357242463e-02 1.1648485627065618e+01 0 0 0
956 1 2.4885670769207030e-03 7.5706598191579726e+00 4.9818868088062871e+00 1.0727961086588008e+01 0 0 0
960 1 1.8322962842436290e-03 8.8290085046646087e+00 5.0138256766854523e+00 1.1583851427418637e+01 0 0 0
961 1 2.5442537690365309e-03 7.5490293083290441e+00 2.4681522317116857e+00 1.0736681678955469e+01 0 0 0
964 1 2.4838009694704518e-03 1.0084456500874426e+01 2.5249856079075941e+00 1.0723674600455093e+01 0 0 0
965 1 1.8175181748581839e-03 8.8422652042764671e+00 2.5119730741575705e+00 1.1606386925629891e+01 0 0 0
968 1 1.9139559239403634e-03 1.1313752313482510e+01 2.5222446444574405e+00 1.1592615792863343e+01 0 0 0
969 1 2.4842052459103474e-03 1.0108857577373257e+01 2.0166143956086913e+01 1.0759218814143276e+01 0 -1 0
971 1 2.4779078993879822e-03 1.2625893204133060e+01 2.0140757060389870e+01 1.0716685173587543e+01 0 -1 0
972 1 1.9179156668157787e-03 1.1367320979173464e+01 7.1409581584437366e-03 1.1670573486183677e+01 0 0 0
1011 1 2.5186332131836987e-03 1.0062872683938350e+01 5.0141616638173279e+00 1.0728562858801576e+01 0 0 0
1014 1 2.5552390427631862e-03 1.2638293359158068e+01 5.0546043807914485e+00 1.0731905415578103e+01 0 0 0
1015 1 1.9112073253003820e-03 1.1408843307276861e+01 5.0364740922841991e+00 1.1665109873635416e+01 0 0 0
1019 1 2.5541179493600132e-03 1.2611672216336013e+01 2.5181597834765039e+00 1.0725661791237949e+01 0 0 0
508 1 2.0566271854565101e-03 1.3917970329287291e+01 3.7642373437974777e+00 5.3659209774773560e+00 0 0 0
509 1 2.1149608211989425e-03 1.3869601666974503e+01 1.2648078339039666e+00 5.3083810386914436e+00 0 0 0
512 1 1.9175799457135114e-03 1.5158808581085962e+01 3.7969957641139276e+00 6.2554516738848172e+00 0 0 0
513 1 1.9159917399970833e-03 1.5090120772522308e+01 1.2763476579743207e+00 6.2525318211492209e+00 0 0 0
516 1 2.1245221467688169e-03 1.6322329672557029e+01 1.2981487987715332e+00 5.3641016219718649e+00 0 0 0
519 1 2.0941692298159236e-03 1.7645490517128067e+01 1.2624844916240876e+00 6.3234688350241210e+00 0 0 0
557 1 2.1236286832834622e-03 1.3811249225441879e+01 6.3187433000478004e+00 5.3611448969233155e+00 0 0 0
561 1 2.0020562099349912e-03 1.5098714642212743e+01 6.2953354723915549e+00 6.1673466606980671e+00 0 0 0
564 1 2.1692572417552889e-03 1.6348775655177832e+01 6.3453978274564724e+00 5.3459670227413589e+00 0 0 0
565 1 2.0830847163085253e-03 1.6358521644647002e+01 3.7966085303767070e+00 5.3339943884981071e+00 0 0 0
568 1 2.0452041664929645e-03 1.7677314243855250e+01 6.2958727902445197e+00 6.2820319329853413e+00 0 0 0
569 1 2.1553363456593660e-03 1.7712113294006986e+01 3.7433748902791644e+00 6.2523192192905546e+00 0 0 0
572 1 2.0815943945121122e-03 1.8921308696584859e+01 3.7493063857658311e+00 5.3523672395517279e+00 0 0 0
573 1 2.1435488039982936e-03 1.8847663126177494e+01 1.2100756366856678e+00 5.3654429739847522e+00 0 0 0
611 1 2.1014716672494221e-03 1.8885101028143861e+01 6.2935609078987058e+00 5.3765298788306524e+00 0 0 0
718 1 1.9787659883449471e-03 1.3888457245606070e+01 6.5772731009687176e-03 8.0080282887744030e+00 0 0 0
762 1 2.0598557776271781e-03 1.3922396653945011e+01 5.0653875700936632e+00 8.0149826753670954e+00 0 0 0
764 1 1.9173933301101609e-03 1.3891464398512898e+01 3.8066315018315202e+00 8.9078578638134331e+00 0 0 0
765 1 1.9401127770535638e-03 1.3854105429507692e+01 1.2768198287369588e+00 8.9187465158044077e+00 0 0 0
766 1 2.0888881237258331e-03 1.5139911151593452e+01 2.5195597348363834e+00 7.1530534509403871e+00 0 0 0
767 1 1.9603110237082920e-03 1.3894953538987838e+01 2.5508988536519750e+00 8.0346433734502423e+00 0 0 0
768 1 2.0961849718538999e-03 1.5173412613219154e+01 3.7577804180021048e+00 9.8327381736386048e+00 0 0 0
769 1 2.0645740412273822e-03 1.5145287601562048e+01 1.2640847904066528e+00 9.8055761750573556e+00 0 0 0
770 1 2.0024924459844263e-03 1.6415170465845357e+01 2.5295753408490982e+00 8.0144703448154431e+00 0 0 0
771 1 2.1221330576062214e-03 1.5186053660273382e+01 2.2362017875392552e-02 7.1356819304741474e+00 0 0 0
772 1 1.9620940187670380e-03 1.6429812188165236e+01 1.2328120335068173e+00 8.9282527621857657e+00 0 0 0
773 1 2.0292219272333503e-03 1.7676929696834069e+01 2.0141002247400063e+01 7.1797538829037668e+00 0 -1 0
774 1 1.9169472787593303e-03 1.6441255310147046e+01 4.3672271063908029e-03 8.0215880349664150e+00 0 0 0
775 1 2.1229561408183076e-03 1.7718495669572064e+01 1.2465141851360617e+00 9.8454566168306101e+00 0 0 0
776 1 2.0693089912365140e-03 1.8992697382332480e+01 2.0143976549972166e+01 8.0838835501146260e+00 0 -1 0
813 1 1.9543577421517523e-03 1.3879786870332296e+01 6.3453101800426843e+00 8.9518343702729357e+00 0 0 0
817 1 2.1313905160604981e-03 1.5151783791025801e+01 6.3154897619601389e+00 9.8175655447009778e+00 0 0 0
819 1 2.0835416268649132e-03 1.5128554779156136e+01 5.0340578426468259e+00 7.1061061491097108e+00 0 0 0
820 1 1.8867959319859939e-03 1.6393711299683172e+01 6.2638209140501644e+00 8.9622560361639447e+00 0 0 0
821 1 1.9109049513360409e-03 1.6409820183365337e+01 3.7751322696437386e+00 8.8977596859155419e+00 0 0 0
822 1 2.1015466773346573e-03 1.7634666901615532e+01 5.0452187039538572e+00 7.1279842977642325e+00 0 0 0
823 1 2.0230210865130193e-03 1.6389164052286034e+01 5.0389480105013345e+00 8.0140348919966584e+00 0 0 0
824 1 2.0239879605544872e-03 1.7626676166322625e+01 6.2790731110703701e+00 9.8703294488993425e+00 0 0 0
825 1 2.1614605885728246e-03 1.7681262016019055e+01 3.7845199792577180e+00 9.8910852646798784e+00 0 0 0
826 1 2.0494940029062553e-03 1.8896413321471012e+01 5.0044656390805358e+00 8.0645449605616175e+00 0 0 0
827 1 1.9690431125474555e-03 1.7649381837872355e+01 2.5124238197421409e+00 7.1693371705485278e+00 0 0 0
828 1 1.8723033645467637e-03 1.8921730007325195e+01 3.7652004013162981e+00 8.9822063239600354e+00 0 0 0
829 1 1.7742557808391752e-03 1.8923105547964013e+01 1.2120509308754845e+00 8.9772688945290646e+00 0 0 0
830 1 2.1218877427552230e-03 1.8905927494951097e+01 2.4853696396189884e+00 8.0721806528459279e+00 0 0 0
867 1 1.9020680470967538e-03 1.8874650476507192e+01 6.2481362172908721e+00 9.0309977224436579e+00 0 0 0
974 1 1.8927944862758589e-03 1.3857732761012089e+01 1.4268704902100747e-02 1.1611566590761637e+01 0 0 0
1018 1 1.8906627234594698e-03 1.3933934576521178e+01 5.0110860929666670e+00 1.1632082940193333e+01 0 0 0
1022 1 2.4552770178927451e-03 1.5133858202561875e+01 2.4979829446345372e+00 1.0727932468733950e+01 0 0 0
1023 1 1.9436782252669395e-03 1.3902584898021029e+01 2.5310364399713001e+00 1.1642226388905330e+01 0 0 0
1026 1 1.9488595347600937e-03 1.6396039460915532e+01 2.4518384393756385e+00 1.1592381996239038e+01 0 0 0
1027 1 2.5416049303945043e-03 1.5103060628471319e+01 2.0166228766841307e+01 1.0667683298761208e+01 0 -1 0
1029 1 2.3333315767438585e-03 1.7612302680612967e+01 2.0089902914368558e+01 1.0726452892008627e+01 0 -1 0
1030 1 1.9650137078786509e-03 1.6417644556353434e+01 2.0109601452666066e+01 1.1595638214796178e+01 0 -1 0
1032 1 1.9715688145464662e-03 1.8909427829754634e+01 2.0140932731043392e+01 1.1636810098764775e+01 0 -1 0
1075 1 2.4981341315471798e-03 1.5151672845876258e+01 5.0100536996409613e+00 1.0703509427133779e+01 0 0 0
1078 1 2.4238012667381881e-03 1.7648341768991958e+01 5.0336979045262220e+00 1.0731338455149153e+01 0 0 0
1079 1 1.9121033877611395e-03 1.6389779418597747e+01 5.0617483078463419e+00 1.1624264782014981e+01 0 0 0
1082 1 1.8014980326561477e-03 1.8875197331796166e+01 5.0462789290072507e+00 1.1652323957105464e+01 0 0 0
1083 1 2.4197837832581975e-03 1.7604338887131327e+01 2.4642560172934611e+00 1.0735241176189300e+01 0 0 0
1086 1 1.9368886249315233e-03 1.8849319999462740e+01 2.5019681629666493e+00 1.1639631228738024e+01 0 0 0
396 1 1.9684230422439080e-03 2.0157985658491082e+01 8.8292248568249523e+00 6.3100270571725190e+00 -1 0 0
423 1 2.1364912913601855e-03 2.0144958644579425e+01 1.1290754600843275e+01 6.3001869984549863e+00 -1 0 0
426 1 2.0379260294209486e-03 1.2801484404810533e+00 1.1361022455663935e+01 5.3566483129532756e+00 0 0 0
427 1 2.1191666865892863e-03 1.2805294676964436e+00 8.8470496522943236e+00 5.4641560476567106e+00 0 0 0
430 1 1.9999030444334685e-03 2.4745258671312400e+00 1.1406966206743542e+01 6.2733947803114951e+00 0 0 0
431 1 2.0679953431528082e-03 2.5325020900565773e+00 8.8630597346990125e+00 6.3937788400922555e+00 0 0 0
434 1 2.1055283329926523e-03 3.7981899102561751e+00 8.7599531690738246e+00 5.4247277337112836e+00 0 0 0
438 1 2.0509405705352586e-03 5.0268511335753727e+00 8.7932402230543989e+00 6.3223959856915313e+00 0 0 0
477 1 2.0945631739398419e-03 3.7218890265996727e+00 1.1321877788566292e+01 5.4211902746361211e+00 0 0 0
481 1 2.0231044499134281e-03 5.0179481268190242e+00 1.1371361628564788e+01 6.2651592486276568e+00 0 0 0
484 1 2.1311413836884148e-03 6.2839524154744497e+00 1.1379396047152673e+01 5.3559205617102883e+00 0 0 0
485 1 2.0914810993307490e-03 6.2772818689258330e+00 8.8943654659403339e+00 5.3786691104082607e+00 0 0 0
651 1 2.1545148681502597e-03 2.0130386414740048e+01 7.5476627523611963e+00 7.1683928893414279e+00 -1 0 0
652 1 2.1789980725022613e-03 5.1440684772169440e-02 8.7671597457449284e+00 9.8501871098160922e+00 0 0 0
654 1 2.0132204078529706e-03 1.2904629295904231e+00 7.5602060073388477e+00 8.1136257026149323e+00 0 0 0
677 1 2.2498698278551337e-03 2.0125531433385483e+01 1.2614189608550777e+01 7.1983042786447031e+00 -1 0 0
679 1 2.2583020071810004e-03 4.6916585387791806e-03 1.1326439417191516e+01 9.8998386927005910e+00 0 0 0
680 1 2.0293745640593496e-03 1.2561953944579634e+00 1.2607399953901014e+01 8.0944783224782029e+00 0 0 0
681 1 2.1554261708411375e-03 2.0138287941287285e+01 1.0008337044667554e+01 7.2060394737454434e+00 -1 0 0
682 1 1.8473162688317842e-03 1.2447666329397424e+00 1.1348494313483766e+01 8.9777198300562890e+00 0 0 0
683 1 1.7864214232199405e-03 1.2979565672057987e+00 8.8048697811804981e+00 9.0162272601826157e+00 0 0 0
684 1 2.0800388336065512e-03 2.5199654363384743e+00 1.0098826787585145e+01 7.2184355035383936e+00 0 0 0
685 1 2.0802770947852683e-03 1.3011853291351139e+00 1.0079990276451282e+01 8.1350359593080981e+00 0 0 0
686 1 2.1744311306329338e-03 2.4787600852941525e+00 1.1312436626379849e+01 9.9043863181082443e+00 0 0 0
687 1 2.1717620909721129e-03 2.5505533179594906e+00 8.7697356414580394e+00 9.8735519649950341e+00 0 0 0
688 1 2.0263063845501065e-03 3.8338143988864095e+00 1.0108557364547767e+01 8.0464778613745427e+00 0 0 0
689 1 2.1032767079982614e-03 2.5212267883798147e+00 7.5203555760692824e+00 7.2298839373016870e+00 0 0 0
690 1 1.9555102872072035e-03 3.8317597524210232e+00 8.8188207487525396e+00 8.9849407963877237e+00 0 0 0
692 1 2.1881067725174484e-03 5.0458099378020815e+00 7.5496476968239863e+00 7.2400782492381888e+00 0 0 0
693 1 1.9480278022548209e-03 3.7776009815276472e+00 7.5142467342006825e+00 8.1356473236784197e+00 0 0 0
694 1 2.1464978720249659e-03 5.0733903318851663e+00 8.8431111708902517e+00 9.8602776953552098e+00 0 0 0
696 1 2.0031573788904318e-03 6.3178795166078743e+00 7.6069223480120378e+00 8.1077907081956493e+00 0 0 0
731 1 2.0432366052617408e-03 2.5165037827964620e+00 1.2625515310026216e+01 7.1761014640827376e+00 0 0 0
733 1 1.9948771980954566e-03 3.7391905812632360e+00 1.1352287361022892e+01 8.9699994639886462e+00 0 0 0
734 1 2.1322449847978827e-03 5.0162388825333739e+00 1.2610659571139749e+01 7.1794429662890735e+00 0 0 0
735 1 1.9638593647320016e-03 3.7275252749224035e+00 1.2628375391251828e+01 8.0572532073227663e+00 0 0 0
737 1 2.2415655190024023e-03 5.0327828352339123e+00 1.1349109989916521e+01 9.9106799474472371e+00 0 0 0
738 1 1.9751125141489814e-03 6.3186893400570296e+00 1.2569582559276959e+01 8.0860990443887477e+00 0 0 0
739 1 2.0558987893924273e-03 5.0657148788016348e+00 1.0112003155070488e+01 7.1687382132565478e+00 0 0 0
740 1 1.8272956684697770e-03 6.2695786453754208e+00 1.1359399654080784e+01 8.9632994338110450e+00 0 0 0
741 1 1.8845874088575020e-03 6.3728888458387143e+00 8.7951226794738862e+00 9.0118862212161783e+00 0 0 0
743 1 2.0477060235546264e-03 6.3031851321925716e+00 1.0137384617074749e+01 8.0434127753832083e+00 0 0 0
907 1 2.5317511659599294e-03 2.0132180217066399e+01 7.5215955757966491e+00 1.0808333904823730e+01 -1 0 0
910 1 1.8470797631935936e-03 1.3010171035608860e+00 7.5627792555609084e+00 1.1671480267864998e+01 0 0 0
933 1 2.4282453764187194e-03 2.2683653662524630e-02 1.2623999961011062e+01 1.0795157358791920e+01 0 0 0
936 1 1.8251132767648978e-03 1.2801552518486268e+00 1.2618155703765375e+01 1.1636469739952867e+01 0 0 0
937 1 2.4958232567021364e-03 2.0155960861632909e+01 1.0025804676730001e+01 1.0754896560057713e+01 -1 0 0
940 1 2.5222712588474638e-03 2.5166025111970898e+00 1.0067372123172118e+01 1.0806963634889348e+01 0 0 0
941 1 1.7720653939677349e-03 1.2359432781861801e+00 1.0048436610276232e+01 1.1712854142492011e+01 0 0 0
944 1 1.8813727552165033e-03 3.7783127560995879e+00 1.0074565735554671e+01 1.1664090687605587e+01 0 0 0
945 1 2.4477731277039267e-03 2.5453366207191430e+00 7.5562753543423833e+00 1.0838090926508404e+01 0 0 0
948 1 2.5089350171783550e-03 5.1370866103355333e+00 7.5514215793059938e+00 1.0810727955257599e+01 0 0 0
949 1 1.8808524654380836e-03 3.8345499148296995e+00 7.5519869435714133e+00 1.1677667810877507e+01 0 0 0
952 1 1.7483979707657320e-03 6.3442921820845246e+00 7.5681417358938594e+00 1.1687449173725843e+01 0 0 0
987 1 2.4596901558050425e-03 2.5152432676692507e+00 1.2608687119492918e+01 1.0756944917725249e+01 0 0 0
990 1 2.4410442295218857e-03 5.1244297382148449e+00 1.2635216873159933e+01 1.0773503651704965e+01 0 0 0
991 1 1.9676664968725915e-03 3.7828660204887790e+00 1.2649817021497000e+01 1.1674853845315408e+01 0 0 0
994 1 1.8042086386360666e-03 6.3232652022445688e+00 1.2660494925829118e+01 1.1626615326974367e+01 0 0 0
995 1 2.4254735454406948e-03 5.0457624421086287e+00 1.0070104722692955e+01 1.0780491795146226e+01 0 0 0
999 1 1.9105269255625119e-03 6.3217654157317149e+00 1.0060248970814930e+01 1.1610324281387582e+01 0 0 0
488 1 2.1022176514891387e-03 7.5355519113872393e+00 1.1385858064974618e+01 6.2757258645345031e+00 0 0 0
489 1 2.1114809045363172e-03 7.4923159510186483e+00 8.8758441869349571e+00 6.3030999225727662e+00 0 0 0
492 1 2.0924154932811154e-03 8.8397875693269636e+00 8.8783845218981181e+00 5.4328882040804505e+00 0 0 0
496 1 2.0597201525272548e-03 1.0133294693697543e+01 8.8256593562737979e+00 6.2891332916517708e+00 0 0 0
541 1 2.1502350314820998e-03 8.8605085800168695e+00 1.1334758231329953e+01 5.3635951650098024e+00 0 0 0
545 1 1.9540279240538908e-03 1.0091306926102641e+01 1.1323774145613919e+01 6.3159172183734871e+00 0 0 0
548 1 2.1918624508216831e-03 1.1354751634094482e+01 1.1408308497859926e+01 5.3747766752165997e+00 0 0 0
549 1 1.9967231342929454e-03 1.1358391294202269e+01 8.8406280000006223e+00 5.3230059638417249e+00 0 0 0
552 1 1.9797280012029883e-03 1.2639555262166748e+01 1.1372191232487616e+01 6.2496909840394688e+00 0 0 0
553 1 1.9378867006954012e-03 1.2559590448942870e+01 8.8585025203683969e+00 6.2033233087207549e+00 0 0 0
742 1 1.9921469242556006e-03 7.5728104302921224e+00 1.0195509539928318e+01 7.2314732102611474e+00 0 0 0
744 1 2.1726181104195939e-03 7.5764077375263730e+00 1.1343117537216454e+01 9.8642674602973628e+00 0 0 0
745 1 2.0524931251239597e-03 7.5637937935243462e+00 8.8560457445453924e+00 9.8945368550810713e+00 0 0 0
746 1 2.0295416359632349e-03 8.8010530764120851e+00 1.0131797328495390e+01 8.0620863460268666e+00 0 0 0
747 1 2.1338420630463194e-03 7.5730554621880399e+00 7.6485022278466959e+00 7.1720154931766071e+00 0 0 0
748 1 1.9323318888616039e-03 8.7779457147692099e+00 8.8189562440651308e+00 8.9905157910214886e+00 0 0 0
750 1 2.1003418700827250e-03 1.0067213797208797e+01 7.6292681272466831e+00 7.2106356078372658e+00 0 0 0
751 1 2.0212569594153813e-03 8.8367393695637109e+00 7.5645118560745157e+00 8.0703440142859257e+00 0 0 0
752 1 2.1517655599431972e-03 1.0066971772078618e+01 8.7955813513177521e+00 9.9054832865054525e+00 0 0 0
754 1 1.9942963140752103e-03 1.1335064457371136e+01 7.5860125905343274e+00 8.0736653672697560e+00 0 0 0
795 1 2.0104021972939768e-03 7.5425146906887131e+00 1.2667604216960966e+01 7.1522725666750659e+00 0 0 0
797 1 1.7840255665634696e-03 8.8581418672104721e+00 1.1343298117283000e+01 8.9573672354255347e+00 0 0 0
798 1 2.0891836960716839e-03 1.0101247740957001e+01 1.2556521837393888e+01 7.1543414246932704e+00 0 0 0
799 1 2.1038554391352871e-03 8.8100733703232930e+00 1.2587711321534654e+01 8.0483199233354998e+00 0 0 0
801 1 2.1988345413470633e-03 1.0088247150372339e+01 1.1328946702298405e+01 9.8652897035075853e+00 0 0 0
802 1 2.0141918442590423e-03 1.1384169963578284e+01 1.2580496351501370e+01 8.0536980907692861e+00 0 0 0
803 1 2.0230285299125870e-03 1.0096704844810825e+01 1.0091356366494065e+01 7.1692594462814565e+00 0 0 0
804 1 1.8298295014093622e-03 1.1310272706242966e+01 1.1347596624395674e+01 8.9602474748388072e+00 0 0 0
805 1 1.8745737917342346e-03 1.1275625274987167e+01 8.8214831594886132e+00 8.9857811099903184e+00 0 0 0
806 1 2.1253023745061274e-03 1.2584142407273886e+01 1.0110278951782162e+01 7.1112492237574569e+00 0 0 0
807 1 2.0460336307241171e-03 1.1306372894759463e+01 1.0082254319983457e+01 8.0640500851919032e+00 0 0 0
808 1 2.1328690205937033e-03 1.2600626053963280e+01 1.1361611512624286e+01 9.8167579981567350e+00 0 0 0
809 1 2.0548872837739996e-03 1.2595807897043219e+01 8.8006911300893815e+00 9.8259963243520030e+00 0 0 0
811 1 2.1561385210229389e-03 1.2601329688850145e+01 7.6164366529491714e+00 7.1781886653907119e+00 0 0 0
849 1 2.0713417338803935e-03 1.2659165534182335e+01 1.2588976217680537e+01 7.1351748054274866e+00 0 0 0
998 1 2.4255659961396779e-03 7.5988798069305430e+00 1.0147769833201668e+01 1.0750530270096473e+01 0 0 0
1002 1 1.7008457348407569e-03 8.8066190143218464e+00 1.0117827854098959e+01 1.1686413407993150e+01 0 0 0
1003 1 2.5126573947821208e-03 7.5978736988941309e+00 7.5622051823242984e+00 1.0785768850569017e+01 0 0 0
1006 1 2.4907088335194508e-03 1.0097818356879539e+01 7.5490511048793314e+00 1.0782911072138361e+01 0 0 0
1007 1 1.8222367540708241e-03 8.7975318169450478e+00 7.5583450524386127e+00 1.1636824810203011e+01 0 0 0
1010 1 1.8284830327210649e-03 1.1358739845439811e+01 7.5051899362037577e+00 1.1627159190733311e+01 0 0 0
1051 1 2.5053213599512420e-03 7.5629065011065828e+00 1.2664702115038345e+01 1.0735869532743644e+01 0 0 0
1054 1 2.4881150835997842e-03 1.0093731355540182e+01 1.2650562030728972e+01 1.0757741453938229e+01 0 0 0
1055 1 1.9034335339317349e-03 8.8321512905476052e+00 1.2651243019142436e+01 1.1660123012324293e+01 0 0 0
1058 1 1.8905814014500953e-03 1.1350975665991832e+01 1.2636057916723839e+01 1.1623384358335336e+01 0 0 0
1059 1 2.4521142208754885e-03 9.9865179611294845e+00 1.0093599676108212e+01 1.0827520751645512e+01 0 0 0
1062 1 2.5179702867943448e-03 1.2532869113012945e+01 1.0086204479454238e+01 1.0692753302926747e+01 0 0 0
1063 1 1.8914250951406182e-03 1.1306779341774728e+01 1.0117560787957983e+01 1.1608281061328157e+01 0 0 0
1067 1 2.5232797224267155e-03 1.2587618049126210e+01 7.5575123241537501e+00 1.0712151082776902e+01 0 0 0
1105 1 2.4928890662928925e-03 1.2649338471894332e+01 1.2642020684280983e+01 1.0735219508008443e+01 0 0 0
556 1 2.0905565279422215e-03 1.3793528965310621e+01 8.8392233540690412e+00 5.3508631593550406e+00 0 0 0
560 1 1.9708236422947881e-03 1.5077643395057859e+01 8.8245535979919421e+00 6.2539727852334508e+00 0 0 0
595 1 2.0792023021817220e-03 1.3900004158061789e+01 1.1362499198851502e+01 5.3251430358725322e+00 0 0 0
599 1 2.0898123327902007e-03 1.5168479667650679e+01 1.1342069956138857e+01 6.2340402634583372e+00 0 0 0
602 1 2.1291252089568513e-03 1.6465594737487017e+01 1.1359798075487159e+01 5.3727014660157089e+00 0 0 0
603 1 2.0604057602935963e-03 1.6394331414981114e+01 8.7903213679272874e+00 5.3757175534089523e+00 0 0 0
606 1 1.9504753149358698e-03 1.7709340053498661e+01 1.1352604974296174e+01 6.2862564528840990e+00 0 0 0
607 1 2.0384915437537516e-03 1.7625445475408455e+01 8.7608600799859939e+00 6.2726392232325434e+00 0 0 0
610 1 2.0536896703546347e-03 1.8889633332722177e+01 8.7908296111771715e+00 5.3605629426602581e+00 0 0 0
633 1 2.0288813923024841e-03 1.8944809387876724e+01 1.1336154354048112e+01 5.4025188918247400e+00 0 0 0
810 1 2.0506275543022566e-03 1.3806317178809469e+01 1.0057358532492335e+01 8.0273835928384099e+00 0 0 0
812 1 1.8029832527580655e-03 1.3822639780704936e+01 8.8646637864647033e+00 8.9650592274344501e+00 0 0 0
814 1 2.1342801611130310e-03 1.5099053981988055e+01 7.5839411801332792e+00 7.0849385955293380e+00 0 0 0
815 1 2.0046274706046652e-03 1.3872204861201316e+01 7.6085401919210982e+00 8.0399872832846793e+00 0 0 0
816 1 2.0996575812121509e-03 1.5067485092266494e+01 8.7667502671396171e+00 9.8240668170267895e+00 0 0 0
818 1 2.0605896688215474e-03 1.6354357045091326e+01 7.5805220772123212e+00 8.0598418735846966e+00 0 0 0
851 1 1.8739186033640436e-03 1.3849255406580042e+01 1.1319199199043110e+01 8.9262185498356388e+00 0 0 0
852 1 2.0477506498034954e-03 1.5162259783062709e+01 1.2598778741296183e+01 7.1405857191360660e+00 0 0 0
853 1 1.9407517970580284e-03 1.3902706300573017e+01 1.2587292198028161e+01 8.0037324114442701e+00 0 0 0
855 1 1.9898606907278607e-03 1.5102673246914010e+01 1.1312837812522856e+01 9.7771338410709134e+00 0 0 0
856 1 1.9660325435146430e-03 1.6398154141752265e+01 1.2546278683982262e+01 8.0111356489783585e+00 0 0 0
857 1 2.1290524577766597e-03 1.5122192803837509e+01 1.0058244516686051e+01 7.0961018304564059e+00 0 0 0
858 1 1.9067003183694650e-03 1.6384283335617816e+01 1.1284624048818598e+01 8.9408476974372775e+00 0 0 0
859 1 1.9198904120828427e-03 1.6398583650516446e+01 8.8020694532606907e+00 8.9812488487578186e+00 0 0 0
860 1 2.1303866111491063e-03 1.7665729407192444e+01 1.0113864750826941e+01 7.1569964888369100e+00 0 0 0
861 1 2.0488250834332644e-03 1.6356015107476477e+01 1.0060506701907634e+01 8.0178694188574351e+00 0 0 0
862 1 2.0625416371793455e-03 1.7630977305941151e+01 1.1343648676450243e+01 9.8530421864297146e+00 0 0 0
863 1 2.0954408877250190e-03 1.7665709400820070e+01 8.7957328447473007e+00 9.8369850281354978e+00 0 0 0
864 1 1.9545660839100348e-03 1.8866513568588957e+01 1.0046776378879203e+01 8.0905066563614056e+00 0 0 0
865 1 2.0309931987454290e-03 1.7586965663060852e+01 7.5391819232967521e+00 7.1690653695973960e+00 0 0 0
866 1 1.8941948259737842e-03 1.8923238286004239e+01 8.7687281157913741e+00 8.9022802695373819e+00 0 0 0
868 1 2.0238596112488539e-03 1.8861304173007394e+01 7.5137155435010508e+00 8.0832895793158954e+00 0 0 0
887 1 2.0440323259089716e-03 1.7649102817257472e+01 1.2627707332570372e+01 7.1304356059493657e+00 0 0 0
889 1 1.9356481728286549e-03 1.8879727786006068e+01 1.1318250533902109e+01 8.9797978498395707e+00 0 0 0
890 1 1.9822677447984280e-03 1.8848341764100709e+01 1.2581966212867270e+01 8.0867275642712801e+00 0 0 0
1066 1 1.9894937089296638e-03 1.3829144020618351e+01 1.0070100209926929e+01 1.1595286578416816e+01 0 0 0
1070 1 2.5253185727959586e-03 1.5128431077247205e+01 7.5718281634464262e+00 1.0755730124009290e+01 0 0 0
1071 1 1.8538711168598384e-03 1.3854366657317110e+01 7.5468630596935657e+00 1.1671275251171375e+01 0 0 0
1074 1 1.9257244439617321e-03 1.6406119741981314e+01 7.5604090141193598e+00 1.1655275185564768e+01 0 0 0
1108 1 2.6064005489888856e-03 1.5148317760917681e+01 1.2588378046234881e+01 1.0663172362121657e+01 0 0 0
1109 1 1.8637853017559789e-03 1.3916699153656696e+01 1.2626038930905487e+01 1.1643460206747575e+01 0 0 0
1112 1 1.8336066607002859e-03 1.6399703034849281e+01 1.2544137782036001e+01 1.1719756699416006e+01 0 0 0
1113 1 2.4930887523124060e-03 1.5089896977732048e+01 1.0093800714003597e+01 1.0690417155079016e+01 0 0 0
1116 1 2.4802922405240731e-03 1.7651513513502771e+01 1.0052995413060009e+01 1.0759129120686346e+01 0 0 0
1117 1 2.0257794721263993e-03 1.6359317864103463e+01 1.0058837676641673e+01 1.1567152492390580e+01 0 0 0
1120 1 1.8514802697295481e-03 1.8911519327858631e+01 1.0083630179815822e+01 1.1609957922692098e+01 0 0 0
1121 1 2.4621879656213418e-03 1.7676810935559626e+01 7.5706860514768257e+00 1.0722399770144392e+01 0 0 0
1124 1 1.8250575537987240e-03 1.8846585908656170e+01 7.5465877220965671e+00 1.1666034469767487e+01 0 0 0
1143 1 2.5279857301340448e-03 1.7614710422391468e+01 1.2562984386176506e+01 1.0731896133913256e+01 0 0 0
1146 1 1.9401750550915792e-03 1.8883202480393720e+01 1.2632201100150318e+01 1.1623397048564959e+01 0 0 0
422 1 2.0384443442561899e-03 1.1321582577140499e-02 1.3920443249000163e+01 6.3005204165669220e+00 0 0 0
464 1 2.0192413535123207e-03 3.2250455235024740e-02 1.8954585645222295e+01 6.2800281843049159e+00 0 0 0
465 1 2.1150477534168906e-03 2.0151724955298540e+01 1.6421782768075158e+01 6.2404344452155716e+00 -1 0 0
468 1 2.0474984006263021e-03 1.2733033516013859e+00 1.6420063653766967e+01 5.3764118196275614e+00 0 0 0
469 1 2.1174536403317703e-03 1.2519741659461290e+00 1.3913236336908207e+01 5.4151823901718252e+00 0 0 0
472 1 2.1309055152301062e-03 2.5781805245363167e+00 1.6439640455548723e+01 6.2742676746707451e+00 0 0 0
473 1 1.9397072054495720e-03 2.4910569062312895e+00 1.3860653798535580e+01 6.2618035537803536e+00 0 0 0
476 1 2.1070080192745698e-03 3.7789594149368062e+00 1.3845210175670164e+01 5.4219550565490291e+00 0 0 0
480 1 2.0326548493849535e-03 5.0659882551876114e+00 1.3853432490700200e+01 6.2625530875611828e+00 0 0 0
521 1 2.1185850584646598e-03 1.3281750595272519e+00 1.8960048995679504e+01 5.4000699060810344e+00 0 0 0
522 1 1.9735922276015823e-03 2.5353407038590641e+00 1.8959176461994360e+01 6.2996056590062679e+00 0 0 0
524 1 2.0983267659576161e-03 3.8277316994026829e+00 1.8931561055185252e+01 5.3772125420910628e+00 0 0 0
525 1 1.8727915520215575e-03 3.7700675700970412e+00 1.6401866974494585e+01 5.3481270737214626e+00 0 0 0
528 1 1.9127138197907356e-03 5.0480707145124413e+00 1.8893458172955423e+01 6.2743207693479608e+00 0 0 0
529 1 2.1793259954625520e-03 4.9970832817807160e+00 1.6419549614116981e+01 6.2572909583260659e+00 0 0 0
532 1 2.0977375423950136e-03 6.3397239531565646e+00 1.6430807576155441e+01 5.3300341161981555e+00 0 0 0
533 1 2.1062345596303575e-03 6.2903892712971503e+00 1.3937997064737200e+01 5.3352848799720345e+00 0 0 0
575 1 2.0665578667832512e-03 6.2585985195514802e+00 1.8902543757748187e+01 5.4173722140644802e+00 0 0 0
678 1 2.1314624960444891e-03 1.8131852199162860e-02 1.3832084536087420e+01 9.8738417409178716e+00 0 0 0
719 1 2.0303652900544203e-03 2.0168338833104823e+01 1.7678748947496022e+01 7.1726808506685167e+00 -1 0 0
720 1 1.9544154485651652e-03 2.0137066663990485e+01 1.8883731110751715e+01 9.8807964000661848e+00 -1 0 0
721 1 2.1045653218670643e-03 1.0553911897507817e-02 1.6324330200721871e+01 9.8472114767149392e+00 0 0 0
722 1 1.9926486669884871e-03 1.2303492349147787e+00 1.7643544754351165e+01 8.0113845364385732e+00 0 0 0
723 1 2.1075243102698445e-03 2.0167300740184768e+01 1.5155327069908054e+01 7.1287339853813778e+00 -1 0 0
724 1 1.9254602538480449e-03 1.2694586074201899e+00 1.6334656305221266e+01 8.9195618378202415e+00 0 0 0
725 1 1.9171782816784771e-03 1.2582446389565218e+00 1.3835513210954840e+01 8.9787074382752028e+00 0 0 0
726 1 2.1067367287871805e-03 2.5341914203143237e+00 1.5085944564384890e+01 7.1783043274203022e+00 0 0 0
727 1 2.0153491197816491e-03 1.2708914139815248e+00 1.5116727137254223e+01 8.0323391429931519e+00 0 0 0
728 1 2.0792164935009442e-03 2.5459304069391626e+00 1.6349334643849748e+01 9.7941653733380996e+00 0 0 0
729 1 2.1046052758723036e-03 2.5892770012600126e+00 1.3868305421049556e+01 9.8854774357351953e+00 0 0 0
730 1 2.0236720662280524e-03 3.7944264242682744e+00 1.5131505182376724e+01 8.0421453011671975e+00 0 0 0
732 1 1.9053031442871266e-03 3.8168947967427300e+00 1.3851377989285059e+01 8.9653703103459392e+00 0 0 0
736 1 2.1135885044667752e-03 5.1162940996280390e+00 1.3815877919598281e+01 9.8436447800444000e+00 0 0 0
777 1 1.9782567645216047e-03 1.2366605313816985e+00 1.8878576589449327e+01 9.0016216597931393e+00 0 0 0
778 1 2.0772588200204476e-03 2.5330107060848643e+00 1.8835838994431036e+01 9.8488746354056094e+00 0 0 0
779 1 2.1239086356286329e-03 2.4921233000601770e+00 1.7688106930039996e+01 7.1778884531522396e+00 0 0 0
780 1 1.8720898167811448e-03 3.8245744039021585e+00 1.8915155242391716e+01 9.0134225902999390e+00 0 0 0
781 1 1.8741117937516093e-03 3.8206938938774848e+00 1.6417006716865291e+01 8.9048037672015461e+00 0 0 0
782 1 2.0697138906926836e-03 5.0421138418408900e+00 1.7700309111922927e+01 7.2051521284203197e+00 0 0 0
783 1 1.9992076770263523e-03 3.8266627847199612e+00 1.7665434096217790e+01 8.0827576992571082e+00 0 0 0
784 1 2.0395046940001448e-03 5.0511109385520729e+00 1.8892909013409575e+01 9.8945726014093207e+00 0 0 0
785 1 2.0649395647199839e-03 5.0769943428293853e+00 1.6388370984418426e+01 9.8229055171628286e+00 0 0 0
786 1 1.9121334335959988e-03 6.3389588571255873e+00 1.7660755460430863e+01 8.0648515377530181e+00 0 0 0
787 1 2.0801681254617368e-03 5.0528933576433150e+00 1.5145065737788965e+01 7.1476648042977313e+00 0 0 0
788 1 1.9619438968396575e-03 6.3592526758741990e+00 1.6406731647925113e+01 8.9113789310704377e+00 0 0 0
789 1 1.8384880253253979e-03 6.2917039176066663e+00 1.3861489442940581e+01 8.8941010483956493e+00 0 0 0
791 1 1.9614028534855233e-03 6.2656789717698755e+00 1.5113141507995641e+01 8.0521409327464291e+00 0 0 0
831 1 1.9446359759390634e-03 6.3049473462089880e+00 1.8886949917957139e+01 8.9477769272136207e+00 0 0 0
975 1 2.5160586445226681e-03 2.0141200922130878e+01 1.7630546075180117e+01 1.0712645781424351e+01 -1 0 0
978 1 1.9612860114513707e-03 1.2578312690740461e+00 1.7631747510198771e+01 1.1601127553991960e+01 0 0 0
979 1 2.4035222496123360e-03 2.6812918770425652e-02 1.5108628751415639e+01 1.0747879282303412e+01 0 0 0
982 1 2.4308314412657015e-03 2.5447172415564783e+00 1.5158387769925804e+01 1.0680207955316279e+01 0 0 0
983 1 1.9194435921298840e-03 1.2479737000022144e+00 1.5105316495594721e+01 1.1636076976600958e+01 0 0 0
986 1 1.9785187364159689e-03 3.7810381656024274e+00 1.5176508371059850e+01 1.1615486988978830e+01 0 0 0
1035 1 2.4583699288505704e-03 2.4962494573854594e+00 1.7628050756019544e+01 1.0742286063732932e+01 0 0 0
1038 1 2.4920659313174306e-03 5.0283856012723911e+00 1.7639229306042989e+01 1.0755799945587192e+01 0 0 0
1039 1 1.8340435200748808e-03 3.7820089905234391e+00 1.7681164526293099e+01 1.1636526440611750e+01 0 0 0
1042 1 1.9040739364806281e-03 6.3393647905898121e+00 1.7686317896467816e+01 1.1629470307042238e+01 0 0 0
1043 1 2.5130263425899679e-03 5.0445166934836205e+00 1.5184073443788508e+01 1.0690094526683989e+01 0 0 0
1047 1 1.8835476104120030e-03 6.2829993975071199e+00 1.5166921008591235e+01 1.1625706023591583e+01 0 0 0
536 1 2.0501387538714405e-03 7.5758938386538413e+00 1.6437321437387261e+01 6.2571478874701585e+00 0 0 0
537 1 2.0116252424773164e-03 7.5601068851244912e+00 1.3866455742891540e+01 6.2910423860396225e+00 0 0 0
540 1 2.0577718448076335e-03 8.7976028792066554e+00 1.3909682405920435e+01 5.3860624335659315e+00 0 0 0
544 1 2.0940674417833298e-03 1.0057281413398728e+01 1.3878847607923818e+01 6.2819520524631320e+00 0 0 0
576 1 2.0531275456083195e-03 7.5872991743321210e+00 1.8874775395005042e+01 6.2817663607490628e+00 0 0 0
578 1 2.1105659796363517e-03 8.8288969952178764e+00 1.8935933687800002e+01 5.3697701435508636e+00 0 0 0
579 1 2.1172751803821871e-03 8.8411789289383389e+00 1.6410499558836413e+01 5.3507150791197082e+00 0 0 0
582 1 2.0519155157237719e-03 1.0086775302125330e+01 1.8913222341557479e+01 6.2109249214309354e+00 0 0 0
583 1 2.0304062364800389e-03 1.0128654414934696e+01 1.6350745861883169e+01 6.2874727270984438e+00 0 0 0
586 1 2.1142117186293426e-03 1.1348375566737879e+01 1.6376563058348012e+01 5.3065768459819891e+00 0 0 0
587 1 2.0925258755549415e-03 1.1306524420590291e+01 1.3871941308206923e+01 5.3244479431911351e+00 0 0 0
590 1 2.0673929777508303e-03 1.2576158864046402e+01 1.6386338996022445e+01 6.2438917731600769e+00 0 0 0
591 1 2.0118388530117994e-03 1.2566287215144541e+01 1.3861066335145967e+01 6.2313400836927944e+00 0 0 0
613 1 2.0594268029439874e-03 1.1325988400952017e+01 1.8923606604167595e+01 5.3761398861707015e+00 0 0 0
614 1 2.1173278668668348e-03 1.2612701149648313e+01 1.8967720117021901e+01 6.2291938469967159e+00 0 0 0
790 1 2.1364537962633204e-03 7.5106171757756384e+00 1.5148700125420685e+01 7.1504220232664091e+00 0 0 0
792 1 2.1823451348433266e-03 7.6034955857397097e+00 1.6436884277239027e+01 9.9104471798541791e+00 0 0 0
793 1 2.1178956471002010e-03 7.5967864435243486e+00 1.3884089121513172e+01 9.8184194072913904e+00 0 0 0
794 1 2.1005792899691832e-03 8.7919389549160414e+00 1.5145304360053718e+01 8.0480349633085115e+00 0 0 0
796 1 1.8254455757759386e-03 8.8136403357524102e+00 1.3910520355830256e+01 8.9385443008719410e+00 0 0 0
800 1 2.1316000855529484e-03 1.0085258683001316e+01 1.3816310269975649e+01 9.7640315637719350e+00 0 0 0
832 1 2.0784216593929543e-03 7.6083848709591129e+00 1.8889132368305209e+01 9.7845511253928095e+00 0 0 0
833 1 2.0716517036219475e-03 7.5592426588064381e+00 1.7666270898557674e+01 7.1852528308993753e+00 0 0 0
834 1 1.8884957974569926e-03 8.8535039847254886e+00 1.8914356153579121e+01 8.9469805491059038e+00 0 0 0
835 1 1.8573109657314638e-03 8.8591024258641120e+00 1.6382354930233738e+01 8.9592235553933328e+00 0 0 0
836 1 2.1291066816287430e-03 1.0094363416902638e+01 1.7616652566461340e+01 7.1474319376577107e+00 0 0 0
837 1 2.0382816984415098e-03 8.8799930884958904e+00 1.7643312916448302e+01 8.0626316191361553e+00 0 0 0
838 1 2.1215821766478304e-03 1.0162497139214103e+01 1.8922030599565126e+01 9.8284243716974569e+00 0 0 0
839 1 2.0363185103980355e-03 1.0098240429147491e+01 1.6364429398026740e+01 9.8356587502085890e+00 0 0 0
840 1 2.0301788247115158e-03 1.1358785406418235e+01 1.7653487777005004e+01 8.0540265428249693e+00 0 0 0
841 1 2.0338577459846200e-03 1.0123365035698026e+01 1.5135906566993828e+01 7.1626162272195071e+00 0 0 0
842 1 1.9198721001174215e-03 1.1386120014208950e+01 1.6374888514408088e+01 8.9398577566996966e+00 0 0 0
843 1 1.9029306926300685e-03 1.1353106247510862e+01 1.3834806823463477e+01 8.8885282034205293e+00 0 0 0
844 1 2.1505163372242883e-03 1.2642315770528342e+01 1.5112877338110055e+01 7.1254149045579522e+00 0 0 0
845 1 2.0256722157808364e-03 1.1352518748775520e+01 1.5110783540825334e+01 8.0319166740448189e+00 0 0 0
846 1 2.1018414242616919e-03 1.2615869261673977e+01 1.6403319691537163e+01 9.8280141826771192e+00 0 0 0
847 1 2.1020801874445049e-03 1.2654909830587039e+01 1.3842107081262267e+01 9.8102214955689249e+00 0 0 0
869 1 1.8639409004547536e-03 1.1345253803954419e+01 1.8943413183246992e+01 8.9354208716931680e+00 0 0 0
870 1 2.0927074483445079e-03 1.2615037395657248e+01 1.8881293167896953e+01 9.8862845622236968e+00 0 0 0
871 1 2.0996120325458543e-03 1.2605979554736424e+01 1.7670370030550572e+01 7.1596178052229380e+00 0 0 0
1046 1 2.5002696911277365e-03 7.5326892986108636e+00 1.5153652484506615e+01 1.0749526074530001e+01 0 0 0
1050 1 1.9233932882650063e-03 8.8491203209975282e+00 1.5141237891943511e+01 1.1642862611945221e+01 0 0 0
1089 1 2.4526886866081689e-03 7.6099541250695415e+00 1.7704966849140625e+01 1.0788351143256522e+01 0 0 0
1092 1 2.5978742057285566e-03 1.0090687664846389e+01 1.7604338594754232e+01 1.0727909506958699e+01 0 0 0
1093 1 1.8345975764630896e-03 8.8854895133064264e+00 1.7685470377141112e+01 1.1646089799584997e+01 0 0 0
1096 1 1.9630873913348322e-03 1.1425948823723328e+01 1.7660230663697565e+01 1.1642945040834231e+01 0 0 0
1097 1 2.5650069121167765e-03 1.0131889509657583e+01 1.5119502627730402e+01 1.0737904064171980e+01 0 0 0
1100 1 2.5440969689601756e-03 1.2609950134513632e+01 1.5115883176470843e+01 1.0717843124156389e+01 0 0 0
1101 1 1.8417730678022414e-03 1.1352722503417162e+01 1.5140010991821665e+01 1.1641646739897910e+01 0 0 0
1127 1 2.4463892743324363e-03 1.2653011102847486e+01 1.7645055991258314e+01 1.0745708775472032e+01 0 0 0
594 1 2.0958037421017232e-03 1.3853898980443745e+01 1.3831440716064188e+01 5.4164832029342538e+00 0 0 0
598 1 1.9896559289438514e-03 1.5109683351359955e+01 1.3858573479559269e+01 6.2357890333129733e+00 0 0 0
616 1 2.0752335110607819e-03 1.3914607341909665e+01 1.8926789089713509e+01 5.3498015952570270e+00 0 0 0
617 1 2.1170649183846297e-03 1.3814893795805505e+01 1.6433113018568992e+01 5.3022423898304414e+00 0 0 0
620 1 1.8951018393539925e-03 1.5111586300077837e+01 1.8944317083455616e+01 6.2339550189165056e+00 0 0 0
621 1 2.0419438409588395e-03 1.5072393171605087e+01 1.6367506686732565e+01 6.2402200345179972e+00 0 0 0
624 1 2.1415625800878858e-03 1.6345884199432689e+01 1.6436732119056114e+01 5.3722133358740560e+00 0 0 0
625 1 2.1297667688925780e-03 1.6370034134885859e+01 1.3890762630267080e+01 5.3074289902046043e+00 0 0 0
628 1 2.1078762688779701e-03 1.7618370967194348e+01 1.6457796178695983e+01 6.2287976822594429e+00 0 0 0
629 1 2.0381620208277393e-03 1.7646624044648981e+01 1.3850498263384415e+01 6.1959174618758022e+00 0 0 0
632 1 2.1321549372057885e-03 1.8912227925388081e+01 1.3846477819614668e+01 5.3394976449597511e+00 0 0 0
635 1 2.0177058121595291e-03 1.6364706953718148e+01 1.8963821863768576e+01 5.3990704712150572e+00 0 0 0
636 1 2.0225678353108473e-03 1.7629823441729684e+01 1.8917569060410024e+01 6.3087550906939800e+00 0 0 0
638 1 2.1278159028587963e-03 1.8917464079086322e+01 1.8967008947535788e+01 5.4029338972441039e+00 0 0 0
639 1 2.0295817541998119e-03 1.8851758420135241e+01 1.6440666613328151e+01 5.3590714542021871e+00 0 0 0
848 1 2.0550361426504545e-03 1.3918202696779240e+01 1.5061833120000122e+01 8.0767633698926709e+00 0 0 0
850 1 1.8099339935842024e-03 1.3874772107348775e+01 1.3769838656446201e+01 8.8976972823051472e+00 0 0 0
854 1 2.0468382396069957e-03 1.5149556419617335e+01 1.3831853521648734e+01 9.8056908873135917e+00 0 0 0
872 1 1.9091650738722952e-03 1.3843083432896874e+01 1.8923151030859295e+01 8.8883213135883388e+00 0 0 0
873 1 2.0092886510996943e-03 1.3867688645795567e+01 1.6388605007512183e+01 8.9262086261258382e+00 0 0 0
874 1 2.1396500824202979e-03 1.5073206900892167e+01 1.7661158744852891e+01 7.0877784496448646e+00 0 0 0
875 1 1.9604720967015639e-03 1.3835865958716379e+01 1.7692021667762372e+01 7.9798268028367261e+00 0 0 0
876 1 2.0611349405589030e-03 1.5134655320253355e+01 1.8916033695613375e+01 9.7543428193454531e+00 0 0 0
877 1 2.0931792299615256e-03 1.5124333405359357e+01 1.6405256746289375e+01 9.8388803843045451e+00 0 0 0
878 1 2.1023114118730647e-03 1.6367014058776025e+01 1.7657584076854189e+01 8.0179453619159009e+00 0 0 0
879 1 2.0429485537959420e-03 1.5126211333443862e+01 1.5106426513316144e+01 7.1258218312846129e+00 0 0 0
880 1 1.9378363782207202e-03 1.6329067353960163e+01 1.6394062058447258e+01 8.9101870640494845e+00 0 0 0
881 1 1.9322531503928879e-03 1.6353398104393399e+01 1.3837491342196342e+01 8.8459920506872116e+00 0 0 0
882 1 2.1888242389443251e-03 1.7601632470997629e+01 1.5106551586391030e+01 7.1266894415270192e+00 0 0 0
883 1 1.9615428214814911e-03 1.6365083233359275e+01 1.5128645763220925e+01 8.0198243581606690e+00 0 0 0
884 1 2.0663736073825091e-03 1.7625491051877461e+01 1.6336504059058473e+01 9.8385748780374414e+00 0 0 0
885 1 2.1229365509325866e-03 1.7656443223362750e+01 1.3826022303678497e+01 9.8342328200932023e+00 0 0 0
886 1 2.0786802379835286e-03 1.8857095051388789e+01 1.5108056250270941e+01 8.0482319235408166e+00 0 0 0
888 1 1.8821937207383730e-03 1.8871789929165857e+01 1.3871491453465289e+01 8.9462794662568399e+00 0 0 0
891 1 1.9116400307529458e-03 1.6411487327889429e+01 1.8921761631267458e+01 8.9139164553690264e+00 0 0 0
892 1 2.1415284889938287e-03 1.7664728504328107e+01 1.8911902273262559e+01 9.8840352925085835e+00 0 0 0
893 1 2.0995897098851218e-03 1.7698448057888147e+01 1.7677713171379679e+01 7.2112006418036030e+00 0 0 0
894 1 1.8282867762863864e-03 1.8935513374028250e+01 1.8920532651357256e+01 8.9633533079975578e+00 0 0 0
895 1 1.9022123268436098e-03 1.8929303335861491e+01 1.6355594764943536e+01 8.9475918752508381e+00 0 0 0
896 1 2.0316081293559798e-03 1.8949020201885908e+01 1.7633446970735509e+01 8.0882355177028629e+00 0 0 0
1104 1 1.8562040156220455e-03 1.3869709731803939e+01 1.5104727489225306e+01 1.1570065383414812e+01 0 0 0
1130 1 2.5263028208114859e-03 1.5117143827891002e+01 1.7681708396637113e+01 1.0728153578878333e+01 0 0 0
1131 1 1.7695198236552055e-03 1.3908000280130054e+01 1.7695181092579340e+01 1.1620208968964192e+01 0 0 0
1134 1 1.8648179088023692e-03 1.6408676899481595e+01 1.7617784163159417e+01 1.1592894169072702e+01 0 0 0
1135 1 2.4766773031034057e-03 1.5133987729806375e+01 1.5103339761845273e+01 1.0721890214349786e+01 0 0 0
1138 1 2.4782524980098276e-03 1.7680778651679269e+01 1.5123423954245595e+01 1.0674873037267313e+01 0 0 0
1139 1 2.0187250168687975e-03 1.6398859700939454e+01 1.5082164333324089e+01 1.1558417252584052e+01 0 0 0
1142 1 2.0024501828803964e-03 1.8935385100492741e+01 1.5138756274505687e+01 1.1669443511170988e+01 0 0 0
1149 1 2.4172640554225196e-03 1.7617803786051461e+01 1.7581589347551017e+01 1.0737179032051817e+01 0 0 0
1152 1 1.9426746828067824e-03 1.8857696656090837e+01 1.7605676759381190e+01 1.1603340587613815e+01 0 0 0
898 1 2.3647579816332078e-03 2.0157972908423901e+01 3.7741038760050523e+00 1.3478377275163384e+01 -1 0 0
899 1 2.2397931593847128e-03 2.0123195241819811e+01 1.3318343575918967e+00 1.3401303357225967e+01 -1 0 0
902 1 1.0241127559529142e-03 1.2597822635562994e+00 1.2188541762116776e+00 1.2526352459979575e+01 0 0 0
905 1 2.3607258724194164e-03 2.4708288262406191e+00 1.2307879676562092e+00 1.3453479594724614e+01 0 0 0
909 1 2.3815096537567783e-03 1.9616169402334079e-02 6.3008166473374319e+00 1.3484032432469895e+01 0 0 0
912 1 1.0751417367365417e-03 1.2591896018181985e+00 6.3004912343475556e+00 1.2582220480948077e+01 0 0 0
913 1 1.0510404073700626e-03 1.2435905915183403e+00 3.7796031793888898e+00 1.2548099107859541e+01 0 0 0
916 1 2.2471624909301759e-03 2.5068202156165209e+00 6.3080512932838655e+00 1.3499811467080585e+01 0 0 0
917 1 2.3820453278487002e-03 2.4854963190461015e+00 3.7613790643228620e+00 1.3462671600271923e+01 0 0 0
920 1 1.0189623256253058e-03 3.7342618819584024e+00 3.7577962439055299e+00 1.2549182433439714e+01 0 0 0
921 1 1.0301038126932576e-03 3.7169144029980359e+00 1.2311790181816094e+00 1.2540888878266886e+01 0 0 0
924 1 2.4257326052252396e-03 5.0149070918282641e+00 3.7741940497495667e+00 1.3500840339294685e+01 0 0 0
925 1 2.3340245671797173e-03 5.0120870802908879e+00 1.2135355472737874e+00 1.3394898186193895e+01 0 0 0
928 1 1.0393523164109162e-03 6.2747818919462732e+00 1.2584901912422648e+00 1.2507504544864878e+01 0 0 0
947 1 1.0924342516431906e-03 3.7973327005205024e+00 6.2955368219317256e+00 1.2593637169276841e+01 0 0 0
951 1 2.3027899921790221e-03 5.0457876370189014e+00 6.2953608923002689e+00 1.3492790947009484e+01 0 0 0
954 1 1.1571876448202034e-03 6.3340399185493457e+00 6.2423409542424730e+00 1.2598537425693312e+01 0 0 0
955 1 1.0201192286916211e-03 6.3269984543033644e+00 3.7490063319227924e+00 1.2558886826003052e+01 0 0 0
1153 1 4.4361158782690044e-03 9.2571601631022144e-03 2.4934119378439714e+00 1.4334142661818047e+01 0 0 0
1154 1 2.2217136626973607e-03 2.0144600977121979e+01 3.7807750066512074e+00 1.6995964310972095e+01 -1 0 0
1155 1 3.4023392459895984e-03 2.0114851167044957e+01 1.3003425678143463e+00 1.7012694238938735e+01 -1 0 0
1156 1 1.7049657675978732e-03 1.2885120620653570e+00 2.5224507770211959e+00 1.5267340978864089e+01 0 0 0
1157 1 4.4186399778381198e-03 2.0149011627054712e+01 2.0164405575449759e+01 1.4298503935033377e+01 -1 -1 0
1158 1 -4.9479406497093944e-03 1.2564128610375054e+00 1.2576918197359015e+00 1.6158570058420647e+01 0 0 0
1159 1 4.3844334474139402e-03 2.4903629514711918e+00 2.2552052854910723e-03 1.4327213877769816e+01 0 0 0
1160 1 1.9151627378609310e-03 1.2459215479073937e+00 1.9917245046350167e-02 1.5236371180304573e+01 0 0 0
1161 1 4.6307096815808944e-03 2.4822476263977959e+00 1.2161810008429506e+00 1.7090501166728629e+01 0 0 0
1162 1 1.7984649815447316e-03 3.8180489166668359e+00 2.0163246872873721e+01 1.5255679848732466e+01 0 -1 0
1165 1 3.3069307823152677e-03 2.0125567609970673e+01 6.1984716899251362e+00 1.7007139815335574e+01 -1 0 0
1167 1 4.5878116610851534e-03 2.0149099171423980e+01 5.0146334709803737e+00 1.4341577726752572e+01 -1 0 0
1168 1 -4.8399580385469080e-03 1.2115575926993243e+00 6.3011479118461349e+00 1.6165214553454014e+01 0 0 0
1169 1 -5.1795232970744155e-03 1.3051172559093589e+00 3.7761249721399932e+00 1.6165108890080173e+01 0 0 0
1170 1 4.6465748758800426e-03 2.5358005139591424e+00 5.0262778569389983e+00 1.4378181153499803e+01 0 0 0
1171 1 1.4344788133998866e-03 1.2389295403440868e+00 5.0673796742213550e+00 1.5276569885814210e+01 0 0 0
1172 1 4.0828652945344174e-03 2.4502471142287652e+00 6.3436082416124400e+00 1.7039047396800871e+01 0 0 0
1173 1 4.8664748252958169e-03 2.5346489177402280e+00 3.7274170418102588e+00 1.7077441563089810e+01 0 0 0
1174 1 1.1578108429729846e-03 3.7706833524068974e+00 4.9578184797071758e+00 1.5318082169109747e+01 0 0 0
1175 1 4.5276433079073303e-03 2.5351858634018201e+00 2.5166525516577978e+00 1.4345475334711061e+01 0 0 0
1176 1 -4.7033546811075357e-03 3.7579185002817650e+00 3.7530437222564745e+00 1.6195302674853707e+01 0 0 0
1177 1 -5.1159337484302306e-03 3.7640846901087630e+00 1.2245217683143848e+00 1.6152139439327428e+01 0 0 0
1178 1 4.4571442114055221e-03 5.0088856343172434e+00 2.4910128552739148e+00 1.4346458323301844e+01 0 0 0
1179 1 1.7461158386817622e-03 3.7413652408627303e+00 2.5151132166211760e+00 1.5243543780310775e+01 0 0 0
1180 1 3.7127683616156736e-03 5.0650013511289451e+00 3.7820995477088228e+00 1.7047373498830794e+01 0 0 0
1181 1 3.4086950735726560e-03 5.0348295753461167e+00 1.2702863442760826e+00 1.7002593975146468e+01 0 0 0
1182 1 2.0335437355539442e-03 6.2897450341277947e+00 2.4909200168719217e+00 1.5196939510464533e+01 0 0 0
1183 1 4.4441774850199605e-03 5.0510716420233939e+00 1.7896897621901948e-02 1.4364974838821579e+01 0 0 0
1184 1 -4.8584685351916830e-03 6.2712713590027258e+00 1.2848414369508845e+00 1.6134177610546967e+01 0 0 0
1186 1 1.6866518837487291e-03 6.3075878551434181e+00 2.0115121148321322e+01 1.5247919953633446e+01 0 -1 0
1203 1 -4.5777453491439137e-03 3.7658487535180476e+00 6.2939246998081098e+00 1.6158764641961270e+01 0 0 0
1207 1 3.4463697106332449e-03 5.0550879775583279e+00 6.2734426555667619e+00 1.7052475753673040e+01 0 0 0
1209 1 4.4401801529512577e-03 4.9584234031819348e+00 5.0134608585285001e+00 1.4372767460222423e+01 0 0 0
1210 1 -4.6518861663430522e-03 6.2821266243408989e+00 6.2793034607639884e+00 1.6128070598124697e+01 0 0 0
1211 1 -5.1374753689362963e-03 6.2923009071902865e+00 3.7548584026197962e+00 1.6129490107235746e+01 0 0 0
1213 1 2.2129100632269109e-03 6.2872209004569974e+00 5.0466197464360611e+00 1.5195002021891215e+01 0 0 0
1409 1 1.9923686877806955e-02 2.0163888395866358e+01 2.5208558775192915e+00 1.7891145954213812e+01 -1 0 0
1413 1 1.9446783689089489e-02 2.0140899816284062e+01 2.0159002683733913e+01 1.7893026371905535e+01 -1 -1 0
1415 1 1.9046048692779750e-02 2.4679824853125227e+00 2.0134242687305814e+01 1.7918000603556333e+01 0 -1 0
1423 1 1.9667405971724061e-02 2.0142235951111221e+01 4.9983013610518281e+00 1.7884867648781142e+01 -1 0 0
1426 1 1.9354130243069916e-02 2.4856605011005177e+00 5.0157734254082769e+00 1.7928011132476584e+01 0 0 0
1431 1 1.8365740768201015e-02 2.5252780644487687e+00 2.5120468356861596e+00 1.7966829439547492e+01 0 0 0
1434 1 1.9204505328996167e-02 5.0502324259550599e+00 2.5503925835924286e+00 1.7918693990147652e+01 0 0 0
1439 1 1.9019039052998302e-02 4.9832392044291813e+00 3.1984330905933764e-02 1.7896114461195150e+01 0 0 0
1465 1 1.8147715124855041e-02 5.0388860834266573e+00 5.0483724688480329e+00 1.7934288241984127e+01 0 0 0
931 1 2.4007131400628316e-03 7.5159822729762498e+00 1.3077353085981538e+00 1.3444200801658285e+01 0 0 0
958 1 2.3036096001775269e-03 7.5792367377013310e+00 6.2312970565986401e+00 1.3449481265918788e+01 0 0 0
959 1 2.5582601244049812e-03 7.5702366615189423e+00 3.7339594567083965e+00 1.3425115602683860e+01 0 0 0
962 1 1.0297544276162769e-03 8.8145264587785856e+00 3.7687186907647408e+00 1.2482501668221389e+01 0 0 0
963 1 1.1188229734189672e-03 8.8565985791859294e+00 1.3167498152715575e+00 1.2544772632386643e+01 0 0 0
966 1 2.3345263756987334e-03 1.0070617100489814e+01 3.7610422909612340e+00 1.3425372945468935e+01 0 0 0
967 1 2.0652452515032720e-03 1.0118075170796581e+01 1.2562271784494241e+00 1.3457924461525707e+01 0 0 0
970 1 1.0718403421929718e-03 1.1342721691950251e+01 1.3025337267895880e+00 1.2606821618652733e+01 0 0 0
973 1 2.3116358741836237e-03 1.2617826834867216e+01 1.2540312317926752e+00 1.3414726106175712e+01 0 0 0
1005 1 1.1636865123065242e-03 8.8162016607816582e+00 6.2622046731434722e+00 1.2557171534917384e+01 0 0 0
1009 1 2.3037575898860337e-03 1.0097004026272549e+01 6.2926155891617146e+00 1.3417194456786667e+01 0 0 0
1012 1 9.6271582744599123e-04 1.1370150510309461e+01 6.2853038901326697e+00 1.2496881957427004e+01 0 0 0
1013 1 1.0257903280643521e-03 1.1373778978568190e+01 3.7509928953547185e+00 1.2516573956625098e+01 0 0 0
1016 1 2.4202861519256676e-03 1.2673618838178211e+01 6.2899342469121606e+00 1.3403906890768310e+01 0 0 0
1017 1 2.1964851808408395e-03 1.2638002695339726e+01 3.7226516879257341e+00 1.3407311731145082e+01 0 0 0
1185 1 4.4515962102239905e-03 7.5548270050174073e+00 2.0145069859116269e+01 1.4303050674948084e+01 0 -1 0
1187 1 3.5305453614007834e-03 7.5353696264126011e+00 1.2639596634773529e+00 1.7041135780160300e+01 0 0 0
1188 1 2.0620215825844549e-03 8.8010701562286826e+00 1.4142657849234998e-02 1.5174797886855822e+01 0 0 0
1212 1 4.1879660962129478e-03 7.5706428338589742e+00 5.0369610975346415e+00 1.4316284724296336e+01 0 0 0
1214 1 2.5371285224763491e-03 7.5337807275378763e+00 6.3096995475889974e+00 1.6970876008131707e+01 0 0 0
1215 1 3.9378776027136136e-03 7.5807122482899851e+00 3.7987612035760296e+00 1.7007179416166444e+01 0 0 0
1216 1 2.1983813884838793e-03 8.8329542396793137e+00 5.0480126130566312e+00 1.5163494042599376e+01 0 0 0
1217 1 4.3067543967822584e-03 7.5157330523190256e+00 2.4829308806607222e+00 1.4343533649347835e+01 0 0 0
1218 1 -5.5748646704359148e-03 8.8151494469440923e+00 3.7723721887717780e+00 1.6105072532068355e+01 0 0 0
1219 1 -5.1101413635625606e-03 8.8211017109917780e+00 1.2557774498116057e+00 1.6114919369639626e+01 0 0 0
1220 1 4.5753750792793691e-03 1.0092358359609770e+01 2.5189919361982467e+00 1.4281538113217664e+01 0 0 0
1221 1 1.9733791084927737e-03 8.8013492239091917e+00 2.5137824536624405e+00 1.5222247379396375e+01 0 0 0
1222 1 3.4290968526521485e-03 1.0121188252980046e+01 3.7850279284997401e+00 1.7007257658430145e+01 0 0 0
1223 1 3.0232899658746266e-03 1.0061533164916453e+01 1.2836295278954413e+00 1.6984795937809881e+01 0 0 0
1224 1 1.9429135835103489e-03 1.1388799500875198e+01 2.4699864857823841e+00 1.5190940803088431e+01 0 0 0
1225 1 4.5053004553879169e-03 1.0092261137641533e+01 7.0961933408284411e-02 1.4305484388682583e+01 0 0 0
1226 1 -4.7132797054009658e-03 1.1352830126510877e+01 1.2370601858470729e+00 1.6123858498839269e+01 0 0 0
1227 1 4.4336074717343356e-03 1.2612509962869126e+01 2.0126668858966486e+01 1.4303977219418103e+01 0 -1 0
1228 1 1.7765538929977451e-03 1.1376658556262976e+01 2.0168722272839428e+01 1.5270632229417201e+01 0 -1 0
1229 1 4.5254368558119663e-03 1.2623301146093411e+01 1.2338340352624613e+00 1.7039946596746347e+01 0 0 0
1261 1 -4.6546234329202839e-03 8.8213740822305287e+00 6.3012129789700504e+00 1.6062642183550008e+01 0 0 0
1265 1 2.7256468213621332e-03 1.0066407456194424e+01 6.2644795546678269e+00 1.6992932095955226e+01 0 0 0
1267 1 4.3833515320918174e-03 1.0112987923279952e+01 5.0265545449525009e+00 1.4284797584646340e+01 0 0 0
1268 1 -4.6112543511970007e-03 1.1352793072340056e+01 6.2575545883479355e+00 1.6091573138873851e+01 0 0 0
1269 1 -4.8805426154963404e-03 1.1351647920826991e+01 3.7195615930505013e+00 1.6129386932656889e+01 0 0 0
1270 1 4.5067957656477241e-03 1.2659453072118810e+01 4.9440846055000387e+00 1.4258198054223936e+01 0 0 0
1271 1 2.3049904241030771e-03 1.1386494884041449e+01 4.9995530714642928e+00 1.5187646741126759e+01 0 0 0
1272 1 3.7668656511777401e-03 1.2636462277357259e+01 6.2884884548282232e+00 1.7009538818865234e+01 0 0 0
1273 1 3.8320754079705140e-03 1.2588543877958552e+01 3.8237705074762176e+00 1.7031821044896414e+01 0 0 0
1275 1 4.3306275727187857e-03 1.2640510308498309e+01 2.4813291525415786e+00 1.4330345455872056e+01 0 0 0
1441 1 1.8870591838551255e-02 7.5349708158428674e+00 2.0148628384706079e+01 1.7879954865865216e+01 0 -1 0
1468 1 2.0286867433489439e-02 7.6322726460131580e+00 5.0808242793128828e+00 1.7883597245231140e+01 0 0 0
1473 1 2.0162547932874701e-02 7.5583765083153667e+00 2.5283719298919394e+00 1.7900271783870888e+01 0 0 0
1476 1 1.9317523786127996e-02 1.0066088663397590e+01 2.5118891114320259e+00 1.7870101394556077e+01 0 0 0
1481 1 1.9043333094648261e-02 1.0023905810506951e+01 1.7689833350714064e-02 1.7880505218159882e+01 0 0 0
1483 1 1.8938584102105912e-02 1.2614586169999040e+01 2.0114859571126125e+01 1.7920729101434450e+01 0 -1 0
1523 1 1.9011562137784349e-02 1.0092594453232383e+01 5.0399282931773337e+00 1.7889307914178858e+01 0 0 0
1526 1 1.9103224835721209e-02 1.2616811355914397e+01 5.0033884376723288e+00 1.7928969744817522e+01 0 0 0
1531 1 1.9359753267605473e-02 1.2591234814639110e+01 2.4827558519723953e+00 1.7894514937103111e+01 0 0 0
1020 1 1.0096238242842885e-03 1.3898580320223944e+01 3.7802102418225161e+00 1.2540617827432172e+01 0 0 0
1021 1 1.0780579837738435e-03 1.3928970235433390e+01 1.2318276383691147e+00 1.2510967450527158e+01 0 0 0
1024 1 2.2429204195518943e-03 1.5147143241645793e+01 3.7876669331567139e+00 1.3417106774355654e+01 0 0 0
1025 1 2.2639930266227497e-03 1.5166589231317683e+01 1.2436265768490047e+00 1.3382923946908370e+01 0 0 0
1028 1 9.3823143607621787e-04 1.6403963473844332e+01 1.1979424753038213e+00 1.2508211596680868e+01 0 0 0
1031 1 2.3384309022122752e-03 1.7630645210788465e+01 1.1940026468081657e+00 1.3401787297525603e+01 0 0 0
1069 1 8.9655916992850953e-04 1.3900522442101625e+01 6.2814876975110021e+00 1.2527025762523946e+01 0 0 0
1073 1 2.3118950770670043e-03 1.5115976010997260e+01 6.3084750912710881e+00 1.3454835831072719e+01 0 0 0
1076 1 9.4019925010620556e-04 1.6392549600120915e+01 6.2962661384652012e+00 1.2525406005402001e+01 0 0 0
1077 1 1.0709955011249687e-03 1.6379968850911478e+01 3.7323357106282478e+00 1.2538887690494045e+01 0 0 0
1080 1 2.3283109020540448e-03 1.7648103890431408e+01 6.2784075461511115e+00 1.3409100664606065e+01 0 0 0
1081 1 2.0134606110339304e-03 1.7604612464977023e+01 3.7394002951901713e+00 1.3417652979864776e+01 0 0 0
1084 1 1.0391780773031027e-03 1.8907651093909312e+01 3.7440142749055156e+00 1.2549659010081369e+01 0 0 0
1085 1 9.5163075378167604e-04 1.8868531575920329e+01 1.2497449762769253e+00 1.2495982066179035e+01 0 0 0
1123 1 1.0047387295641693e-03 1.8865836956488412e+01 6.3108463564373221e+00 1.2578469137210744e+01 0 0 0
1230 1 2.3893951905640302e-03 1.3856473365124780e+01 1.0739605983189116e-02 1.5173559841757525e+01 0 0 0
1274 1 2.0587850347217472e-03 1.3845136243842228e+01 4.9859950931419341e+00 1.5253716549278408e+01 0 0 0
1276 1 -5.3065330084316768e-03 1.3837484371849889e+01 3.7402058594935510e+00 1.6081001329323851e+01 0 0 0
1277 1 -4.8554478696534904e-03 1.3806678489391487e+01 1.2634826463891877e+00 1.6127478721685517e+01 0 0 0
1278 1 4.5422590540958041e-03 1.5134142621661100e+01 2.5575142273002824e+00 1.4351113200390850e+01 0 0 0
1279 1 1.8884176206496750e-03 1.3862542592501885e+01 2.5043959995567788e+00 1.5263650833026725e+01 0 0 0
1280 1 3.9334935574475705e-03 1.5073156700680185e+01 3.7020282562809883e+00 1.7029274698518861e+01 0 0 0
1281 1 3.4330534162415847e-03 1.5148712849149890e+01 1.2339723722379596e+00 1.7050903220972813e+01 0 0 0
1282 1 1.9842205276564971e-03 1.6366745405317239e+01 2.5178514968003003e+00 1.5235156833197719e+01 0 0 0
1283 1 4.5217934729793767e-03 1.5193564785985449e+01 3.3853662635150848e-02 1.4318762288005924e+01 0 0 0
1284 1 -4.7687289068021601e-03 1.6419749384192571e+01 1.2281973181694221e+00 1.6092516486946099e+01 0 0 0
1285 1 4.5356712970779202e-03 1.7615528894574343e+01 2.0085284821427212e+01 1.4277147851918679e+01 0 -1 0
1286 1 1.8489023018545628e-03 1.6374763771232903e+01 2.0142593704748663e+01 1.5218817146602191e+01 0 -1 0
1287 1 2.9600159634981288e-03 1.7655983510148932e+01 1.2387087433803385e+00 1.7045788557706899e+01 0 0 0
1288 1 2.2964315051828411e-03 1.8936009469256224e+01 1.1139269625005643e-02 1.5228836967108654e+01 0 0 0
1325 1 -5.6590873816914503e-03 1.3841911043967528e+01 6.2284651518646177e+00 1.6062735685388354e+01 0 0 0
1329 1 2.6863048621645043e-03 1.5102665301173484e+01 6.2522060698503434e+00 1.6998218926551289e+01 0 0 0
1331 1 4.5692852053353331e-03 1.5134405287812582e+01 5.0528168686512052e+00 1.4337430641322078e+01 0 0 0
1332 1 -5.0440417374189748e-03 1.6334453477503153e+01 6.2071367203963792e+00 1.6125611435906510e+01 0 0 0
1333 1 -5.1970320143467095e-03 1.6423054508511218e+01 3.7090773312796412e+00 1.6160469839245881e+01 0 0 0
1334 1 4.5636257122574795e-03 1.7634121849467615e+01 4.9749474183271714e+00 1.4244478701376888e+01 0 0 0
1335 1 1.9348342074900749e-03 1.6364856093245738e+01 4.9904513548410376e+00 1.5212944204988888e+01 0 0 0
1336 1 2.4468474164748445e-03 1.7589310453140151e+01 6.2421330820237575e+00 1.6943293777460735e+01 0 0 0
1337 1 4.4315568827692072e-03 1.7632858396117030e+01 3.7321544090937371e+00 1.7047986639573551e+01 0 0 0
1338 1 2.1052103997167898e-03 1.8858766407798630e+01 4.9431058339442986e+00 1.5221126949257620e+01 0 0 0
1339 1 4.4804466215746935e-03 1.7651377379602618e+01 2.5064500695271423e+00 1.4320579892177603e+01 0 0 0
1340 1 -5.0335818201591833e-03 1.8884232021539752e+01 3.7272866001452796e+00 1.6107159818344758e+01 0 0 0
1341 1 -4.9402056659312108e-03 1.8969131039369191e+01 1.2385914702034113e+00 1.6103165963498288e+01 0 0 0
1342 1 2.3160011413473867e-03 1.8924568549757382e+01 2.4694668786968399e+00 1.5179272711473637e+01 0 0 0
1379 1 -4.7492659408737937e-03 1.8869828929017380e+01 6.2406292995493073e+00 1.6113965390955492e+01 0 0 0
1534 1 1.8186012843036968e-02 1.5104638708875845e+01 2.4724093181861604e+00 1.7916376071443651e+01 0 0 0
1539 1 1.8864293703788861e-02 1.5121424457642449e+01 2.0149956999559787e+01 1.7902424636620708e+01 0 -1 0
1541 1 1.9595449983165775e-02 1.7652799111291191e+01 2.0161047330030314e+01 1.7889161707222026e+01 0 -1 0
1587 1 1.9838360030045327e-02 1.5100899888291103e+01 5.0470712092849794e+00 1.7850887154452646e+01 0 0 0
1590 1 1.8996302694187790e-02 1.7609587287764779e+01 4.9960709020342247e+00 1.7921617452318831e+01 0 0 0
1595 1 1.9017319164096540e-02 1.7648230936180951e+01 2.4594263459777683e+00 1.7928091580777480e+01 0 0 0
908 1 2.4113084396638670e-03 9.3126475693651335e-03 8.7969120181448641e+00 1.3425835416762053e+01 0 0 0
935 1 2.2827299008119531e-03 3.4622906678236989e-03 1.1388677834296910e+01 1.3385746467037738e+01 0 0 0
938 1 9.8435897675596957e-04 1.2801073370109497e+00 1.1331438451480489e+01 1.2548747927730012e+01 0 0 0
939 1 8.9587667512215825e-04 1.3114920085891764e+00 8.7999094512238045e+00 1.2554595293088200e+01 0 0 0
942 1 2.4332418762231067e-03 2.5367214564410330e+00 1.1348854260674997e+01 1.3456529186959191e+01 0 0 0
943 1 2.5016859528357374e-03 2.5363213929408492e+00 8.7984611394772987e+00 1.3440011880431729e+01 0 0 0
946 1 9.2668430016920296e-04 3.8121834675189987e+00 8.8165798494058656e+00 1.2584877625050426e+01 0 0 0
950 1 2.4985625326457198e-03 5.0409623529150025e+00 8.8419704683385145e+00 1.3462944296206777e+01 0 0 0
989 1 9.7124159269739655e-04 3.7965229146685644e+00 1.1386368409762280e+01 1.2518446358968651e+01 0 0 0
993 1 2.3809504480277596e-03 5.0501006815297176e+00 1.1365560818212376e+01 1.3406970755421062e+01 0 0 0
996 1 1.0831929601111141e-03 6.3045967198895632e+00 1.1356326813898546e+01 1.2566471062466702e+01 0 0 0
997 1 1.0750426211950986e-03 6.2565806746636436e+00 8.8126699905959818e+00 1.2566231668720093e+01 0 0 0
1163 1 4.5970133929577996e-03 2.0151011111747085e+01 7.5337131736506278e+00 1.4363404995027862e+01 -1 0 0
1164 1 3.9353325347438713e-03 2.0149959811159480e+01 8.7868836946063311e+00 1.7071617421522816e+01 -1 0 0
1166 1 1.6158545282978767e-03 1.2040387628603224e+00 7.5478799981861338e+00 1.5290172166409949e+01 0 0 0
1189 1 4.4283955841352973e-03 2.0165213035798430e+01 1.2642183632964741e+01 1.4328746599417579e+01 -1 0 0
1191 1 3.8268912164609371e-03 8.0688053131076493e-03 1.1297740181594213e+01 1.7039087635897353e+01 0 0 0
1192 1 2.0232815836910673e-03 1.2420591567259909e+00 1.2654482975599890e+01 1.5222684930512745e+01 0 0 0
1193 1 4.5066289260554523e-03 4.3322578277249009e-02 1.0108896423776873e+01 1.4251216113549724e+01 0 0 0
1194 1 -5.3365759818276787e-03 1.2190524660208386e+00 1.1371973154486392e+01 1.6085628059981573e+01 0 0 0
1195 1 -4.9984890104785218e-03 1.2236819876452834e+00 8.8034972647633971e+00 1.6143546712401140e+01 0 0 0
1196 1 4.5846863808421704e-03 2.5214526920322657e+00 1.0090168362090353e+01 1.4328978067102989e+01 0 0 0
1197 1 2.0486374954414668e-03 1.2227015613128007e+00 1.0090515111612413e+01 1.5225302727523593e+01 0 0 0
1198 1 2.8979007622370913e-03 2.5085966607090162e+00 1.1343394290320241e+01 1.7025289203735934e+01 0 0 0
1199 1 4.0732615120883794e-03 2.5205474885482779e+00 8.8254443149168225e+00 1.7043489998587077e+01 0 0 0
1200 1 1.7097270913064560e-03 3.7315601830240772e+00 1.0074247493825752e+01 1.5223469985853765e+01 0 0 0
1201 1 4.6880630016944234e-03 2.5070189833481953e+00 7.4917425754677014e+00 1.4391415838218697e+01 0 0 0
1202 1 -5.1118395026615972e-03 3.7056174181886936e+00 8.7812736309572692e+00 1.6111157070069325e+01 0 0 0
1204 1 4.4857298808519425e-03 5.0039255078188258e+00 7.5038572286200740e+00 1.4356219262741435e+01 0 0 0
1205 1 1.6914006694979699e-03 3.7839351854192009e+00 7.4825539104113767e+00 1.5279054127260514e+01 0 0 0
1206 1 3.6504558392653520e-03 5.0198195562486001e+00 8.7961025792826177e+00 1.7005842495051169e+01 0 0 0
1208 1 1.7597288994681659e-03 6.2929028879599818e+00 7.5453784213165882e+00 1.5232270621133265e+01 0 0 0
1243 1 4.6232928922362851e-03 2.4874465460703155e+00 1.2612962781927115e+01 1.4365397733734227e+01 0 0 0
1245 1 -4.4996110021032270e-03 3.7218841425867240e+00 1.1350091593969529e+01 1.6130928096744331e+01 0 0 0
1246 1 4.3679165305130201e-03 5.0401801544779579e+00 1.2611597401080108e+01 1.4300766830537970e+01 0 0 0
1247 1 1.6657451965311027e-03 3.7592073403553088e+00 1.2614873314796235e+01 1.5276775180611740e+01 0 0 0
1249 1 2.7397016771998368e-03 4.9750855303521586e+00 1.1344298142230310e+01 1.6978256805892737e+01 0 0 0
1250 1 2.1663652701330079e-03 6.2871612344783339e+00 1.2588926264811375e+01 1.5166412956992840e+01 0 0 0
1251 1 4.5229126784786695e-03 5.0037391089671193e+00 1.0058644890265905e+01 1.4370770421295727e+01 0 0 0
1252 1 -4.5586821625361439e-03 6.2489715792618314e+00 1.1272329393603085e+01 1.6138499576813540e+01 0 0 0
1253 1 -5.3371161452455398e-03 6.2507350000459709e+00 8.8184051800357324e+00 1.6137387858799325e+01 0 0 0
1255 1 1.7952059067566492e-03 6.2667412730402994e+00 1.0003969262909806e+01 1.5249726920861921e+01 0 0 0
1419 1 1.9482496531994020e-02 2.0106026345920771e+01 7.5385440357158418e+00 1.7895940797604482e+01 -1 0 0
1445 1 2.0392932038631528e-02 2.0159765202107252e+01 1.2599499531134422e+01 1.7893670130974730e+01 -1 0 0
1449 1 1.9930087980600180e-02 2.0167486984861345e+01 1.0079031259308346e+01 1.7900239491035233e+01 -1 0 0
1452 1 1.8525763190967780e-02 2.4883440639961276e+00 1.0092081251157060e+01 1.7917663042217011e+01 0 0 0
1457 1 1.8652032427391919e-02 2.4911735197657809e+00 7.5533141293701673e+00 1.7956490598688617e+01 0 0 0
1460 1 1.9226761943462501e-02 5.0271291154156792e+00 7.5368495519906471e+00 1.7905823744968238e+01 0 0 0
1499 1 1.8975079211144788e-02 2.5049263849448939e+00 1.2570599138157915e+01 1.7911578695998525e+01 0 0 0
1502 1 1.9368243949504205e-02 4.9666183890350064e+00 1.2579916151518889e+01 1.7944143985922665e+01 0 0 0
1507 1 1.9697423134160796e-02 4.9953199738663585e+00 1.0093781128643313e+01 1.7849478792874422e+01 0 0 0
1000 1 2.3968786783759234e-03 7.5494662013278129e+00 1.1373244476496964e+01 1.3448177181024898e+01 0 0 0
1001 1 2.4579159787264265e-03 7.5711645273431349e+00 8.8531490292860653e+00 1.3440518796525389e+01 0 0 0
1004 1 1.0784949315878795e-03 8.7637152819364790e+00 8.8340860220140467e+00 1.2554522603674899e+01 0 0 0
1008 1 2.2020882039119200e-03 1.0076035395174587e+01 8.8274587530351631e+00 1.3400670867846664e+01 0 0 0
1053 1 1.0894519235279674e-03 8.8628487682841754e+00 1.1356008826989624e+01 1.2599576405928699e+01 0 0 0
1057 1 2.4036788141168224e-03 1.0096845373982926e+01 1.1370748406135212e+01 1.3502714710487586e+01 0 0 0
1060 1 1.0683611895169884e-03 1.1392173592151979e+01 1.1343091392096488e+01 1.2493624747550390e+01 0 0 0
1061 1 1.1491363672156390e-03 1.1302270992549108e+01 8.8182502211409179e+00 1.2497207424458312e+01 0 0 0
1064 1 2.5044393089457338e-03 1.2634977198989873e+01 1.1337294786607114e+01 1.3448204220602189e+01 0 0 0
1065 1 2.3520940781641565e-03 1.2645254142614275e+01 8.7216705089307780e+00 1.3407136769227231e+01 0 0 0
1254 1 4.4338175101783679e-03 7.5190071703625394e+00 1.0068115043284630e+01 1.4336903823178103e+01 0 0 0
1256 1 2.4087690537560307e-03 7.5891600316468164e+00 1.1293315694365271e+01 1.7023309255454159e+01 0 0 0
1257 1 2.3488139637670461e-03 7.5127291855936127e+00 8.8005895315042366e+00 1.6973330643417277e+01 0 0 0
1258 1 2.2312898331623703e-03 8.8272112591289140e+00 1.0053571199275099e+01 1.5168875725806522e+01 0 0 0
1259 1 4.4481788127917104e-03 7.5379410158271964e+00 7.5281745763914163e+00 1.4366907488505277e+01 0 0 0
1260 1 -4.7549504054336502e-03 8.8259679250728791e+00 8.8056232505671144e+00 1.6094976000357978e+01 0 0 0
1262 1 4.4177556879884238e-03 1.0079563613700488e+01 7.5612875445463654e+00 1.4282997624476023e+01 0 0 0
1263 1 2.0784073413264189e-03 8.8133092720765642e+00 7.5631737405056789e+00 1.5216414462442074e+01 0 0 0
1264 1 4.0899895760988089e-03 1.0062477982461019e+01 8.7961061406305898e+00 1.7037321526286121e+01 0 0 0
1266 1 2.1174392645663125e-03 1.1385258472489822e+01 7.5816840357196646e+00 1.5212023004296217e+01 0 0 0
1307 1 4.2954074334549362e-03 7.5992130897670664e+00 1.2630984722348520e+01 1.4322909418408690e+01 0 0 0
1309 1 -4.7128129495864280e-03 8.8291960602154820e+00 1.1311095209506940e+01 1.6100124850493746e+01 0 0 0
1310 1 4.3037798093752957e-03 1.0126552318156907e+01 1.2611166698250594e+01 1.4309902379997355e+01 0 0 0
1311 1 2.1520869158204300e-03 8.8742000718488789e+00 1.2615742494697413e+01 1.5195510872838398e+01 0 0 0
1313 1 2.8632772441579400e-03 1.0076921528646782e+01 1.1258743928630258e+01 1.6974168454867431e+01 0 0 0
1314 1 2.1123918790728773e-03 1.1338168996649371e+01 1.2616242998270019e+01 1.5190897137635265e+01 0 0 0
1315 1 4.3298863302867760e-03 1.0116279018501299e+01 1.0077461729154939e+01 1.4291667244975825e+01 0 0 0
1316 1 -4.9996555693225565e-03 1.1356717655196043e+01 1.1318051339029012e+01 1.6088235398441583e+01 0 0 0
1317 1 -4.9182259667206107e-03 1.1356296619870893e+01 8.8062053827939994e+00 1.6152317127142325e+01 0 0 0
1318 1 4.6884755247143164e-03 1.2649510302841152e+01 1.0061585402781725e+01 1.4345097742221091e+01 0 0 0
1319 1 1.9578401594456266e-03 1.1391321136473248e+01 1.0057051301418207e+01 1.5212208676150238e+01 0 0 0
1320 1 4.2264935271010551e-03 1.2599173315828464e+01 1.1304647107005904e+01 1.7026670189653359e+01 0 0 0
1321 1 3.6239934150595170e-03 1.2623013984136177e+01 8.7685874947709763e+00 1.7062477389784750e+01 0 0 0
1323 1 4.4477391150347049e-03 1.2621350732817376e+01 7.5451072017556875e+00 1.4294152138422781e+01 0 0 0
1361 1 4.3963147844770008e-03 1.2619192589008858e+01 1.2604589334492124e+01 1.4315901434895228e+01 0 0 0
1510 1 1.9335466915671170e-02 7.5696459700789278e+00 1.0058853170333856e+01 1.7839630487683166e+01 0 0 0
1515 1 1.9674663264716469e-02 7.5384289791163024e+00 7.5762870483028246e+00 1.7866011608855430e+01 0 0 0
1518 1 1.9261485008951015e-02 1.0087496291735752e+01 7.5269182951994971e+00 1.7891799858148847e+01 0 0 0
1563 1 1.9043313919321510e-02 7.5329622742343982e+00 1.2538863847085363e+01 1.7894054793391284e+01 0 0 0
1566 1 1.9115917514170369e-02 1.0107239802395860e+01 1.2561905838881488e+01 1.7901384196072435e+01 0 0 0
1571 1 1.9219765952278950e-02 1.0062299885965857e+01 1.0085507360116791e+01 1.7914731177695213e+01 0 0 0
1574 1 1.9267474131846651e-02 1.2598549272466148e+01 1.0040406990201561e+01 1.7925609224418274e+01 0 0 0
1579 1 1.9048619657362126e-02 1.2623768936511382e+01 7.5348192197265940e+00 1.7911344185720473e+01 0 0 0
1617 1 1.9741867093822245e-02 1.2569960058080854e+01 1.2586412089352701e+01 1.7917829709527012e+01 0 0 0
1068 1 1.0009068917029395e-03 1.3886969594608258e+01 8.8490875336127335e+00 1.2493174114825777e+01 0 0 0
1072 1 2.4183044436169735e-03 1.5191105919620430e+01 8.8200946636357767e+00 1.3386312433244793e+01 0 0 0
1107 1 1.0531572195094812e-03 1.3889083219252660e+01 1.1356604896559615e+01 1.2477463108144882e+01 0 0 0
1111 1 2.4019555345973637e-03 1.5145468329593953e+01 1.1331599324408669e+01 1.3374823118158325e+01 0 0 0
1114 1 8.8208091427633903e-04 1.6350838351463896e+01 1.1346547984825026e+01 1.2486698960890187e+01 0 0 0
1115 1 9.1846412025834161e-04 1.6416966379297836e+01 8.8324272935104631e+00 1.2549753528877568e+01 0 0 0
1118 1 2.2951368757389004e-03 1.7639626490141016e+01 1.1337041673651560e+01 1.3415673791871809e+01 0 0 0
1119 1 2.4009324654554517e-03 1.7656422496520001e+01 8.8947963890783566e+00 1.3482188845335031e+01 0 0 0
1122 1 1.1030179443885721e-03 1.8940719444962941e+01 8.8551837013799162e+00 1.2631948996276890e+01 0 0 0
1145 1 9.9919922593166757e-04 1.8906572627307014e+01 1.1331098987052755e+01 1.2538379042208087e+01 0 0 0
1322 1 1.7474610167605425e-03 1.3931701233628880e+01 1.0057630562034353e+01 1.5212503698484715e+01 0 0 0
1324 1 -5.4647898372658611e-03 1.3874593870580243e+01 8.7957099988112670e+00 1.6103233914901271e+01 0 0 0
1326 1 4.6007200066229027e-03 1.5150010965674998e+01 7.5352458797906925e+00 1.4292944762035509e+01 0 0 0
1327 1 2.2425961290987798e-03 1.3870240836576693e+01 7.4924744792352600e+00 1.5235315085429647e+01 0 0 0
1328 1 3.9635350770253694e-03 1.5130891959788960e+01 8.8453354000698496e+00 1.6981124315451339e+01 0 0 0
1330 1 1.8202642171964124e-03 1.6397365767761645e+01 7.5646798087946046e+00 1.5269377944786731e+01 0 0 0
1363 1 -4.7954432379693620e-03 1.3837822359253938e+01 1.1313839734667585e+01 1.6150226616850389e+01 0 0 0
1364 1 4.4015423110314563e-03 1.5159641659825494e+01 1.2609659943763694e+01 1.4334498159064793e+01 0 0 0
1365 1 1.5793338367296578e-03 1.3856287978527927e+01 1.2577572992380009e+01 1.5233189967199031e+01 0 0 0
1367 1 4.3129573930051528e-03 1.5114572508076142e+01 1.1344177745093640e+01 1.7045981267939556e+01 0 0 0
1368 1 2.0950136965982918e-03 1.6372349397390206e+01 1.2578328202806631e+01 1.5179019437193096e+01 0 0 0
1369 1 4.5248743718338822e-03 1.5160571223960583e+01 1.0110399006433170e+01 1.4350182712035600e+01 0 0 0
1370 1 -5.3455195807793699e-03 1.6367083433691832e+01 1.1323130594344800e+01 1.6137185747063096e+01 0 0 0
1371 1 -4.8049205934882367e-03 1.6403441485924404e+01 8.8137175667853143e+00 1.6065827466970152e+01 0 0 0
1372 1 4.4657607965878834e-03 1.7684795674516966e+01 1.0134518568432886e+01 1.4349011542039188e+01 0 0 0
1373 1 1.8663741777842919e-03 1.6376582657563645e+01 1.0124883830013415e+01 1.5244710204840546e+01 0 0 0
1374 1 4.2837002116355716e-03 1.7615246737671391e+01 1.1320190187075582e+01 1.7019899006866886e+01 0 0 0
1375 1 4.7583773374332734e-03 1.7675904093761819e+01 8.7481308153230231e+00 1.7028480067789307e+01 0 0 0
1376 1 2.2093524810947677e-03 1.8914777414436887e+01 1.0089369430938540e+01 1.5228138165838953e+01 0 0 0
1377 1 4.7244378782879039e-03 1.7625526038451991e+01 7.5660049420957440e+00 1.4331209621489451e+01 0 0 0
1378 1 -5.3769206394448403e-03 1.8914249031173295e+01 8.8364777015081657e+00 1.6103278069223236e+01 0 0 0
1380 1 1.6415864229675557e-03 1.8905638806306218e+01 7.5336005921894458e+00 1.5236676940468561e+01 0 0 0
1399 1 4.4714360886145051e-03 1.7673700755027685e+01 1.2608382219744144e+01 1.4280745757166272e+01 0 0 0
1401 1 -5.2144722188211265e-03 1.8876323210121129e+01 1.1301815487990012e+01 1.6114423977438847e+01 0 0 0
1402 1 1.8630571256919922e-03 1.8913857573297811e+01 1.2582077714622816e+01 1.5237748652862342e+01 0 0 0
1582 1 1.9753633779618984e-02 1.5062918826180923e+01 7.5604920211487707e+00 1.7893655637303045e+01 0 0 0
1620 1 1.9312341223693921e-02 1.5120064323012610e+01 1.2594965597201353e+01 1.7938625757456407e+01 0 0 0
1625 1 1.9536525917103066e-02 1.5100113506921646e+01 1.0098060955357525e+01 1.7957535050399020e+01 0 0 0
1628 1 1.8733602857067887e-02 1.7652973696396863e+01 1.0068337654842072e+01 1.7923811035313079e+01 0 0 0
1633 1 1.8821421076761196e-02 1.7608876816028804e+01 7.4569362611586181e+00 1.7899580446876971e+01 0 0 0
1655 1 1.8824667659728692e-02 1.7592291745487692e+01 1.2644690022216542e+01 1.7952312244980568e+01 0 0 0
934 1 2.2465415812465816e-03 3.3848891884988658e-02 1.3835890079626381e+01 1.3457821225946425e+01 0 0 0
976 1 2.4439470513965204e-03 2.0133281827127117e+01 1.8964091513513083e+01 1.3440405147206047e+01 -1 0 0
977 1 2.2415840994395165e-03 1.2193533740412271e-03 1.6339092826672395e+01 1.3425795591060529e+01 0 0 0
980 1 1.0737869414426168e-03 1.2719841519244166e+00 1.6361813884652527e+01 1.2470115210934891e+01 0 0 0
981 1 9.8867313773359951e-04 1.2912721840544938e+00 1.3877574355962997e+01 1.2526294001091626e+01 0 0 0
984 1 2.5081710531276898e-03 2.5598220625802850e+00 1.6412992306176886e+01 1.3422912796154565e+01 0 0 0
985 1 2.4876770318086982e-03 2.5098454581676028e+00 1.3917505865310815e+01 1.3434272517633376e+01 0 0 0
988 1 1.0512931043699090e-03 3.7390725986861799e+00 1.3923192451398110e+01 1.2508429630828484e+01 0 0 0
992 1 2.3335220145705850e-03 5.0441197363453245e+00 1.3859203356860105e+01 1.3461338740566660e+01 0 0 0
1033 1 1.0034555843846423e-03 1.2183676606508411e+00 1.8911583531054159e+01 1.2529285856797321e+01 0 0 0
1034 1 2.3508662387383811e-03 2.4789319183325080e+00 1.8899398242847496e+01 1.3445788821263140e+01 0 0 0
1036 1 9.9218035211625223e-04 3.7585473241098155e+00 1.8929658272296198e+01 1.2540941954519822e+01 0 0 0
1037 1 9.6000948735785378e-04 3.8121733274687344e+00 1.6458460027029570e+01 1.2536435354123080e+01 0 0 0
1040 1 2.4501560955071840e-03 5.0108675029420073e+00 1.8952824291603115e+01 1.3476130082419450e+01 0 0 0
1041 1 2.4604054060562474e-03 5.0739886082160028e+00 1.6432006811184092e+01 1.3422813957300468e+01 0 0 0
1044 1 9.0375459040096032e-04 6.2943239320842972e+00 1.6401333431757948e+01 1.2562429594835052e+01 0 0 0
1045 1 1.0578270917638191e-03 6.2934597859204455e+00 1.3919383983521998e+01 1.2537436314813931e+01 0 0 0
1087 1 9.3285044688473054e-04 6.3142786053520839e+00 1.8901306364380449e+01 1.2513586828671643e+01 0 0 0
1190 1 3.3611617963564436e-03 2.0139494376032445e+01 1.3894491820556171e+01 1.6977130332550392e+01 -1 0 0
1231 1 4.6565719468683606e-03 2.0149647242922757e+01 1.7585272451716936e+01 1.4326802118976520e+01 -1 0 0
1232 1 2.8416552590140626e-03 3.3145252017583358e-02 1.8914074366733296e+01 1.6974747134965050e+01 0 0 0
1233 1 2.8269382304835873e-03 2.4242498855203395e-02 1.6395630791313437e+01 1.6993985946910641e+01 0 0 0
1234 1 1.9053796499290548e-03 1.2603828533185628e+00 1.7597113950137132e+01 1.5241218443723909e+01 0 0 0
1235 1 4.1258562456292346e-03 2.0111009514618779e+01 1.5111015420237536e+01 1.4313040906320362e+01 -1 0 0
1236 1 -4.6369079427132955e-03 1.1835042417025829e+00 1.6434062936857341e+01 1.6119804657054626e+01 0 0 0
1237 1 -5.4578352590244784e-03 1.2252379377081193e+00 1.3897339241959813e+01 1.6086627028942505e+01 0 0 0
1238 1 4.2649917340563037e-03 2.5124270235269979e+00 1.5147964411615098e+01 1.4344942334212002e+01 0 0 0
1239 1 2.2130985713601651e-03 1.2481653280578389e+00 1.5160829631533598e+01 1.5191825075619720e+01 0 0 0
1240 1 3.3322005193883756e-03 2.5423907091677562e+00 1.6404228235174831e+01 1.6996123264103453e+01 0 0 0
1241 1 3.9590932597942385e-03 2.4516921091133890e+00 1.3878840237462567e+01 1.7002894741525491e+01 0 0 0
1242 1 1.8652822556581559e-03 3.7989821101392787e+00 1.5160786139319736e+01 1.5222662833479655e+01 0 0 0
1244 1 -4.8995670233372337e-03 3.7352519330523641e+00 1.3900559620347737e+01 1.6148423223253289e+01 0 0 0
1248 1 3.9473836111266914e-03 5.0229148158925927e+00 1.3868011584281673e+01 1.7000230154658755e+01 0 0 0
1289 1 -4.5140892274210713e-03 1.2704435086093819e+00 1.8866112401628516e+01 1.6142609696127796e+01 0 0 0
1290 1 3.5785576856203296e-03 2.5291700182380126e+00 1.8895722526140748e+01 1.7065414924847776e+01 0 0 0
1291 1 4.3774885496520406e-03 2.5425964337713669e+00 1.7671246515295554e+01 1.4323901876121335e+01 0 0 0
1292 1 -5.2621445280537386e-03 3.8009092458179174e+00 1.8860302854392106e+01 1.6179760262230531e+01 0 0 0
1293 1 -5.3499058825865102e-03 3.8171297460942917e+00 1.6404523961833601e+01 1.6088323199783961e+01 0 0 0
1294 1 4.5292111608474387e-03 5.0556156283334932e+00 1.7649686101254410e+01 1.4311389999323978e+01 0 0 0
1295 1 2.0788624141726861e-03 3.8099736096396910e+00 1.7629211696449644e+01 1.5228349140318278e+01 0 0 0
1296 1 5.2536390694564094e-03 5.0548557504286089e+00 1.8851934351440772e+01 1.7079682819670328e+01 0 0 0
1297 1 2.7801915995942449e-03 5.0172814411431412e+00 1.6373098399885794e+01 1.7025282284346829e+01 0 0 0
1298 1 2.0507641089505205e-03 6.3222174063582282e+00 1.7688240779645604e+01 1.5219413244338154e+01 0 0 0
1299 1 4.6524682758367856e-03 5.0461563549851149e+00 1.5093767699328836e+01 1.4352799886022936e+01 0 0 0
1300 1 -4.8121379357084840e-03 6.3271416563430662e+00 1.6361966930860326e+01 1.6115635639920132e+01 0 0 0
1301 1 -5.2299268055389344e-03 6.3065215604148461e+00 1.3839931896335013e+01 1.6120097636205216e+01 0 0 0
1303 1 1.2700527621632926e-03 6.2974580941403877e+00 1.5143795473118635e+01 1.5264712337693156e+01 0 0 0
1343 1 -5.3074610147007236e-03 6.3039857614424708e+00 1.8891336595742899e+01 1.6121267383793331e+01 0 0 0
1487 1 1.9260848104136502e-02 2.0164220199226708e+01 1.7669278674962619e+01 1.7878511293547852e+01 -1 0 0
1491 1 1.8925182239986557e-02 4.9069365527625072e-02 1.5140135313348853e+01 1.7900435958167787e+01 0 0 0
1494 1 2.0004651341667665e-02 2.5567854861542960e+00 1.5129686440252460e+01 1.7907787464166674e+01 0 0 0
1547 1 1.9980644636709687e-02 2.5407859166850817e+00 1.7644263825179046e+01 1.7923615782951885e+01 0 0 0
1550 1 1.8504690855806732e-02 5.0216792046969640e+00 1.7600635899952401e+01 1.7946011482599115e+01 0 0 0
1555 1 1.9919483333728661e-02 5.0406243518492762e+00 1.5141766166627521e+01 1.7871612335239703e+01 0 0 0
1048 1 2.4440954428929344e-03 7.5233219990216638e+00 1.6362115354913513e+01 1.3460480122082236e+01 0 0 0
1049 1 2.3223001695612763e-03 7.5700287251111806e+00 1.3855407531511743e+01 1.3440724884697836e+01 0 0 0
1052 1 1.0081170261189867e-03 8.7896714877013853e+00 1.3903609286639824e+01 1.2505603482195102e+01 0 0 0
1056 1 2.3842191557542458e-03 1.0134376353005081e+01 1.3907695164769887e+01 1.3386735112887065e+01 0 0 0
1088 1 2.3395473426347986e-03 7.5668541590743592e+00 1.8868141603176458e+01 1.3407086630786477e+01 0 0 0
1090 1 1.0908143235410219e-03 8.8387910753555534e+00 1.8914894035249223e+01 1.2578484598424168e+01 0 0 0
1091 1 1.1115806262928802e-03 8.8136164310618437e+00 1.6400633889648681e+01 1.2547917069611261e+01 0 0 0
1094 1 2.4442296583313972e-03 1.0112335994565372e+01 1.8943826643130812e+01 1.3460745349451061e+01 0 0 0
1095 1 2.0997031075340308e-03 1.0084444657955485e+01 1.6366633006902017e+01 1.3442215647606959e+01 0 0 0
1098 1 1.0127860995909912e-03 1.1392674238214495e+01 1.6338350391473167e+01 1.2566482631740817e+01 0 0 0
1099 1 9.1701257359516869e-04 1.1346384302410474e+01 1.3864887099091582e+01 1.2496742794352700e+01 0 0 0
1102 1 2.3378463979669244e-03 1.2593762048377556e+01 1.6358528162085854e+01 1.3438673267685211e+01 0 0 0
1103 1 2.4022722468731335e-03 1.2606665416677622e+01 1.3848669186622622e+01 1.3408367728572323e+01 0 0 0
1125 1 9.0296385646798313e-04 1.1345288454688289e+01 1.8910887758784696e+01 1.2542732845149388e+01 0 0 0
1126 1 2.3047838469846846e-03 1.2572701427853302e+01 1.8893219203941022e+01 1.3445000698374848e+01 0 0 0
1302 1 4.5397071437912207e-03 7.4565064360026891e+00 1.5117803173255462e+01 1.4345804229207834e+01 0 0 0
1304 1 4.4099201811549213e-03 7.5246334882908341e+00 1.6352838835730694e+01 1.7029007841297481e+01 0 0 0
1305 1 4.6583922034377240e-03 7.5247022139419615e+00 1.3880338027314908e+01 1.7044994197885611e+01 0 0 0
1306 1 1.4575026269180375e-03 8.7919366002975838e+00 1.5169423830238951e+01 1.5242214258719603e+01 0 0 0
1308 1 -4.6761112908573097e-03 8.8099866167957508e+00 1.3843258842473594e+01 1.6128501760493688e+01 0 0 0
1312 1 3.1972557310414760e-03 1.0071679136420460e+01 1.3807792380372282e+01 1.6989767866703726e+01 0 0 0
1344 1 3.4836031802436686e-03 7.5066698454575063e+00 1.8898880338144732e+01 1.7036639057612916e+01 0 0 0
1345 1 4.5324023567152498e-03 7.5923274215767336e+00 1.7624061456656534e+01 1.4374880990202334e+01 0 0 0
1346 1 -4.6323205538763108e-03 8.8225497727328506e+00 1.8878111122789576e+01 1.6166833008754672e+01 0 0 0
1347 1 -4.8901058596938947e-03 8.7780433292110285e+00 1.6404863506838200e+01 1.6161078235441778e+01 0 0 0
1348 1 4.7063771211614328e-03 1.0066817285927504e+01 1.7601581494649515e+01 1.4296808678786219e+01 0 0 0
1349 1 1.3950467581943767e-03 8.8196017796107569e+00 1.7607204981494714e+01 1.5298197035374535e+01 0 0 0
1350 1 3.6787337461038519e-03 1.0064935118927218e+01 1.8893655051815131e+01 1.7019644872198075e+01 0 0 0
1351 1 3.7816416161093472e-03 1.0094444425334320e+01 1.6344321301121418e+01 1.6984407787999636e+01 0 0 0
1352 1 1.6726754909432168e-03 1.1303926351152787e+01 1.7617817669350487e+01 1.5242083307211596e+01 0 0 0
1353 1 4.6522350431995197e-03 9.9866170218962971e+00 1.5149438238122826e+01 1.4326826350809922e+01 0 0 0
1354 1 -5.1378429668899528e-03 1.1342431568074504e+01 1.6325374691785839e+01 1.6145880556125523e+01 0 0 0
1355 1 -4.8448686276592497e-03 1.1334491882212518e+01 1.3828135854782429e+01 1.6072720989530541e+01 0 0 0
1356 1 4.5488992161166301e-03 1.2582742799928674e+01 1.5108008605525207e+01 1.4316520804650539e+01 0 0 0
1357 1 1.9089899152466064e-03 1.1334278160723223e+01 1.5205960001923112e+01 1.5242145900281722e+01 0 0 0
1358 1 2.9816278236214572e-03 1.2643736026932364e+01 1.6360613383912693e+01 1.7018096099950387e+01 0 0 0
1359 1 3.4228643256310875e-03 1.2570720032766280e+01 1.3801313107478792e+01 1.6992952214042127e+01 0 0 0
1381 1 -4.9326765412205254e-03 1.1382198942028047e+01 1.8938657025755589e+01 1.6150195859458080e+01 0 0 0
1382 1 3.3979115193401681e-03 1.2620892919263813e+01 1.8882211829679626e+01 1.6986009560704375e+01 0 0 0
1383 1 4.6457804826477069e-03 1.2560055499955562e+01 1.7634206417527679e+01 1.4339713981934223e+01 0 0 0
1558 1 1.9227701708174384e-02 7.5624857123290790e+00 1.5067576540285684e+01 1.7958610953054574e+01 0 0 0
1601 1 1.9713945679786151e-02 7.5622809207615083e+00 1.7630213899661261e+01 1.7913544920221501e+01 0 0 0
1604 1 1.8860526723549965e-02 1.0089849148958178e+01 1.7636279056037310e+01 1.7913837645294887e+01 0 0 0
1609 1 1.9508391018449117e-02 1.0070291336152170e+01 1.5074076724760097e+01 1.7906342394437047e+01 0 0 0
1612 1 1.9770880944246335e-02 1.2625195844672438e+01 1.5125164183275109e+01 1.7854191230560737e+01 0 0 0
1639 1 1.9905564134839134e-02 1.2607765862134780e+01 1.7613770861983006e+01 1.7912698041893027e+01 0 0 0
1106 1 1.0282429323821903e-03 1.3850374863828289e+01 1.3888795550102605e+01 1.2482873122863815e+01 0 0 0
1110 1 2.3830799528443453e-03 1.5106203661457355e+01 1.3906277116468864e+01 1.3453577292338171e+01 0 0 0
1128 1 1.0522755067207221e-03 1.3816181338294058e+01 1.8894750482679662e+01 1.2559284597932740e+01 0 0 0
1129 1 1.0922215487094808e-03 1.3885145993193715e+01 1.6372694201160975e+01 1.2461356682802116e+01 0 0 0
1132 1 2.3468016248248715e-03 1.5154111746570688e+01 1.8896319291608833e+01 1.3366055455906620e+01 0 0 0
1133 1 2.1449156704278329e-03 1.5104905696042573e+01 1.6368492615928073e+01 1.3354902617027124e+01 0 0 0
1136 1 1.0795558908434672e-03 1.6347603649658272e+01 1.6370478409094300e+01 1.2457449257652037e+01 0 0 0
1137 1 1.1519173502347519e-03 1.6382803118725548e+01 1.3837963806116470e+01 1.2561986074477232e+01 0 0 0
1140 1 2.1772362549225609e-03 1.7652222693507110e+01 1.6366064758534215e+01 1.3411313304599052e+01 0 0 0
1141 1 2.1447823909109334e-03 1.7661846948480473e+01 1.3869061503596665e+01 1.3492273830146020e+01 0 0 0
1144 1 1.0680645489806770e-03 1.8896812290844249e+01 1.3836032557435392e+01 1.2590847276290482e+01 0 0 0
1147 1 9.4978344303750018e-04 1.6325648850427555e+01 1.8854990954481302e+01 1.2554663723543344e+01 0 0 0
1148 1 2.3315604835562084e-03 1.7661913126696710e+01 1.8805844710775041e+01 1.3477109444154307e+01 0 0 0
1150 1 9.9932930813142898e-04 1.8890610541665250e+01 1.8875148349899916e+01 1.2539626795021086e+01 0 0 0
1151 1 9.6208159521406743e-04 1.8845412694078618e+01 1.6397351894014889e+01 1.2534293105304151e+01 0 0 0
1360 1 1.8636519405395824e-03 1.3836643888271441e+01 1.5102787981346019e+01 1.5244461850443429e+01 0 0 0
1362 1 -4.7485156854054633e-03 1.3847712826496338e+01 1.3833754035745962e+01 1.6104214118697847e+01 0 0 0
1366 1 4.0025552265581989e-03 1.5125628470899150e+01 1.3880907277900526e+01 1.7005339272320231e+01 0 0 0
1384 1 -5.5641266752634979e-03 1.3870979435700683e+01 1.8918730065420124e+01 1.6081470520105825e+01 0 0 0
1385 1 -5.3924681198926150e-03 1.3875135252321936e+01 1.6375822367586981e+01 1.6093968779451345e+01 0 0 0
1386 1 4.8215302187446726e-03 1.5106934305862731e+01 1.7611663278750008e+01 1.4316769089891487e+01 0 0 0
1387 1 2.1927163457140741e-03 1.3834852732807310e+01 1.7684790754786587e+01 1.5204728125462696e+01 0 0 0
1388 1 3.1652500937864574e-03 1.5091403383636012e+01 1.8936360129781043e+01 1.7026544248102983e+01 0 0 0
1389 1 2.9915310820864114e-03 1.5125144022441328e+01 1.6403488117582629e+01 1.7014939582254573e+01 0 0 0
1390 1 1.9974495766449628e-03 1.6356494618477054e+01 1.7593505364874975e+01 1.5246759614300130e+01 0 0 0
1391 1 4.4485119100079384e-03 1.5095354061120297e+01 1.5141287407690699e+01 1.4303147638901281e+01 0 0 0
1392 1 -4.8665445260365229e-03 1.6386122754751462e+01 1.6337378107442301e+01 1.6136033034247426e+01 0 0 0
1393 1 -4.8356638860484105e-03 1.6392907836842507e+01 1.3807525658300152e+01 1.6119255989020090e+01 0 0 0
1394 1 4.0652757345320551e-03 1.7593114221800544e+01 1.5097304779935653e+01 1.4294480582732021e+01 0 0 0
1395 1 2.0748848401266526e-03 1.6354331900967960e+01 1.5079460937155387e+01 1.5200804750431521e+01 0 0 0
1396 1 3.8916472948672836e-03 1.7637957182058578e+01 1.6324861567246028e+01 1.6998802601309126e+01 0 0 0
1397 1 3.8750213586070353e-03 1.7621097778213201e+01 1.3867268435141392e+01 1.7047804659051604e+01 0 0 0
1398 1 2.6131067813218853e-03 1.8885233544172948e+01 1.5129284378964392e+01 1.5129819360422944e+01 0 0 0
1400 1 -4.7594310187073947e-03 1.8842052533380787e+01 1.3855290202862033e+01 1.6123161028261386e+01 0 0 0
1403 1 -4.7782347713854244e-03 1.6382195580626242e+01 1.8857919072277436e+01 1.6072457776541686e+01 0 0 0
1404 1 3.2960275429619545e-03 1.7678164889790008e+01 1.8894517693892585e+01 1.7028070442683202e+01 0 0 0
1405 1 4.4878358226389473e-03 1.7654405947217455e+01 1.7577446651991867e+01 1.4343091246181872e+01 0 0 0
1406 1 -5.5072395144282645e-03 1.8935090430974640e+01 1.8906781270734029e+01 1.6096074973206640e+01 0 0 0
1407 1 -4.9730276823823907e-03 1.8893060630170908e+01 1.6336103624512319e+01 1.6136178059284845e+01 0 0 0
1408 1 1.9817364221872903e-03 1.8966422309598194e+01 1.7620548538409192e+01 1.5250105554877670e+01 0 0 0
1642 1 1.9602942453734729e-02 1.5065737213769850e+01 1.7631819950248850e+01 1.7899381379221627e+01 0 0 0
1647 1 1.8967733408590946e-02 1.5107306229507740e+01 1.5166538459290580e+01 1.7894670296901054e+01 0 0 0
1650 1 1.8643775866933377e-02 1.7634504016567327e+01 1.5085111085358591e+01 1.7938485736193453e+01 0 0 0
1661 1 1.9771151440891740e-02 1.7607431097491443e+01 1.7634969882438213e+01 1.7899859404445536e+01 0 0 0
1410 1 -9.2434282533937984e-02 2.1177374949763864e-03 3.7847189594573671e+00 2.0629910981495382e+01 0 0 0
1411 1 -8.8441937390437250e-02 2.0133571548722220e+01 1.2603808387708086e+00 2.0646458069784789e+01 -1 0 0
1412 1 -1.0592086867576126e-02 1.1948276742290040e+00 2.4647782971932841e+00 1.8820247634665353e+01 0 0 0
1414 1 -9.0313705599380837e-04 1.1780444748546284e+00 1.2237476296597076e+00 1.9740674391286170e+01 0 0 0
1416 1 -1.2145469880308877e-02 1.2247263202234957e+00 2.0111703218886294e+01 1.8830911271936781e+01 0 -1 0
1417 1 -8.0634916361814635e-02 2.4576924868491625e+00 1.3074575745606603e+00 2.0685733750623900e+01 0 0 0
1418 1 -1.1910955142289164e-02 3.7341840143554550e+00 3.7638860745655353e-03 1.8836444030481029e+01 0 0 0
1421 1 -8.9673004955817939e-02 2.0129323417468299e+01 6.2571394842408719e+00 2.0561820394032083e+01 -1 0 0
1424 1 1.9148678791477648e-03 1.2345279878589841e+00 6.2697210384696591e+00 1.9702103019527037e+01 0 0 0
1425 1 5.1201827322649223e-03 1.2731337092516513e+00 3.7515429136448613e+00 1.9693851022772431e+01 0 0 0
1427 1 -1.0245718162176544e-02 1.2461722365274805e+00 5.0263760220659490e+00 1.8793206462357553e+01 0 0 0
1428 1 -9.1317599680532047e-02 2.5363431858472709e+00 6.3072103004450435e+00 2.0635205574989417e+01 0 0 0
1429 1 -9.7606370608382176e-02 2.5339858137057192e+00 3.8186726916071128e+00 2.0553745531358558e+01 0 0 0
1430 1 -1.1299591607896913e-02 3.8042665679709500e+00 4.9752108546674059e+00 1.8787440897276543e+01 0 0 0
1432 1 4.9848282268615193e-03 3.8067956651951511e+00 3.7634537058489976e+00 1.9703988413541349e+01 0 0 0
1433 1 1.3891591366269310e-03 3.7409375969256429e+00 1.2964828396681671e+00 1.9729081317334447e+01 0 0 0
1435 1 -1.1679178723206316e-02 3.8299425938801344e+00 2.5014949386155738e+00 1.8823777796137698e+01 0 0 0
1436 1 -9.4363794604110859e-02 5.0218772720362868e+00 3.7332045274906922e+00 2.0687163488892086e+01 0 0 0
1437 1 -8.8949139847019729e-02 4.9358730840063023e+00 1.2148950561543341e+00 2.0672380485932816e+01 0 0 0
1438 1 -1.0151461229884825e-02 6.2888300269273758e+00 2.5652420609369404e+00 1.8762999941046452e+01 0 0 0
1440 1 -2.2368671187034954e-03 6.2795470839844238e+00 1.2806724361048525e+00 1.9728130636293169e+01 0 0 0
1442 1 -9.9073958417897311e-03 6.2793518996067590e+00 5.2312030156095771e-02 1.8801512000107781e+01 0 0 0
1459 1 9.4216447027839338e-04 3.8061082102875097e+00 6.3208609034656158e+00 1.9700419400059438e+01 0 0 0
1463 1 -8.0043496305359715e-02 5.0262095543473189e+00 6.3371520355691997e+00 2.0696495351663643e+01 0 0 0
1466 1 -2.6975966712388011e-03 6.3050280375791932e+00 6.3105214381377595e+00 1.9736409258390349e+01 0 0 0
1467 1 1.7803401707220075e-03 6.3125424180466592e+00 3.7839718768377208e+00 1.9728139754147875e+01 0 0 0
1469 1 -1.1268655493647771e-02 6.3556534495984298e+00 5.0803199197872679e+00 1.8849247341515913e+01 0 0 0
1665 1 2.8856485858737946e-01 2.0136118896964142e+01 2.5435463931056415e+00 2.1494766400227245e+01 -1 0 0
1666 1 3.0466577234821324e-01 2.0151695571097278e+01 1.1838541705501589e-02 2.1556132037225396e+01 -1 0 0
1667 1 2.9401188806578382e-01 2.4903589946911420e+00 1.7652642540738634e-02 2.1532093360249988e+01 0 0 0
1669 1 2.9274281996985901e-01 2.0155442499490995e+01 5.0539284462715255e+00 2.1514325195063758e+01 -1 0 0
1670 1 2.8943460183622599e-01 2.4849867179857736e+00 5.0331832478751117e+00 2.1506447731453903e+01 0 0 0
1671 1 3.0602839817705879e-01 2.5015919867992689e+00 2.5866949306076132e+00 2.1573111244570331e+01 0 0 0
1672 1 2.8893526738099434e-01 5.0392394767312529e+00 2.4847372034994173e+00 2.1481659427000569e+01 0 0 0
1673 1 3.0333564494995252e-01 5.0327667843100832e+00 2.0146583220396760e+01 2.1531577745584901e+01 0 -1 0
1680 1 2.9902257889104117e-01 5.0174990741967749e+00 4.9849093087791072e+00 2.1535180292437477e+01 0 0 0
1731 3 -2.6654265243545727e-01 1.2605547222963509e+00 0.0000000000000000e+00 2.2283669804625927e+01 0 0 0
1734 3 -2.6184468212092421e-01 1.2605547222963505e+00 5.0422188891854036e+00 2.2283669804625927e+01 0 0 0
1735 3 -2.6384853426954841e-01 1.2605547222963509e+00 2.5211094445927018e+00 2.2283669804625927e+01 0 0 0
1736 3 -2.6050816385624825e-01 3.7816641668890529e+00 2.5211094445927014e+00 2.2283669804625927e+01 0 0 0
1737 3 -2.5954663821332852e-01 3.7816641668890529e+00 0.0000000000000000e+00 2.2283669804625927e+01 0 0 0
1738 3 -2.5775538256441199e-01 6.3027736114817543e+00 0.0000000000000000e+00 2.2283669804625927e+01 0 0 0
1744 3 -2.5898681759260622e-01 3.7816641668890529e+00 5.0422188891854036e+00 2.2283669804625927e+01 0 0 0
1745 3 -2.6222545397499714e-01 6.3027736114817543e+00 5.0422188891854036e+00 2.2283669804625927e+01 0 0 0
1746 3 -2.6250347087009673e-01 6.3027736114817552e+00 2.5211094445927018e+00 2.2283669804625927e+01 0 0 0
1443 1 -8.3579861886915310e-02 7.5196621655733598e+00 1.2651360039761224e+00 2.0579215205977075e+01 0 0 0
1444 1 -1.0574583896612748e-02 8.7552994013535947e+00 2.5836732404626320e-02 1.8765533086819115e+01 0 0 0
1470 1 -7.9597339052918367e-02 7.5609056622615416e+00 6.3174450896945453e+00 2.0616967852249335e+01 0 0 0
1471 1 -9.7225936613963101e-02 7.5206917952444137e+00 3.7820885751280167e+00 2.0615843626950486e+01 0 0 0
1472 1 -1.0604532050338900e-02 8.8155992898870217e+00 5.0929024127888587e+00 1.8766912342018916e+01 0 0 0
1474 1 4.1681888253477569e-03 8.7681456765594508e+00 3.8053607418162247e+00 1.9662298520432209e+01 0 0 0
1475 1 3.7558417549259713e-03 8.7781390368354941e+00 1.3062607158058237e+00 1.9744675401541080e+01 0 0 0
1477 1 -1.1101547180328087e-02 8.7865867760038956e+00 2.5740733573288495e+00 1.8823101501614222e+01 0 0 0
1478 1 -9.5313139687832851e-02 1.0064944598035048e+01 3.7870107836618963e+00 2.0565220473705015e+01 0 0 0
1479 1 -9.1025110360362455e-02 1.0048309056889089e+01 1.2273922648498092e+00 2.0541576791426465e+01 0 0 0
1480 1 -1.0932001976151325e-02 1.1330419165363162e+01 2.5226955041819754e+00 1.8757153805535324e+01 0 0 0
1482 1 2.4333087334264757e-03 1.1325025423446208e+01 1.2311410021441496e+00 1.9690814538884716e+01 0 0 0
1484 1 -9.5413476210858238e-03 1.1277362040482963e+01 2.0120811134009212e+01 1.8812608520849672e+01 0 -1 0
1485 1 -9.7226526374292271e-02 1.2578086813397423e+01 1.2587665340063219e+00 2.0616680921396402e+01 0 0 0
1517 1 -1.2732677634240150e-03 8.8055199702946485e+00 6.2985295069125193e+00 1.9752985266149050e+01 0 0 0
1521 1 -8.1431356533848170e-02 1.0070189971568032e+01 6.3328833707152929e+00 2.0641091492127902e+01 0 0 0
1524 1 2.4486434683174008e-03 1.1307520703231715e+01 6.2792320051122275e+00 1.9714398681361704e+01 0 0 0
1525 1 2.1778116466479465e-03 1.1331446166659360e+01 3.8191430834316829e+00 1.9713393491397792e+01 0 0 0
1527 1 -1.1800522584926931e-02 1.1377056341310363e+01 5.0409437806696467e+00 1.8833998849040604e+01 0 0 0
1528 1 -1.0072153848351088e-01 1.2594058187878145e+01 6.2464202660363348e+00 2.0642503322717769e+01 0 0 0
1529 1 -8.3528799726100375e-02 1.2570311551065560e+01 3.7931881968855197e+00 2.0640564683974905e+01 0 0 0
1674 1 2.8083456949607505e-01 7.5411416219528933e+00 2.0127663228382954e+01 2.1481105286546089e+01 0 -1 0
1681 1 2.9309700863628158e-01 7.5308578651565794e+00 4.9915790523508941e+00 2.1523788771134143e+01 0 0 0
1682 1 2.9715307694629078e-01 7.5284513504690089e+00 2.5256771612727902e+00 2.1546529899605801e+01 0 0 0
1683 1 2.8085177865189326e-01 1.0046087485572606e+01 2.5189236023554757e+00 2.1480662814601729e+01 0 0 0
1684 1 2.6953893262102990e-01 1.0093618910679806e+01 2.1101606700266218e-02 2.1418174884258942e+01 0 0 0
1685 1 2.9895018260368805e-01 1.2589818895706896e+01 5.1973772728670098e-02 2.1550577334029388e+01 0 0 0
1695 1 2.7826643916827176e-01 1.0083710288326186e+01 4.9890704593551432e+00 2.1461391939957590e+01 0 0 0
1696 1 2.9645867181917684e-01 1.2613349100948474e+01 5.0865833792850212e+00 2.1514801437026279e+01 0 0 0
1697 1 2.6963480719575333e-01 1.2551727597446746e+01 2.5117514796039138e+00 2.1437878053135925e+01 0 0 0
1747 3 -2.5907713608540567e-01 8.8238830560744557e+00 2.5211094445927018e+00 2.2283669804625927e+01 0 0 0
1748 3 -2.3359444955299757e-01 8.8238830560744557e+00 0.0000000000000000e+00 2.2283669804625927e+01 0 0 0
1749 3 -2.5443541738345260e-01 1.1344992500667157e+01 0.0000000000000000e+00 2.2283669804625927e+01 0 0 0
1759 3 -2.4740724634100708e-01 8.8238830560744557e+00 5.0422188891854027e+00 2.2283669804625927e+01 0 0 0
1760 3 -2.4684134675077141e-01 1.1344992500667159e+01 5.0422188891854045e+00 2.2283669804625927e+01 0 0 0
1761 3 -2.4072484603755856e-01 1.1344992500667157e+01 2.5211094445927014e+00 2.2283669804625927e+01 0 0 0
1486 1 -1.1459702882265856e-02 1.3885549670608873e+01 2.0138220480616980e+01 1.8820215966004202e+01 0 -1 0
1530 1 -1.0201597440912967e-02 1.3845578461463434e+01 4.9966217891454061e+00 1.8785518347610402e+01 0 0 0
1532 1 1.7861218035597627e-03 1.3825070089218888e+01 3.8349401445362918e+00 1.9679582347243894e+01 0 0 0
1533 1 -1.8517975930417059e-04 1.3840903707217070e+01 1.2700038276002796e+00 1.9671626726333258e+01 0 0 0
1535 1 -1.1670787204967488e-02 1.3819582314210050e+01 2.4825218431472957e+00 1.8776652704226741e+01 0 0 0
1536 1 -9.4075491714730133e-02 1.5057564997951967e+01 3.8224801677417060e+00 2.0572379439755064e+01 0 0 0
1537 1 -7.9089601563201828e-02 1.5098946703463820e+01 1.2586713892644146e+00 2.0596968789172951e+01 0 0 0
1538 1 -1.1912343564726407e-02 1.6379341306113798e+01 2.4333364330657030e+00 1.8850160090459703e+01 0 0 0
1540 1 4.7782236615719785e-03 1.6401227903230851e+01 1.2400995673835777e+00 1.9718704071243490e+01 0 0 0
1542 1 -1.0076794579710210e-02 1.6423830442429690e+01 2.0157274674403030e+01 1.8780379638379859e+01 0 -1 0
1543 1 -8.9464168204030664e-02 1.7632642693487906e+01 1.2642646343798374e+00 2.0575176699397133e+01 0 0 0
1544 1 -1.1053816571404834e-02 1.8947051063232777e+01 2.0121549188743970e+01 1.8778307130255882e+01 0 -1 0
1581 1 3.9709354397357548e-03 1.3857382766291185e+01 6.2730193220017343e+00 1.9706132853463959e+01 0 0 0
1585 1 -9.0415882732422237e-02 1.5068892872126467e+01 6.3222282883420560e+00 2.0602173493933584e+01 0 0 0
1588 1 1.4794122782335990e-03 1.6363213421380088e+01 6.2723713057886448e+00 1.9709629349987161e+01 0 0 0
1589 1 4.3260378055424422e-03 1.6360568102078972e+01 3.8187682349250811e+00 1.9698101978036167e+01 0 0 0
1591 1 -9.1634787499555205e-03 1.6364225533552936e+01 5.0697665534382175e+00 1.8803247372769608e+01 0 0 0
1592 1 -8.6940734834631009e-02 1.7626895785838528e+01 6.2736326960951745e+00 2.0608349483693502e+01 0 0 0
1593 1 -9.5749210948761182e-02 1.7643154054611941e+01 3.7981304792984054e+00 2.0588336722407906e+01 0 0 0
1594 1 -1.0491302307099598e-02 1.8955323118988741e+01 4.9996680545387768e+00 1.8794098003573449e+01 0 0 0
1596 1 2.9215895244882220e-03 1.8935977669457280e+01 3.7826809896953590e+00 1.9726972740204964e+01 0 0 0
1597 1 2.0583437609697302e-03 1.8914858750158945e+01 1.2976307325014185e+00 1.9729306065390240e+01 0 0 0
1598 1 -1.1656602565541815e-02 1.8904341393020903e+01 2.4946825231263525e+00 1.8799305776906571e+01 0 0 0
1635 1 3.3536625835462459e-03 1.8878636464046846e+01 6.2443020915607459e+00 1.9724246392944156e+01 0 0 0
1698 1 2.8405607357951890e-01 1.5054270785407853e+01 2.5878321097403383e+00 2.1492535645617700e+01 0 0 0
1699 1 2.7215845161446817e-01 1.5074479706288244e+01 2.0165648585085005e+01 2.1433013612501878e+01 0 -1 0
1700 1 2.8551536979864905e-01 1.7693054049913261e+01 1.8435317727167038e-02 2.1493321622706258e+01 0 0 0
1711 1 2.9494669747475505e-01 1.5073417388210064e+01 5.0645109271709821e+00 2.1526425090315023e+01 0 0 0
1712 1 2.9497225725359294e-01 1.7666264007229817e+01 4.9915600096029102e+00 2.1515670365700686e+01 0 0 0
1713 1 2.8261446673942381e-01 1.7636480850204777e+01 2.5146578074413544e+00 2.1489734612263973e+01 0 0 0
1729 3 -2.5321001189205289e-01 1.8908320834445263e+01 2.5211094445927018e+00 2.2283669804625927e+01 -1 0 0
1730 3 -2.6948413641844060e-01 1.8908320834445263e+01 0.0000000000000000e+00 2.2283669804625927e+01 -1 0 0
1733 3 -2.6116597552323406e-01 1.8908320834445263e+01 5.0422188891854036e+00 2.2283669804625927e+01 -1 0 0
1762 3 -2.4473686178964507e-01 1.3866101945259860e+01 2.5211094445927031e+00 2.2283669804625927e+01 0 0 0
1763 3 -2.5447570721542273e-01 1.3866101945259858e+01 0.0000000000000000e+00 2.2283669804625927e+01 0 0 0
1764 3 -2.3559793594463996e-01 1.6387211389852563e+01 0.0000000000000000e+00 2.2283669804625927e+01 0 0 0
1775 3 -2.6842443360500345e-01 1.3866101945259860e+01 5.0422188891854036e+00 2.2283669804625927e+01 0 0 0
1776 3 -2.5505714838462940e-01 1.6387211389852560e+01 5.0422188891854027e+00 2.2283669804625927e+01 0 0 0
1777 3 -2.4434908830928362e-01 1.6387211389852560e+01 2.5211094445927023e+00 2.2283669804625927e+01 0 0 0
1420 1 -8.4158552702138040e-02 1.6352536991791931e-02 8.7880421558432982e+00 2.0597177573994824e+01 0 0 0
1422 1 -1.0734671326197659e-02 1.2467880137311416e+00 7.5463876272854256e+00 1.8790449241291000e+01 0 0 0
1447 1 -1.0354061893770929e-01 2.0124625749678838e+01 1.1315254076828213e+01 2.0634579554560062e+01 -1 0 0
1448 1 -1.0987084989767941e-02 1.2198622129015206e+00 1.2589847250623906e+01 1.8826954315591681e+01 0 0 0
1450 1 5.7351697941741787e-03 1.2013195231289679e+00 1.1343895643809725e+01 1.9724077616068183e+01 0 0 0
1451 1 2.6386606248582577e-03 1.2607211051328229e+00 8.7643893508852635e+00 1.9730814789451813e+01 0 0 0
1453 1 -1.1692887381232045e-02 1.1995047816215847e+00 1.0126597472203255e+01 1.8822980714819167e+01 0 0 0
1454 1 -8.7155052696454183e-02 2.4282253487275880e+00 1.1338210846678674e+01 2.0610753882786813e+01 0 0 0
1455 1 -9.3359715156353842e-02 2.5255874625997179e+00 8.7788560281959747e+00 2.0618518847033378e+01 0 0 0
1456 1 -1.1152535951418548e-02 3.7190760747378881e+00 1.0058501998842745e+01 1.8814869348358705e+01 0 0 0
1458 1 5.3221700288909298e-03 3.7918501454376994e+00 8.7947643939574789e+00 1.9707046557366283e+01 0 0 0
1461 1 -1.1064650718519590e-02 3.7642234575129092e+00 7.5005569133603753e+00 1.8826559000456768e+01 0 0 0
1462 1 -9.8973039294587395e-02 5.0102399956305641e+00 8.8216820335581314e+00 2.0637554825479992e+01 0 0 0
1464 1 -1.0270384430587514e-02 6.3021491907967686e+00 7.6090803776977101e+00 1.8818214620771691e+01 0 0 0
1501 1 -9.7927112366502406e-04 3.7040807576001944e+00 1.1282245591796874e+01 1.9747159365679671e+01 0 0 0
1503 1 -1.1274542553667794e-02 3.7375015382111489e+00 1.2597344249935746e+01 1.8810548328627199e+01 0 0 0
1505 1 -8.3992496945174744e-02 4.9754915955139154e+00 1.1286547353134065e+01 2.0640942058923333e+01 0 0 0
1506 1 -1.0494705687759003e-02 6.2451424799554935e+00 1.2591913715304811e+01 1.8789714135832334e+01 0 0 0
1508 1 -2.9922001707592650e-04 6.2495869481305322e+00 1.1343488459353610e+01 1.9719584706111103e+01 0 0 0
1509 1 1.8847030386487634e-03 6.3281162270018632e+00 8.7920085491237039e+00 1.9684703837531231e+01 0 0 0
1511 1 -8.6680711385262385e-03 6.2705950996235362e+00 1.0101008803945390e+01 1.8788680502806763e+01 0 0 0
1668 1 2.9042610573956440e-01 2.0136787137992858e+01 7.5782102810745640e+00 2.1521086893476774e+01 -1 0 0
1675 1 3.0458560241889904e-01 2.0117642883520546e+01 1.2553083414376884e+01 2.1566173121853097e+01 -1 0 0
1676 1 2.9142668657530513e-01 2.0088807583142128e+01 1.0144802281534798e+01 2.1519009563069027e+01 -1 0 0
1677 1 2.8971757192677272e-01 2.4265668595127274e+00 1.0015201237914132e+01 2.1497748573564976e+01 0 0 0
1678 1 2.9000296272507664e-01 2.5180893445041610e+00 7.5220444249512122e+00 2.1485221592875220e+01 0 0 0
1679 1 3.0539685598378291e-01 5.0476928308980931e+00 7.5667882284550076e+00 2.1561043131935225e+01 0 0 0
1689 1 2.8932958702047651e-01 2.4832504430951192e+00 1.2560487409957044e+01 2.1497826784190895e+01 0 0 0
1690 1 2.8078089515102195e-01 4.9765060519949493e+00 1.2576783451030451e+01 2.1464280294534049e+01 0 0 0
1691 1 3.0407572995840315e-01 4.9379925274555427e+00 1.0022419813086618e+01 2.1552231977730109e+01 0 0 0
1741 3 -2.5740182054725891e-01 1.2605547222963509e+00 1.0084437778370807e+01 2.2283669804625927e+01 0 0 0
1742 3 -2.5046450138635579e-01 1.2605547222963509e+00 7.5633283337781059e+00 2.2283669804625927e+01 0 0 0
1743 3 -2.6123158127071805e-01 3.7816641668890529e+00 7.5633283337781050e+00 2.2283669804625927e+01 0 0 0
1753 3 -2.6029774146043821e-01 1.2605547222963505e+00 1.2605547222963509e+01 2.2283669804625927e+01 0 0 0
1754 3 -2.4862012016496784e-01 3.7816641668890538e+00 1.2605547222963510e+01 2.2283669804625927e+01 0 0 0
1755 3 -2.6397202030427219e-01 3.7816641668890520e+00 1.0084437778370807e+01 2.2283669804625927e+01 0 0 0
1756 3 -2.5940360727481526e-01 6.3027736114817561e+00 1.0084437778370809e+01 2.2283669804625927e+01 0 0 0
1757 3 -2.6353692964226066e-01 6.3027736114817543e+00 7.5633283337781050e+00 2.2283669804625927e+01 0 0 0
1769 3 -2.4607633672034693e-01 6.3027736114817552e+00 1.2605547222963509e+01 2.2283669804625927e+01 0 0 0
1512 1 -8.1885844321849588e-02 7.5384819247766561e+00 1.1355544078993248e+01 2.0591344077338778e+01 0 0 0
1513 1 -9.2366871015213459e-02 7.5853572715554796e+00 8.8369780910400397e+00 2.0639779997220689e+01 0 0 0
1514 1 -1.0142177408632607e-02 8.7993307830007677e+00 1.0074621722594813e+01 1.8764232260984315e+01 0 0 0
1516 1 1.8120596009571055e-03 8.8650947715255732e+00 8.8490878498275798e+00 1.9694067767177600e+01 0 0 0
1519 1 -1.1926594184670191e-02 8.8216328439313116e+00 7.5766915686090694e+00 1.8779059147615861e+01 0 0 0
1520 1 -8.9694034030920272e-02 1.0099395871015400e+01 8.8741100644094217e+00 2.0606347845595003e+01 0 0 0
1522 1 -1.1667243976684985e-02 1.1329331987275530e+01 7.5261563472207449e+00 1.8822100641881296e+01 0 0 0
1565 1 6.0655679735591584e-04 8.8031104246612628e+00 1.1369734771868039e+01 1.9704243675613132e+01 0 0 0
1567 1 -1.0485705913174761e-02 8.8103387634858237e+00 1.2572264862672503e+01 1.8792918020585034e+01 0 0 0
1569 1 -8.4413011873054444e-02 1.0045291306542921e+01 1.1351667523299307e+01 2.0672083428804751e+01 0 0 0
1570 1 -1.1654758147049549e-02 1.1336588241168062e+01 1.2591983270991003e+01 1.8793835220492372e+01 0 0 0
1572 1 6.4510985144152128e-04 1.1312027340385137e+01 1.1309439565807653e+01 1.9710290987234895e+01 0 0 0
1573 1 3.6459944887253211e-03 1.1353604020228596e+01 8.7841326643137929e+00 1.9714955445427009e+01 0 0 0
1575 1 -1.1085908613701371e-02 1.1340187755331717e+01 1.0053405329606115e+01 1.8810911370591011e+01 0 0 0
1576 1 -8.9157358005063719e-02 1.2582518507507910e+01 1.1362691505100109e+01 2.0574528834823454e+01 0 0 0
1577 1 -8.1509552578255887e-02 1.2619296946988433e+01 8.8402386780019118e+00 2.0595948358357536e+01 0 0 0
1692 1 2.9392438873812538e-01 7.5076133676831809e+00 1.0080382557522350e+01 2.1508155189909868e+01 0 0 0
1693 1 2.8812490514227485e-01 7.5690682606108348e+00 7.5776203291405277e+00 2.1494539078975041e+01 0 0 0
1694 1 2.8572342998677119e-01 1.0051785505885144e+01 7.5640140638821558e+00 2.1492552755945010e+01 0 0 0
1705 1 2.8610183835070768e-01 7.4889089542400589e+00 1.2642539905352441e+01 2.1486213568194053e+01 0 0 0
1706 1 2.8981750394116862e-01 1.0018102782298001e+01 1.2640960169315436e+01 2.1501027217357453e+01 0 0 0
1707 1 2.9918929379573733e-01 1.0099458346806530e+01 1.0090225911707739e+01 2.1532622418331556e+01 0 0 0
1708 1 2.9105215049738936e-01 1.2637194004566567e+01 1.0093377582968142e+01 2.1509388229690543e+01 0 0 0
1709 1 2.9228787319429245e-01 1.2661863764932606e+01 7.5195212798048026e+00 2.1521366837675732e+01 0 0 0
1718 1 2.7038686986912397e-01 1.2572651490099084e+01 1.2618767554197756e+01 2.1441864783756852e+01 0 0 0
1758 3 -2.5125249139718464e-01 8.8238830560744574e+00 7.5633283337781068e+00 2.2283669804625927e+01 0 0 0
1770 3 -2.5172514400075935e-01 8.8238830560744539e+00 1.2605547222963509e+01 2.2283669804625927e+01 0 0 0
1771 3 -2.5343489955909793e-01 8.8238830560744557e+00 1.0084437778370807e+01 2.2283669804625927e+01 0 0 0
1772 3 -2.5712385034124130e-01 1.1344992500667157e+01 1.0084437778370805e+01 2.2283669804625927e+01 0 0 0
1773 3 -2.4686546059611131e-01 1.1344992500667157e+01 7.5633283337781059e+00 2.2283669804625927e+01 0 0 0
1782 3 -2.3961441314509888e-01 1.1344992500667157e+01 1.2605547222963509e+01 2.2283669804625927e+01 0 0 0
1578 1 -1.2237640670120625e-02 1.3833681925562828e+01 1.0067094645898861e+01 1.8863314497605245e+01 0 0 0
1580 1 -4.7409686963189088e-04 1.3932790580486705e+01 8.8057129259261284e+00 1.9763086579167954e+01 0 0 0
1583 1 -1.1013328485369622e-02 1.3869670002225677e+01 7.5266557217280035e+00 1.8797774668819777e+01 0 0 0
1584 1 -8.6179279261136582e-02 1.5137681217326820e+01 8.7839603367630144e+00 2.0676550929901641e+01 0 0 0
1586 1 -1.0371485364831210e-02 1.6340792403871564e+01 7.5273658748860761e+00 1.8801320898404242e+01 0 0 0
1619 1 1.4989481773375172e-03 1.3826528353691936e+01 1.1385455887027984e+01 1.9674020646275757e+01 0 0 0
1621 1 -1.1370721923487117e-02 1.3804268485511090e+01 1.2630233528091168e+01 1.8830389001492442e+01 0 0 0
1623 1 -9.2280615696438265e-02 1.5108170659441832e+01 1.1347169576384681e+01 2.0593616301046019e+01 0 0 0
1624 1 -1.2436931905319049e-02 1.6329180539951277e+01 1.2602539810899787e+01 1.8842506702425059e+01 0 0 0
1626 1 1.8567897506792141e-03 1.6370465565692150e+01 1.1321516374235284e+01 1.9754816521870300e+01 0 0 0
1627 1 -3.3457663743368467e-03 1.6374907301299654e+01 8.7906684779981017e+00 1.9668504686467728e+01 0 0 0
1629 1 -1.0408662315235571e-02 1.6373837409911506e+01 1.0010696592169975e+01 1.8795617284920407e+01 0 0 0
1630 1 -7.5103437968246076e-02 1.7618300125657996e+01 1.1359309027395810e+01 2.0610384445567721e+01 0 0 0
1631 1 -9.1558070280097700e-02 1.7678472365418564e+01 8.7909416142588253e+00 2.0633933538069410e+01 0 0 0
1632 1 -1.1061182646780132e-02 1.8898694807115024e+01 1.0117062182503687e+01 1.8831578284899862e+01 0 0 0
1634 1 7.3892527117105564e-04 1.8876872854199100e+01 8.8336085208431143e+00 1.9709605965741400e+01 0 0 0
1636 1 -1.0409542083380376e-02 1.8864520927055246e+01 7.5674841115478131e+00 1.8779753561611024e+01 0 0 0
1657 1 -1.0082291954335050e-04 1.8845794404398283e+01 1.1380330417292626e+01 1.9692600910775056e+01 0 0 0
1658 1 -1.0192192513061958e-02 1.8869344004242546e+01 1.2629586195246519e+01 1.8762238085018343e+01 0 0 0
1710 1 2.9368754876566527e-01 1.5181216422205685e+01 7.5810973110911757e+00 2.1515667541241029e+01 0 0 0
1719 1 2.8570871145817495e-01 1.5084212746250454e+01 1.2631271316620461e+01 2.1499934127431807e+01 0 0 0
1720 1 2.9318694680436275e-01 1.5109429782548453e+01 1.0130247969511919e+01 2.1527565238251807e+01 0 0 0
1721 1 2.8914102341082770e-01 1.7642981554309788e+01 1.0038786787608327e+01 2.1504557390710588e+01 0 0 0
1722 1 2.8528855173175410e-01 1.7606900160751248e+01 7.5360456735439492e+00 2.1488197780698922e+01 0 0 0
1727 1 2.9464844933108225e-01 1.7655624834077145e+01 1.2691090233598784e+01 2.1531015741064145e+01 0 0 0
1732 3 -2.5291246354920605e-01 1.8908320834445263e+01 7.5633283337781050e+00 2.2283669804625927e+01 -1 0 0
1739 3 -2.7465547135218366e-01 1.8908320834445263e+01 1.2605547222963509e+01 2.2283669804625927e+01 -1 0 0
1740 3 -2.6361183784430398e-01 1.8908320834445263e+01 1.0084437778370807e+01 2.2283669804625927e+01 -1 0 0
1774 3 -2.6024353633400715e-01 1.3866101945259858e+01 7.5633283337781041e+00 2.2283669804625927e+01 0 0 0
1783 3 -2.4412486858602450e-01 1.3866101945259860e+01 1.2605547222963509e+01 2.2283669804625927e+01 0 0 0
1784 3 -2.6250336359407828e-01 1.3866101945259858e+01 1.0084437778370807e+01 2.2283669804625927e+01 0 0 0
1785 3 -2.5363855556547543e-01 1.6387211389852560e+01 1.0084437778370807e+01 2.2283669804625927e+01 0 0 0
1786 3 -2.6105058430954214e-01 1.6387211389852560e+01 7.5633283337781050e+00 2.2283669804625927e+01 0 0 0
1791 3 -2.4987473804801538e-01 1.6387211389852560e+01 1.2605547222963509e+01 2.2283669804625927e+01 0 0 0
1446 1 -8.2254047155063875e-02 2.0143560314330973e+01 1.3859363381971789e+01 2.0598932072571827e+01 -1 0 0
1488 1 -8.9357203107205546e-02 2.0067195832435662e+01 1.8870288777214089e+01 2.0684300382369308e+01 -1 0 0
1489 1 -8.7545743213432947e-02 2.0147695543293516e+01 1.6385113665822754e+01 2.0597860215242751e+01 -1 0 0
1490 1 -1.0479729798364402e-02 1.2643507889360919e+00 1.7663177970035846e+01 1.8808115273309870e+01 0 0 0
1492 1 3.0450378498779345e-03 1.2564728698820702e+00 1.6408349196467597e+01 1.9665997421928274e+01 0 0 0
1493 1 6.4717048777012363e-04 1.2608316910335231e+00 1.3850831874784985e+01 1.9745554039914552e+01 0 0 0
1495 1 -1.2052258923311255e-02 1.3171089701747767e+00 1.5134442542494032e+01 1.8810576503398551e+01 0 0 0
1496 1 -9.0040097528233429e-02 2.4664926587338876e+00 1.6368940286875681e+01 2.0605091629307552e+01 0 0 0
1497 1 -8.4753880244963234e-02 2.4475701911693877e+00 1.3862253929284963e+01 2.0686279496168474e+01 0 0 0
1498 1 -1.1152998387509936e-02 3.7816970019014304e+00 1.5101807305135692e+01 1.8809731921073666e+01 0 0 0
1500 1 -2.9904348386889305e-03 3.7236292640920774e+00 1.3809468830398172e+01 1.9708762114522866e+01 0 0 0
1504 1 -9.1594884110616989e-02 5.0016053278306387e+00 1.3739034437295025e+01 2.0630594792362832e+01 0 0 0
1545 1 -2.3744024977601272e-03 1.2934995864583316e+00 1.8904468476421112e+01 1.9728742171099594e+01 0 0 0
1546 1 -8.6895122564876123e-02 2.5281135750773189e+00 1.8830509365671901e+01 2.0586807303202349e+01 0 0 0
1548 1 4.5044603038498455e-03 3.7998860110839501e+00 1.8873170883850310e+01 1.9709980392875316e+01 0 0 0
1549 1 1.1122613092899073e-04 3.7361815742857458e+00 1.6320637223439196e+01 1.9712155534658187e+01 0 0 0
1551 1 -1.1163032117973565e-02 3.7674418307043598e+00 1.7645589933901775e+01 1.8801497365398898e+01 0 0 0
1552 1 -9.5600106963737316e-02 5.0171738364352976e+00 1.8971566043646437e+01 2.0644917771317285e+01 0 0 0
1553 1 -8.4577111867704044e-02 4.9990858780394039e+00 1.6389922140342772e+01 2.0636677260552375e+01 0 0 0
1554 1 -1.1289584904074003e-02 6.2599641767651573e+00 1.7663124723613965e+01 1.8810303707159470e+01 0 0 0
1556 1 2.4139169374780521e-03 6.2757793039123504e+00 1.6405627306321087e+01 1.9727864445897069e+01 0 0 0
1557 1 3.4679470420390310e-03 6.2390210329557183e+00 1.3848372437572332e+01 1.9712776585488928e+01 0 0 0
1559 1 -1.1836863364658083e-02 6.2505441935032593e+00 1.5136265998495656e+01 1.8815964639933092e+01 0 0 0
1599 1 1.4305239410848597e-03 6.2794402383443018e+00 1.8957319817424349e+01 1.9706242244632612e+01 0 0 0
1686 1 2.9855552262485152e-01 2.0165190565186506e+01 1.7653224855943822e+01 2.1520209036200050e+01 -1 0 0
1687 1 2.8602011282480705e-01 2.2870736907555790e-02 1.5130812690170989e+01 2.1491685084721183e+01 0 0 0
1688 1 3.0097557724773827e-01 2.4886168214381486e+00 1.5115903570908333e+01 2.1543447069712879e+01 0 0 0
1701 1 2.8656890671125151e-01 2.5336106449750133e+00 1.7638788532930448e+01 2.1490830410226966e+01 0 0 0
1702 1 2.8726265336108592e-01 5.0385814098709512e+00 1.7663203150264028e+01 2.1505837741922360e+01 0 0 0
1703 1 2.9938113792972132e-01 4.9851275530107451e+00 1.5093509620535521e+01 2.1552985500624871e+01 0 0 0
1752 3 -2.6164967729573640e-01 1.2605547222963522e+00 1.5126656667556212e+01 2.2283669804625927e+01 0 0 0
1765 3 -2.5422291602272373e-01 1.2605547222963513e+00 1.7647766112148911e+01 2.2283669804625927e+01 0 0 0
1766 3 -2.5399823297929702e-01 3.7816641668890520e+00 1.7647766112148911e+01 2.2283669804625927e+01 0 0 0
1767 3 -2.6955062803867591e-01 3.7816641668890529e+00 1.5126656667556212e+01 2.2283669804625927e+01 0 0 0
1768 3 -2.5739048333453279e-01 6.3027736114817534e+00 1.5126656667556210e+01 2.2283669804625927e+01 0 0 0
1778 3 -2.5429403863461308e-01 6.3027736114817543e+00 1.7647766112148911e+01 2.2283669804625927e+01 0 0 0
1560 1 -9.5575190477990263e-02 7.5333938458524248e+00 1.6410969717016698e+01 2.0561041013414449e+01 0 0 0
1561 1 -9.2744829619351987e-02 7.4852229350326684e+00 1.3822976025433913e+01 2.0594125207128819e+01 0 0 0
1562 1 -1.1538014383039670e-02 8.8442803101987675e+00 1.5078177512602633e+01 1.8809638058172361e+01 0 0 0
1564 1 4.8991709598404328e-04 8.7717214354038280e+00 1.3846217553760535e+01 1.9729522272531170e+01 0 0 0
1568 1 -9.0026227349230312e-02 1.0043408327383069e+01 1.3822527049309238e+01 2.0627129557047105e+01 0 0 0
1600 1 -8.7367184768480030e-02 7.5177205385439745e+00 1.8913214682517150e+01 2.0609702108834487e+01 0 0 0
1602 1 2.1891085985374695e-03 8.8145395588577582e+00 1.8938312689631090e+01 1.9699427070705056e+01 0 0 0
1603 1 3.0438657524352710e-03 8.8516371151720232e+00 1.6415044633608769e+01 1.9683130843143346e+01 0 0 0
1605 1 -1.0339784399831468e-02 8.7846172804986953e+00 1.7640913942934212e+01 1.8732166855863458e+01 0 0 0
1606 1 -9.3696454859581474e-02 1.0053030789843872e+01 1.8934541652288225e+01 2.0620569425063707e+01 0 0 0
1607 1 -8.6882687983942108e-02 1.0093299486068723e+01 1.6417176510995453e+01 2.0596290151472882e+01 0 0 0
1608 1 -9.9197454924252557e-03 1.1354096159993363e+01 1.7633083436537454e+01 1.8780011750911601e+01 0 0 0
1610 1 3.1859041345177041e-03 1.1349283333877926e+01 1.6399435996070213e+01 1.9721152555253973e+01 0 0 0
1611 1 1.1630649636099951e-03 1.1298067982473709e+01 1.3924853292301567e+01 1.9731590597967969e+01 0 0 0
1613 1 -1.0194311942841665e-02 1.1320232557112545e+01 1.5109856752826442e+01 1.8789124535438333e+01 0 0 0
1614 1 -9.4215691729295392e-02 1.2610062783417840e+01 1.6380733666778063e+01 2.0545760987054898e+01 0 0 0
1615 1 -7.9991564140997326e-02 1.2543887962504227e+01 1.3911277412744987e+01 2.0602997704812058e+01 0 0 0
1637 1 3.8788195206885796e-04 1.1318550116661125e+01 1.8872141057981349e+01 1.9674773218665148e+01 0 0 0
1638 1 -8.8384639406682536e-02 1.2585161746801457e+01 1.8935210999394389e+01 2.0621295932301077e+01 0 0 0
1704 1 2.8237293136139940e-01 7.5192069741308796e+00 1.5134572232120110e+01 2.1488337803356032e+01 0 0 0
1714 1 2.8509713587323388e-01 7.5444469098573572e+00 1.7593864708732958e+01 2.1485748720298510e+01 0 0 0
1715 1 2.9880259197089731e-01 1.0121989807023255e+01 1.7717404641380369e+01 2.1530690447508562e+01 0 0 0
1716 1 2.8481304977638167e-01 1.0054939905088874e+01 1.5155052492146748e+01 2.1499357558407084e+01 0 0 0
1717 1 2.8983724558078650e-01 1.2563136458144589e+01 1.5193820690333865e+01 2.1514070535219773e+01 0 0 0
1723 1 2.9523348799901511e-01 1.2588650636044651e+01 1.7678648900442418e+01 2.1545366630671687e+01 0 0 0
1779 3 -2.4871486368132090e-01 8.8238830560744557e+00 1.7647766112148911e+01 2.2283669804625927e+01 0 0 0
1780 3 -2.5043852979178233e-01 8.8238830560744557e+00 1.5126656667556210e+01 2.2283669804625927e+01 0 0 0
1781 3 -2.5618769365272759e-01 1.1344992500667157e+01 1.5126656667556212e+01 2.2283669804625927e+01 0 0 0
1787 3 -2.7326939102961856e-01 1.1344992500667157e+01 1.7647766112148911e+01 2.2283669804625927e+01 0 0 0
1616 1 -1.0832475061965616e-02 1.3836980415409618e+01 1.5131730269121695e+01 1.8780090168288748e+01 0 0 0
1618 1 -4.2707507812625757e-03 1.3826800013533685e+01 1.3897005511493637e+01 1.9737538665782477e+01 0 0 0
1622 1 -7.6397413223352764e-02 1.5150735854793444e+01 1.3877181422535042e+01 2.0606119658969476e+01 0 0 0
1640 1 8.9440731100499295e-03 1.3855166143015209e+01 1.8909339205536309e+01 1.9707340758469400e+01 0 0 0
1641 1 5.0697768435745789e-03 1.3832428317730377e+01 1.6411489807659507e+01 1.9675359691269289e+01 0 0 0
1643 1 -1.1204758558548952e-02 1.3866333119810252e+01 1.7650656126188210e+01 1.8795511884672059e+01 0 0 0
1644 1 -1.0131598017801963e-01 1.5067464832030163e+01 1.8947546955731202e+01 2.0514427119576116e+01 0 0 0
1645 1 -9.3036275853669040e-02 1.5127031606159010e+01 1.6451753149109813e+01 2.0634085951852335e+01 0 0 0
1646 1 -1.0727911827716968e-02 1.6395770965018595e+01 1.7644378817538438e+01 1.8798350332261204e+01 0 0 0
1648 1 -1.1850726766879970e-03 1.6421806471915684e+01 1.6405937713006200e+01 1.9727261921813515e+01 0 0 0
1649 1 2.6181125879504584e-03 1.6368683349441454e+01 1.3874643258021935e+01 1.9681799235292001e+01 0 0 0
1651 1 -1.1832922966817027e-02 1.6362033433584763e+01 1.5173130054774452e+01 1.8822329078303618e+01 0 0 0
1652 1 -8.1511196283046441e-02 1.7632752839624462e+01 1.6461415595306143e+01 2.0684482665838452e+01 0 0 0
1653 1 -9.2728907140689737e-02 1.7625140924788319e+01 1.3939170439367532e+01 2.0607939916544630e+01 0 0 0
1654 1 -1.0157156567841880e-02 1.8903564666444382e+01 1.5128398493831215e+01 1.8777263956545546e+01 0 0 0
1656 1 1.7362736257537587e-03 1.8932756002534191e+01 1.3885066328719423e+01 1.9667919807485262e+01 0 0 0
1659 1 5.4174866510423841e-03 1.6385802873187558e+01 1.8924257210688531e+01 1.9692298253221296e+01 0 0 0
1660 1 -9.8928002674651142e-02 1.7649961411705689e+01 1.8971706623254747e+01 2.0598052396381927e+01 0 0 0
1662 1 6.8255401006587614e-03 1.8898796778965309e+01 1.8852292227787981e+01 1.9721489477903624e+01 0 0 0
1663 1 3.0247033184066427e-03 1.8923845199730728e+01 1.6385179779857808e+01 1.9688271374361264e+01 0 0 0
1664 1 -9.9286054762199212e-03 1.8873050326088382e+01 1.7614024713297631e+01 1.8791778062791330e+01 0 0 0
1724 1 2.8530696435214914e-01 1.5146012094001328e+01 1.7748812095584817e+01 2.1481227295493444e+01 0 0 0
1725 1 2.8454366449669799e-01 1.5079884739705925e+01 1.5261952909877939e+01 2.1487537653244683e+01 0 0 0
1726 1 2.9340450940125179e-01 1.7600859127381295e+01 1.5175280732925165e+01 2.1523737701700036e+01 0 0 0
1728 1 3.1178154214013559e-01 1.7571098137059010e+01 1.7739853705309685e+01 2.1591601610615601e+01 0 0 0
1750 3 -2.6398863740415912e-01 1.8908320834445263e+01 1.7647766112148915e+01 2.2283669804625927e+01 -1 0 0
1751 3 -2.4901080975843076e-01 1.8908320834445263e+01 1.5126656667556210e+01 2.2283669804625927e+01 -1 0 0
1788 3 -2.5451376601359499e-01 1.3866101945259857e+01 1.7647766112148911e+01 2.2283669804625927e+01 0 0 0
1789 3 -2.4943178798066032e-01 1.3866101945259858e+01 1.5126656667556210e+01 2.2283669804625927e+01 0 0 0
1790 3 -2.5356533678300563e-01 1.6387211389852560e+01 1.5126656667556208e+01 2.2283669804625927e+01 0 0 0
1792 3 -2.7681155213737668e-01 1.6387211389852563e+01 1.7647766112148915e+01 2.2283669804625927e+01 0 0 0

Velocities

1 0.0000000000000000e+00 0.0000000000000000e+00 0.0000000000000000e+00
2 0.0000000000000000e+00 0.0000000000000000e+00 0.0000000000000000e+00
3 0.0000000000000000e+00 0.0000000000000000e+00 0.0000000000000000e+00
4 0.0000000000000000e+00 0.0000000000000000e+00 0.0000000000000000e+00
6 0.0000000000000000e+00 0.0000000000000000e+00 0.0000000000000000e+00
7 0.0000000000000000e+00 0.0000000000000000e+00 0.0000000000000000e+00
8 0.0000000000000000e+00 0.0000000000000000e+00 0.0000000000000000e+00
9 0.0000000000000000e+00 0.0000000000000000e+00 0.0000000000000000e+00
10 0.0000000000000000e+00 0.0000000000000000e+00 0.0000000000000000e+00
11 0.0000000000000000e+00 0.0000000000000000e+00 0.0000000000000000e+00
12 0.0000000000000000e+00 0.0000000000000000e+00 0.0000000000000000e+00
13 0.0000000000000000e+00 0.0000000000000000e+00 0.0000000000000000e+00
14 0.0000000000000000e+00 0.0000000000000000e+00 0.0000000000000000e+00
15 0.0000000000000000e+00 0.0000000000000000e+00 0.0000000000000000e+00
24 0.0000000000000000e+00 0.0000000000000000e+00 0.0000000000000000e+00
26 0.0000000000000000e+00 0.0000000000000000e+00 0.0000000000000000e+00
27 0.0000000000000000e+00 0.0000000000000000e+00 0.0000000000000000e+00
28 0.0000000000000000e+00 0.0000000000000000e+00 0.0000000000000000e+00
129 -2.1957348402147194e-03 -7.8414660392351707e-03 -6.3592588586315840e-04
130 -2.4774024885392942e-03 -7.1316772171502868e-03 -1.9148342977565935e-03
131 -4.4218468055569685e-03 1.6053531476645430e-03 3.3782788358871648e-03
132 -5.7578749111985585e-04 -5.9480979462904282e-03 -2.1377265465685729e-03
133 -2.0578067152786398e-03 1.3485819454991626e-03 -3.7508032798732318e-03
134 -2.5626918858869022e-03 -1.2605723628287954e-03 4.3378939366971797e-03
135 -4.2794420113708943e-03 -5.6880334673010680e-03 2.7328547378095052e-03
136 -4.8408994790637436e-03 -1.6849229383469678e-03 3.3643697511875773e-03
137 -3.3596301463528475e-03 2.7083360963797145e-03 7.7787521498755051e-03
138 9.0251669911268974e-04 -4.2303855390982770e-03 1.5737971250606498e-03
141 -6.0508349897080305e-03 -1.9698695383899502e-03 -3.3303516787607686e-03
143 7.7016030501465479e-03 -3.6463296289517559e-03 -4.2872200236026888e-03
144 1.1262065484550958e-03 -1.6596377902389984e-03 -1.4051962508620881e-03
145 4.9480716243122573e-03 -2.3531590681828110e-03 -6.4040873656275737e-04
146 -6.2493590880680090e-03 8.6747074040408583e-03 -3.9420936012585714e-03
147 2.3807846754238769e-03 2.5396787618722819e-03 -2.5805441663977625e-04
148 2.7252665987335316e-03 1.8669365975229244e-03 8.7233291937920338e-04
149 5.9553861334644999e-03 -3.9835096931694998e-03 -4.2254053774295162e-03
150 1.6309856693933070e-03 2.8358462066147951e-03 -1.2289332209370393e-03
151 5.1893912347150406e-03 2.8409982365518206e-03 -1.1165949002796617e-02
152 -5.8912557484415134e-03 9.3800527919783022e-04 4.3283537620954051e-03
153 -1.4730174292400405e-03 1.0964870908780082e-02 -2.7196227929234674e-03
154 6.4903257929072918e-03 -3.8489522400421351e-03 7.9199881176112256e-03
155 -9.0124158767530393e-04 -8.7156586564016494e-03 5.2913872355066210e-03
156 3.4175354534083146e-03 5.4879829301832184e-03 -3.6081583941791036e-03
157 5.5666157048912570e-05 4.8211232313678182e-03 2.9318446740544137e-03
158 5.6902107501762018e-03 1.3391420868469836e-03 2.3470248547707000e-03
159 3.1554922683406867e-03 -1.4023067482454709e-03 3.1273174922294760e-03
160 -2.9983062615285918e-03 3.3333430341959817e-04 2.0828765780115956e-03
162 2.0896284772623872e-03 -3.3687926313006574e-03 -7.6903075704471890e-03
179 -1.6415926941144214e-03 -5.9917159216589240e-04 -1.0690874555856456e-03
183 -6.1214181419847044e-03 -5.8369217931087212e-03 7.6512980168569776e-03
185 -1.0496766586800110e-02 1.6813315492376748e-03 -4.3824842460268125e-03
186 9.2348199627159254e-04 1.5985373478077099e-03 -1.7143786748506050e-03
187 4.3847877508566635e-03 2.3075141922918957e-04 5.3919915597647056e-03
189 -5.3772391081418408e-03 -5.4778479493011170e-03 3.0676512270973620e-03
385 -3.2513640542339863e-03 3.5666616462816702e-03 -1.4288474797285089e-03
388 1.5440964423032650e-03 2.8846793069644289e-03 -2.8165239138171752e-03
389 -1.1869229655568267e-03 -8.0105668501247488e-04 -2.3854838848782613e-03
391 -1.1010184494843948e-03 -1.4126188036098081e-03 -4.1297386263110776e-03
392 -2.4419053348426196e-03 -9.5427394875239159e-04 7.4945152975908697e-03
394 6.1683341931523272e-04 -9.8324661205501400e-04 4.2921755048624605e-03
399 2.9452866456776260e-03 3.8166362259147509e-03 -9.4800130441825593e-03
402 4.4825334246020657e-03 3.7230389624725887e-03 -8.7695074056170954e-04
403 1.7381454145564239e-03 -8.1024794309741289e-03 2.1038810976975136e-04
406 -2.2817204513702334e-03 1.1512751164466965e-03 5.0100700605809675e-03
407 6.6523227489429990e-05 -2.9317354343177677e-04 6.6351505260105886e-03
410 -3.5553848797938181e-03 -1.7902309380509105e-03 4.5741399277489016e-03
411 -3.8704437947256073e-03 4.5881700568896839e-03 -6.5117029019201578e-03
414 -1.8870946181242011e-03 4.7579516857004832e-03 -1.2278361913425118e-02
415 -7.3090689971437913e-03 -1.2321845458948990e-02 1.6115197963017552e-02
418 -2.5839238234809641e-03 6.0277945872452285e-03 1.1646922781912501e-03
441 -7.6601716951968683e-03 -1.2492130903232065e-03 2.2431802055626246e-03
445 -5.9878239134942756e-03 1.0584303142589452e-03 6.2583744350366228e-03
16 0.0000000000000000e+00 0.0000000000000000e+00 0.0000000000000000e+00
29 0.0000000000000000e+00 0.0000000000000000e+00 0.0000000000000000e+00
30 0.0000000000000000e+00 0.0000000000000000e+00 0.0000000000000000e+00
31 0.0000000000000000e+00 0.0000000000000000e+00 0.0000000000000000e+00
32 0.0000000000000000e+00 0.0000000000000000e+00 0.0000000000000000e+00
33 0.0000000000000000e+00 0.0000000000000000e+00 0.0000000000000000e+00
34 0.0000000000000000e+00 0.0000000000000000e+00 0.0000000000000000e+00
35 0.0000000000000000e+00 0.0000000000000000e+00 0.0000000000000000e+00
36 0.0000000000000000e+00 0.0000000000000000e+00 0.0000000000000000e+00
52 0.0000000000000000e+00 0.0000000000000000e+00 0.0000000000000000e+00
54 0.0000000000000000e+00 0.0000000000000000e+00 0.0000000000000000e+00
55 0.0000000000000000e+00 0.0000000000000000e+00 0.0000000000000000e+00
56 0.0000000000000000e+00 0.0000000000000000e+00 0.0000000000000000e+00
57 0.0000000000000000e+00 0.0000000000000000e+00 0.0000000000000000e+00
58 0.0000000000000000e+00 0.0000000000000000e+00 0.0000000000000000e+00
161 2.9251048105102657e-03 3.3573143924808461e-03 -5.7447369133388684e-03
163 -4.7476843277051662e-03 -5.0909143401664048e-03 2.8426518281997310e-04
164 -3.9831517753843885e-03 -1.5378089167425162e-03 6.6235291880616960e-03
188 6.4934861652335210e-03 -4.1638393112638948e-03 3.2341572892951092e-03
190 5.4323215561260570e-03 3.7107798590418108e-03 1.0574976057985818e-03
191 4.6242937534360356e-03 -1.9697971968025739e-03 -2.4771320543104216e-03
192 -1.5769877254913712e-03 -6.9392332093694135e-04 -3.4556774063853124e-03
193 1.1562577468312035e-04 1.0587587577391719e-03 -3.8999840691387398e-04
194 4.9781216714750694e-03 4.5496340161620052e-03 -8.7892199265829395e-04
195 -7.7904159294069856e-03 9.9525876635523820e-03 -3.7803209613652532e-03
196 -6.9726206970966769e-03 -1.0322170510783019e-03 -5.1139023855398006e-03
197 -4.3523214646424965e-03 -1.3250170927562193e-03 -2.0266072692545355e-03
198 -2.7513754921575334e-03 4.6147801932467890e-03 -3.2583867429906147e-04
199 3.4587616077202078e-03 1.1714390007618184e-02 3.8290870281892184e-03
200 -7.2582913963083690e-03 -1.5947967242358448e-03 4.1087821666665721e-03
201 2.3431837393774516e-03 -3.9827666004982109e-04 6.3044906469936213e-03
202 -3.4981557136506795e-03 9.4275055362070953e-03 -4.9654665427506951e-03
203 7.9117378848058328e-04 2.0167175100132876e-03 -1.3006531451903831e-03
204 6.2872746603345039e-03 -1.8923205828948165e-03 -1.9891476219204281e-03
205 -1.3011695843088221e-03 -1.5766199786636809e-04 -2.3315558067349266e-03
237 -5.0549296657020661e-03 -2.7032207778543752e-03 2.8938554473450433e-03
241 1.0422095791573880e-03 4.2334108970285521e-03 -7.7322855865708971e-03
243 3.9017021025845055e-03 1.3794122518524733e-03 7.2061613646285739e-04
244 -4.7562333806707895e-03 -4.3662936877807536e-03 -8.9261844327419553e-04
245 -2.2358548401951160e-03 -2.3236490283183460e-03 3.2342906776788344e-03
246 -3.8817346997674167e-03 7.5342709272779654e-03 -5.2721174499693038e-03
247 1.8338703843041751e-04 -6.9683007252973233e-03 -6.5423701277392684e-03
248 -1.8076023315915504e-03 -4.3526708685866552e-03 5.1028727271038043e-04
249 6.3452583007893165e-03 -3.4862223770506066e-03 -2.0572672319356922e-03
251 4.3275124344737091e-03 -3.9604480070986369e-03 7.1713219469355799e-03
417 2.6136010599337131e-03 -4.5687682245273966e-03 1.6881643425058479e-03
420 3.4456319270625099e-03 -3.9107329964994516e-03 1.7480401522316929e-03
444 -8.2516011402078288e-03 1.1055776423789638e-03 2.1393742658460013e-03
448 1.0051650806124583e-02 -1.8505855642264937e-03 -1.0429553102299786e-03
449 3.6364763807170207e-04 5.5504114214970680e-03 -1.7844056797428449e-03
452 4.1342270314639624e-03 8.8843250063539011e-04 -7.4040863966360016e-03
453 -1.3117385508407521e-03 -7.7623301183133927e-04 3.1469689859298781e-03
456 1.6239627249117306e-02 -6.4587481121020410e-04 -3.8587968982479793e-03
457 -4.2655646890690556e-03 -1.2109040980301085e-02 1.1737453164277862e-03
459 1.9188025058612225e-03 5.3796031490675762e-03 5.6406486877635274e-03
460 -2.4139390464035979e-03 8.5370955651428715e-03 6.2497326704419852e-04
499 8.0894845308552513e-03 -4.2694870460893977e-03 2.2953624546435923e-03
502 -1.1352482153861948e-02 5.1519654790428285e-03 7.2333548707024147e-03
503 -7.0934167334262884e-03 2.9375032805808170e-03 2.2249233732900978e-03
507 -4.8441377657588210e-03 -5.1056598965066235e-04 -4.5702549535240316e-03
59 0.0000000000000000e+00 0.0000000000000000e+00 0.0000000000000000e+00
60 0.0000000000000000e+00 0.0000000000000000e+00 0.0000000000000000e+00
61 0.0000000000000000e+00 0.0000000000000000e+00 0.0000000000000000e+00
62 0.0000000000000000e+00 0.0000000000000000e+00 0.0000000000000000e+00
63 0.0000000000000000e+00 0.0000000000000000e+00 0.0000000000000000e+00
64 0.0000000000000000e+00 0.0000000000000000e+00 0.0000000000000000e+00
84 0.0000000000000000e+00 0.0000000000000000e+00 0.0000000000000000e+00
86 0.0000000000000000e+00 0.0000000000000000e+00 0.0000000000000000e+00
87 0.0000000000000000e+00 0.0000000000000000e+00 0.0000000000000000e+00
88 0.0000000000000000e+00 0.0000000000000000e+00 0.0000000000000000e+00
89 0.0000000000000000e+00 0.0000000000000000e+00 0.0000000000000000e+00
90 0.0000000000000000e+00 0.0000000000000000e+00 0.0000000000000000e+00
91 0.0000000000000000e+00 0.0000000000000000e+00 0.0000000000000000e+00
92 0.0000000000000000e+00 0.0000000000000000e+00 0.0000000000000000e+00
112 0.0000000000000000e+00 0.0000000000000000e+00 0.0000000000000000e+00
206 -1.7109162654292771e-03 9.8764437503628191e-03 7.8508882969709442e-04
250 7.5105183701388548e-04 2.9722206246719568e-03 4.8889227027032415e-03
252 5.5889086888113596e-03 4.5265988516649813e-03 -8.0154720492495624e-04
253 -6.5604047392970038e-04 -6.3719670702561924e-03 -4.5877906959557171e-03
254 -1.7604823362972471e-03 -8.6837809503331771e-03 2.5008117492631285e-03
255 -4.3546445320797591e-03 -4.6927711070366765e-03 2.8368278999110846e-03
256 -3.2790619667364932e-03 1.9225000910989797e-03 -1.3495583294830969e-04
257 2.6885151510130921e-03 -1.3068147056395716e-03 2.3361352008013643e-03
258 4.2366035365629741e-04 -8.9634672504620896e-03 5.6325839883477188e-03
259 3.0324781720058556e-03 -8.4474351024462161e-03 4.6162909381923453e-03
260 4.2458330332894841e-03 8.5454631754056341e-03 -4.6282841280129794e-03
261 -2.2808866709458469e-04 -4.8316637824549862e-03 6.0226208131947184e-03
262 -7.6985266669450257e-05 3.1346016963969920e-03 -3.6426153922888083e-03
263 -1.8115958603983102e-03 5.2947528108592901e-03 -3.4302158528085450e-03
264 -1.4572392800042335e-03 -5.0681647875031356e-03 9.5228668899187624e-04
301 5.5461007874207987e-03 -4.1126927125784045e-03 -6.5421722342121841e-03
305 -2.9401563520300247e-03 -2.3279788431471004e-03 1.2180106084319848e-03
307 -6.6772650592868861e-03 -8.5877706122434588e-03 4.2125505094434924e-03
308 -3.6541998200732436e-03 -7.7991973581721826e-04 -2.1801794135784544e-03
309 1.1184815389322571e-02 2.0822866923850963e-03 5.8186862268335224e-03
310 2.0254931736088649e-03 -4.6647150603948279e-03 2.4816357448779270e-03
311 2.5644174535390690e-04 3.3114638502294708e-03 -1.1172865466522734e-02
312 -5.4409760029574218e-03 -4.4080214753460219e-03 -1.1219444329878688e-03
313 -5.7466835821639542e-04 2.8306373500008499e-03 1.3801034713213105e-04
314 -1.5274174094742621e-03 1.9331668155541321e-03 -6.6408212791079189e-03
315 -6.3005717661208781e-03 -1.0971295746062561e-03 -1.9496552517297874e-03
316 2.2003691721073702e-03 5.9584358278593963e-03 7.9404807073587879e-06
317 5.8217816450095510e-04 -4.6403016331253181e-03 -3.4112709264977419e-03
318 -6.4136758150570086e-03 -5.8418077608496837e-03 -1.7356221054331625e-03
355 -4.3149511860604865e-03 7.6952587374509865e-03 -3.4047399186631589e-03
462 7.0242796007127860e-04 3.6183977224194066e-03 -1.0278207461300128e-02
506 -5.6048249418247929e-04 -5.1874991927865280e-03 4.4526294261707259e-03
510 -2.3755960655445977e-03 -1.6956430176352469e-03 3.6010802358305422e-03
511 -5.8732287929586283e-04 2.9190278110456652e-04 -1.1559863550988274e-02
514 -9.0796949352669621e-03 3.8169062689894498e-03 -1.0531687042400838e-02
515 -2.2153821600022459e-04 7.0047627616524736e-04 -3.6380153095120311e-03
517 -7.7832966636859758e-04 -1.0225154995709225e-02 1.2096335645341271e-04
518 3.3426797717393663e-03 -6.4357503283919955e-03 -8.4733677241118814e-04
520 -4.6663171374876338e-03 -6.1387675907687220e-03 3.6092368184135562e-03
563 -1.9711974449272791e-03 1.7665166850354117e-03 1.8961747260362505e-03
566 -8.2196708151902106e-03 5.2305923518634998e-04 -3.2130414273469185e-03
567 -1.7503998911598624e-03 -8.3690295042299599e-03 -1.3600820514794005e-03
570 -8.1637716089785744e-03 5.4256558673571476e-03 -4.0089719067273764e-03
571 -4.9016444727154607e-03 -1.8437654293374794e-03 -6.3100942311000701e-03
574 -1.5512577910331907e-04 -5.0150214270617459e-03 1.9603597140781010e-03
5 0.0000000000000000e+00 0.0000000000000000e+00 0.0000000000000000e+00
18 0.0000000000000000e+00 0.0000000000000000e+00 0.0000000000000000e+00
19 0.0000000000000000e+00 0.0000000000000000e+00 0.0000000000000000e+00
20 0.0000000000000000e+00 0.0000000000000000e+00 0.0000000000000000e+00
21 0.0000000000000000e+00 0.0000000000000000e+00 0.0000000000000000e+00
22 0.0000000000000000e+00 0.0000000000000000e+00 0.0000000000000000e+00
23 0.0000000000000000e+00 0.0000000000000000e+00 0.0000000000000000e+00
25 0.0000000000000000e+00 0.0000000000000000e+00 0.0000000000000000e+00
44 0.0000000000000000e+00 0.0000000000000000e+00 0.0000000000000000e+00
46 0.0000000000000000e+00 0.0000000000000000e+00 0.0000000000000000e+00
47 0.0000000000000000e+00 0.0000000000000000e+00 0.0000000000000000e+00
48 0.0000000000000000e+00 0.0000000000000000e+00 0.0000000000000000e+00
139 7.3564278848380340e-03 -5.0800520150096531e-03 -2.4413070358688845e-03
140 -7.9773946939915464e-04 -2.5544043277230823e-03 6.1672141004745860e-03
142 -4.9267809951733261e-03 -1.5053890904787996e-03 1.0805263284460029e-02
165 -4.2862836023112123e-03 3.7204031798699238e-03 6.5592079111875129e-04
167 4.2663588971933210e-03 -3.6492036613443497e-04 -2.7573963325256694e-03
168 -1.6259442906986889e-03 5.5896944188877874e-03 -1.2428655983913377e-04
169 5.2477882932794647e-03 -1.3930428295518293e-03 -1.3701569423051128e-03
170 -1.5640679306141230e-04 -7.0416498920908947e-03 -1.9066095848989299e-03
171 3.4376463651132143e-03 -3.6953012491343718e-07 -8.3426807511619693e-03
172 -6.0161772409359719e-03 4.7393555184646599e-03 -2.0836831869134841e-03
173 -3.8523111036021130e-04 -1.1469572466666807e-03 1.0421272021387375e-03
174 -2.3931169905109457e-04 1.6990853853819461e-03 -3.7067329942372129e-03
175 5.5815961794765945e-03 4.1345111445554930e-03 2.2387742594760281e-03
176 1.2215927188629681e-03 1.5792425450304008e-04 -2.2659333829631247e-03
177 4.0704897063893550e-03 5.5366827868653032e-03 3.2734482276318643e-03
178 -8.9907123640785222e-03 1.5922736586857199e-03 -1.1130709021350500e-02
180 -6.4633652197929299e-03 -3.5161259611110547e-04 1.6273675819612967e-03
181 6.4788102820693538e-03 7.6457520545825022e-04 1.1366688025731598e-03
182 4.6269646964860285e-03 -2.1559237671716670e-04 4.0076561783352121e-03
184 -1.6618133342789722e-03 -6.3657734623233974e-03 -8.4178265236023939e-03
219 -8.3628586656160856e-03 -5.3140688897740226e-03 6.3591860493646644e-04
221 3.9459151867671160e-03 3.3077696309701666e-03 4.1257362011737891e-03
222 -3.8044500127053125e-03 -4.5723064621778775e-03 -6.3976868051948323e-03
223 3.3571631036301628e-04 9.2883888412406104e-04 -9.5263576204588276e-03
225 1.0596019156644515e-03 3.2537537810621549e-03 7.6978831913274877e-03
226 -5.3668668292596415e-03 -1.2176521809070060e-03 5.1875401872555254e-03
227 -8.3851364507102153e-03 6.1325416012358500e-04 5.2201464543919363e-04
228 -7.4051156017966363e-03 1.5188548466757317e-03 3.8189898235132000e-03
229 8.5353290874002046e-03 -6.8339587704362289e-03 4.9297867109451736e-03
231 1.0887301016180285e-04 3.1501965356378540e-03 4.7768730805163688e-03
395 3.3515681853396153e-03 -4.2418112705328182e-03 -4.1040576329648554e-03
398 8.4006485697827159e-03 1.5311981611633009e-03 -1.2776608357296711e-03
421 -3.8090478819700797e-03 -6.0087569684000460e-04 1.0698463984205237e-03
424 -5.7675390996856229e-03 -4.4141204846753716e-03 -5.5385905544602688e-03
425 2.3935637216208031e-03 -2.7744702781622422e-03 1.6168518915884180e-03
428 -6.3062900712089458e-03 -6.9376572632859552e-04 4.2084488858327457e-03
429 2.2663502802645012e-03 -1.3601760634440710e-03 -1.5094660797774239e-03
432 -4.5662328414416758e-03 -3.9237355271254963e-03 -6.1250623685689762e-03
433 -3.9294489223997905e-03 -4.1016434901851957e-03 8.2153936665785819e-03
436 -1.9187097552103853e-04 -9.3558640453657717e-04 -1.2806692827718104e-03
437 1.4889647856302754e-03 9.1535243707923392e-03 -6.4236661328457454e-03
440 4.7173566000692727e-03 5.9615974882477277e-04 1.2880318723860121e-02
475 2.2764829816506593e-04 2.3256449218088480e-03 3.0524005704272430e-03
478 -4.3940665502075682e-03 -4.1691075234990696e-03 -3.4751681244887668e-03
479 -6.1492473247681213e-03 2.9229988173424173e-03 8.0286373208046154e-03
482 8.4131929793473308e-04 2.2668661590278974e-03 -3.2041717533329039e-03
483 -4.8192415879445328e-04 2.4303678403008403e-03 -7.0587819351296873e-04
487 -5.6492571519524610e-04 1.2777283118826474e-03 -4.3874111386492387e-03
49 0.0000000000000000e+00 0.0000000000000000e+00 0.0000000000000000e+00
50 0.0000000000000000e+00 0.0000000000000000e+00 0.0000000000000000e+00
51 0.0000000000000000e+00 0.0000000000000000e+00 0.0000000000000000e+00
53 0.0000000000000000e+00 0.0000000000000000e+00 0.0000000000000000e+00
76 0.0000000000000000e+00 0.0000000000000000e+00 0.0000000000000000e+00
78 0.0000000000000000e+00 0.0000000000000000e+00 0.0000000000000000e+00
79 0.0000000000000000e+00 0.0000000000000000e+00 0.0000000000000000e+00
80 0.0000000000000000e+00 0.0000000000000000e+00 0.0000000000000000e+00
81 0.0000000000000000e+00 0.0000000000000000e+00 0.0000000000000000e+00
82 0.0000000000000000e+00 0.0000000000000000e+00 0.0000000000000000e+00
230 1.0305493235608523e-02 -8.3556096634883319e-03 3.1133151135476593e-03
232 -4.2568382735497874e-04 -5.6032114865218867e-05 8.5636474946461250e-03
233 4.1190249403833093e-05 3.1610292386919628e-04 8.7902305247862490e-04
234 -3.9198712002113468e-03 -1.4814841376128252e-02 6.7163190442993195e-03
235 1.4057100529469950e-03 3.1794584360842139e-03 -4.5190534114386586e-03
236 -2.5522049350554881e-03 6.2832032040492094e-04 -9.4186063934922088e-03
238 -8.2297346075515341e-03 -6.7056444701257638e-04 -2.6367632610410649e-03
239 -2.6542914769119952e-03 -1.7131816802818140e-03 -4.0227989809764799e-03
240 -4.5839821555945914e-03 -1.9099064081136911e-03 -4.2417247253933857e-03
242 -2.8452778892496325e-03 -1.3876706023221018e-03 1.3836992631828828e-03
283 5.9404519617919311e-03 2.4895470034587623e-03 -1.1847036514406434e-02
285 6.9901204104007980e-04 4.3534396277556788e-03 2.9859549232378142e-03
286 -8.8818615266332036e-03 4.3286162319061457e-03 3.5674676913364715e-03
287 -2.6430846561000848e-03 2.2462741774243174e-03 -1.4387805497720861e-03
289 5.5600278678857255e-04 5.1170539366999493e-03 -1.2136079080039244e-02
290 1.6577147812162638e-03 2.1242851710387639e-03 -1.9552960724715180e-03
291 5.1467653452504760e-03 -7.8700437403816763e-04 -4.0852669082035362e-05
292 -6.7681461765134263e-03 1.0432763336531625e-03 3.8041266773752706e-04
293 1.6306774793067077e-03 -1.9287974076457025e-03 -3.5617541654640807e-03
294 -1.0918645246755352e-02 -1.1564001262421575e-03 6.1237623858048824e-03
295 5.6157497760489844e-03 1.1553416312426795e-03 -2.9419281466354125e-04
296 5.1727672200997008e-05 1.0802367882043158e-04 -2.0906022956640322e-04
297 1.0563674127180987e-03 1.7946421796840545e-03 2.4176644704558222e-03
299 6.8417748487334933e-03 -1.5583652472579246e-03 -6.7016559527636570e-03
337 4.5104310128627973e-03 5.2473842429250237e-03 -2.9440265129243863e-03
486 -4.9520249992196595e-03 1.1108901937677594e-02 -4.3961264929458113e-04
490 -7.6729070941811165e-03 -3.9684849558725048e-03 -6.5827157001735756e-03
491 9.1738659182150403e-03 1.3055388101668531e-03 -9.7506782488974725e-03
494 3.7641337325877526e-04 -3.1971343181111875e-03 -2.2880304642886140e-03
495 -2.7667056880768042e-03 -2.5002284405440172e-03 -1.4558358867437582e-03
498 1.2893428678015012e-03 -4.5336050014690276e-03 3.4818587963860457e-03
539 2.7525270420799626e-03 -3.9736601403402919e-03 -4.4840652147450435e-03
542 2.2158596680518033e-03 6.6554083337380500e-03 5.2931063964616167e-03
543 1.2303567031293912e-04 -6.4906389184704871e-03 8.4349766869971192e-03
546 4.3918164867157118e-03 -9.6619678926631604e-04 8.5864145389643492e-04
547 3.7592302177517473e-03 -5.0644819975315565e-03 -1.9944016622889475e-03
550 5.2039557029159265e-03 3.7480675889015546e-03 -3.1153743612240123e-03
551 5.2403820115002027e-03 -8.6949088264845693e-04 -1.9264302263690821e-04
555 3.5008919484263617e-03 3.4887508075402140e-03 -2.7700399028775893e-03
593 -3.4861283283405538e-03 -3.7851992850660468e-04 5.8919514210101602e-03
83 0.0000000000000000e+00 0.0000000000000000e+00 0.0000000000000000e+00
85 0.0000000000000000e+00 0.0000000000000000e+00 0.0000000000000000e+00
104 0.0000000000000000e+00 0.0000000000000000e+00 0.0000000000000000e+00
106 0.0000000000000000e+00 0.0000000000000000e+00 0.0000000000000000e+00
107 0.0000000000000000e+00 0.0000000000000000e+00 0.0000000000000000e+00
108 0.0000000000000000e+00 0.0000000000000000e+00 0.0000000000000000e+00
109 0.0000000000000000e+00 0.0000000000000000e+00 0.0000000000000000e+00
110 0.0000000000000000e+00 0.0000000000000000e+00 0.0000000000000000e+00
111 0.0000000000000000e+00 0.0000000000000000e+00 0.0000000000000000e+00
124 0.0000000000000000e+00 0.0000000000000000e+00 0.0000000000000000e+00
298 -2.4858904212951235e-03 9.3847668319232153e-03 -4.7252875827004711e-03
300 -5.1141710177753912e-03 -2.3010303445370733e-03 1.3200929994262726e-03
302 6.6050567510039177e-03 1.4894454299343187e-03 -3.7764348608241402e-03
303 -7.5450435172210654e-04 4.9620438016477553e-03 4.9723427878267694e-03
304 1.1541876455760695e-03 -1.1054737567891975e-03 -2.9569706230329158e-03
306 -8.3321047254193755e-03 -3.8170009358306513e-03 2.5218112177299492e-03
339 -2.6909390713059380e-03 -6.0768677126401644e-03 -1.1043320696095878e-03
340 -1.4234132086187689e-03 4.9490646716463570e-03 -2.5518269821426551e-03
341 1.5834701926895815e-04 3.0565991673788583e-03 1.2645168421344249e-03
343 7.4934308512333179e-03 2.2640608464620355e-03 -6.5985493891800662e-03
344 -3.8349311038383981e-03 1.0039167050182830e-04 1.0561234711034054e-02
345 1.2742281853937741e-02 -9.1088957111518931e-03 4.7133619774625693e-03
346 -7.3726984467478910e-05 -5.0157490767307163e-03 -5.1479625786871857e-03
347 1.4450104976515961e-04 3.9987349507573255e-04 -8.4196716835109372e-03
348 -1.2056960524568199e-03 -7.2998426516714674e-04 3.8093792602722598e-03
349 7.4315663609775531e-03 -1.9170394293045262e-04 -4.3410791156672330e-03
350 -3.1006864873366611e-03 -4.8825462018921087e-03 2.1089673071038265e-03
351 -1.7533380439543997e-03 9.8496505710776912e-05 -8.8817302715394979e-04
352 4.2616838382793613e-03 1.3103345833041919e-03 1.5346182832047047e-03
353 -5.3231007257445008e-03 5.2890845729213782e-03 4.6404513752001915e-03
354 -2.3721858810883747e-03 6.2842047238113371e-03 3.2579084115083577e-03
356 -6.1415106130203179e-03 -1.0328567531749010e-02 -2.7167305961480833e-03
375 -6.2050461275043696e-03 -1.3319763853235395e-03 -5.5327613913887389e-03
377 -1.3666821872084050e-03 -1.0208187494283201e-03 4.1804027709592684e-03
378 9.2892891917930511e-03 -4.7850437691871715e-03 1.1973506230721754e-02
554 -2.9639639159843882e-03 1.6435517710524324e-03 -2.9735957621180552e-03
558 4.2965973727350773e-03 2.2893357885057268e-04 -9.3468731859294902e-04
559 7.1284541896587308e-03 -2.5330010063824511e-04 3.8045787098337717e-04
562 1.6622523538172629e-03 1.4306540422725704e-03 2.7851560388777699e-03
596 -1.7283377660393124e-03 5.1936987062506492e-03 1.7711663406622703e-03
597 -7.3374728940644261e-03 1.9799059820303395e-03 8.2058131122807242e-04
600 -3.6319160786897273e-04 -3.5607588063851500e-05 -3.7819726733503058e-03
601 -8.6611696718816578e-03 3.1872554392449173e-03 4.0288042416286958e-03
604 -3.7635282806897053e-03 2.6475360165577259e-03 -1.7998115858125802e-03
605 -2.1329363277813899e-03 2.6298315242442674e-03 7.1037637773219637e-03
608 3.9130748047769932e-03 6.8882398584418688e-03 2.0891147673180212e-03
609 -3.2919572457236670e-03 -1.8536812548641723e-04 6.7699892615286231e-03
612 -5.5355839455784360e-03 -8.3886400300253929e-03 -8.6759795542413597e-03
631 9.6618233716669333e-03 -2.9535264661918622e-03 -5.9518448766839481e-03
634 3.0634778104787976e-03 -3.2511229319770311e-03 -1.1439980357244971e-05
17 0.0000000000000000e+00 0.0000000000000000e+00 0.0000000000000000e+00
37 0.0000000000000000e+00 0.0000000000000000e+00 0.0000000000000000e+00
38 0.0000000000000000e+00 0.0000000000000000e+00 0.0000000000000000e+00
39 0.0000000000000000e+00 0.0000000000000000e+00 0.0000000000000000e+00
40 0.0000000000000000e+00 0.0000000000000000e+00 0.0000000000000000e+00
41 0.0000000000000000e+00 0.0000000000000000e+00 0.0000000000000000e+00
42 0.0000000000000000e+00 0.0000000000000000e+00 0.0000000000000000e+00
43 0.0000000000000000e+00 0.0000000000000000e+00 0.0000000000000000e+00
45 0.0000000000000000e+00 0.0000000000000000e+00 0.0000000000000000e+00
65 0.0000000000000000e+00 0.0000000000000000e+00 0.0000000000000000e+00
66 0.0000000000000000e+00 0.0000000000000000e+00 0.0000000000000000e+00
67 0.0000000000000000e+00 0.0000000000000000e+00 0.0000000000000000e+00
68 0.0000000000000000e+00 0.0000000000000000e+00 0.0000000000000000e+00
69 0.0000000000000000e+00 0.0000000000000000e+00 0.0000000000000000e+00
70 0.0000000000000000e+00 0.0000000000000000e+00 0.0000000000000000e+00
71 0.0000000000000000e+00 0.0000000000000000e+00 0.0000000000000000e+00
72 0.0000000000000000e+00 0.0000000000000000e+00 0.0000000000000000e+00
93 0.0000000000000000e+00 0.0000000000000000e+00 0.0000000000000000e+00
166 1.0721620378401544e-02 4.0483943336014887e-03 -1.1553297999277651e-02
207 2.8371616955079068e-03 -5.2389906872504664e-03 -3.1647160960574334e-03
208 6.0772524155202857e-03 -4.7792769156043986e-03 2.4023558803399191e-03
209 9.9187368151021325e-03 -7.8544382750699081e-04 -3.6114655324547174e-03
210 3.1703666946423506e-03 -1.1666371160240550e-04 1.4126689935149848e-02
211 2.9011361220276173e-04 -4.2564813615666181e-03 3.4786708351880581e-03
212 4.9123843104616925e-03 -9.0361340193049599e-03 -7.8633740988432561e-04
213 -9.1773020893280623e-03 4.0648272741681422e-03 -6.9130041204530854e-03
214 -3.3305096957553597e-03 6.7854021832568093e-04 5.9785451789026956e-03
215 2.7414941150441423e-03 -1.9699925670763336e-03 9.5534591170263229e-03
216 -5.4055179691518173e-03 -1.5204798253425143e-03 -5.1546151448213576e-03
217 4.2433347774098167e-03 -4.0477752624757972e-03 -4.5856126298848294e-03
218 -2.5215750943698109e-03 9.3186978687773356e-03 6.1250064580474050e-04
220 4.9801472593071234e-03 6.9724105241673467e-03 9.4452238775359857e-03
224 -1.1294567724868410e-03 1.7572378336533155e-03 -1.8428269467676297e-03
265 9.1145427601564185e-03 -2.0703903543221728e-03 4.8496265863336475e-03
266 -1.0865180367775806e-03 9.2805582501924114e-03 1.0207956628887267e-04
267 3.2076912919384148e-03 6.8437390844951432e-03 -1.2601212209981978e-04
268 -3.3839353636370743e-03 -6.3271817349686461e-03 4.6777845850309134e-03
269 1.0046502727432893e-03 3.3999046790732525e-03 -9.1914213870055827e-04
270 -7.5912753647876799e-03 -7.4276305300316802e-03 3.1725695147770709e-03
271 1.1500340015218366e-03 -2.5494512763249958e-03 3.4397345966285290e-03
272 -7.6054693456061176e-03 3.6065574620244094e-03 6.2919106105103597e-03
273 3.3001360409453436e-04 1.0548340286341557e-04 1.0528270451984319e-02
274 2.1681350925756558e-03 -3.7986481452070035e-03 2.5476885795407893e-03
275 -5.5974905046132653e-03 1.6141003878387666e-03 4.1724913988785175e-04
276 4.6788837066989207e-03 -5.1975887190769353e-05 -3.5462717871258286e-03
277 -5.0393288282045822e-03 -8.0496712869498159e-03 -1.0552022837636717e-03
279 -7.4409487890945659e-03 -3.4690977704076999e-03 -5.1061393168187448e-03
319 -5.9264748873040559e-03 2.9109371510163736e-03 -2.2550942213632297e-05
463 9.9259776467151145e-03 -4.6027248263602067e-03 -4.5176009309577875e-03
466 1.0261155844308153e-03 8.1028610970968710e-04 -7.5103276434280173e-03
467 -1.1044830527052848e-02 4.1158097175845228e-03 -2.9784708669156369e-03
470 -2.5139309749324856e-03 -9.6148728029333483e-03 -2.0894411906289293e-03
471 3.7283227704719541e-03 -6.7428821871856085e-03 -3.8250133120089091e-03
474 4.1679230105734514e-03 -4.1771517517746508e-03 1.1333007167473230e-03
523 3.3781144976648596e-03 3.1444897038732248e-03 -3.9375403657586150e-03
526 -3.8236150553558126e-03 3.8710741762428072e-03 4.9764307105684335e-03
527 -2.4573247583584509e-04 1.0187726626156484e-02 5.2920432870117943e-03
530 -2.9674505420091268e-03 -5.5597589871887254e-04 -1.7782299945538584e-03
531 2.0508741036281480e-03 -3.7857776703247720e-03 5.4343193170186708e-03
535 6.5651770578788052e-03 3.7767860656334018e-03 5.2886531355130460e-03
73 0.0000000000000000e+00 0.0000000000000000e+00 0.0000000000000000e+00
74 0.0000000000000000e+00 0.0000000000000000e+00 0.0000000000000000e+00
75 0.0000000000000000e+00 0.0000000000000000e+00 0.0000000000000000e+00
77 0.0000000000000000e+00 0.0000000000000000e+00 0.0000000000000000e+00
94 0.0000000000000000e+00 0.0000000000000000e+00 0.0000000000000000e+00
95 0.0000000000000000e+00 0.0000000000000000e+00 0.0000000000000000e+00
96 0.0000000000000000e+00 0.0000000000000000e+00 0.0000000000000000e+00
97 0.0000000000000000e+00 0.0000000000000000e+00 0.0000000000000000e+00
98 0.0000000000000000e+00 0.0000000000000000e+00 0.0000000000000000e+00
99 0.0000000000000000e+00 0.0000000000000000e+00 0.0000000000000000e+00
100 0.0000000000000000e+00 0.0000000000000000e+00 0.0000000000000000e+00
101 0.0000000000000000e+00 0.0000000000000000e+00 0.0000000000000000e+00
102 0.0000000000000000e+00 0.0000000000000000e+00 0.0000000000000000e+00
113 0.0000000000000000e+00 0.0000000000000000e+00 0.0000000000000000e+00
114 0.0000000000000000e+00 0.0000000000000000e+00 0.0000000000000000e+00
278 4.3589106244173352e-03 -5.8740888568987980e-03 -2.1769932720115378e-03
280 3.5628913996883622e-03 3.5478102654396183e-04 2.0151376598075577e-03
281 9.7323040326591985e-04 -3.3601579907568467e-03 -1.6757110418570945e-03
282 -1.8630612331219910e-03 -9.4306315507150604e-03 2.1735843501758147e-03
284 1.0026229325448056e-03 -7.1154563335739853e-03 -1.6441311539048744e-03
288 9.1179336391933857e-03 2.4366393811201936e-03 5.8644932222605192e-03
320 6.8851618141822814e-03 -8.7478625740987151e-03 6.6421101217155809e-03
321 4.8729590045099840e-03 8.6326857263866949e-03 -4.3590207710702640e-03
322 1.3600525624782752e-03 -2.9093121947703243e-03 -1.7628033857575959e-03
323 2.6706485094013144e-03 -3.4421915112688444e-03 2.0665956899584984e-03
324 -1.3122776692662264e-03 3.7779064665170370e-03 1.9179126678900301e-03
325 1.1714482315365095e-02 7.0279803726030210e-03 4.0668262125976920e-03
326 -7.3593685029710761e-03 -8.6483493080512436e-04 -4.1884083183476870e-03
327 1.3541329832608509e-03 8.2007776274516813e-04 -5.0836503862382440e-03
328 -1.2405797079353981e-02 3.1056241191924371e-03 -1.0114957869949914e-03
329 3.5063306702187254e-05 -4.9742195854126318e-03 -7.7519348800298834e-03
330 7.6716788802310204e-03 -2.1977497079419730e-03 8.8413007877120137e-04
331 -4.7321011672804038e-03 -1.1754742216073637e-03 1.0650438672553487e-02
332 5.6265116543826790e-03 -3.2433503695947783e-03 -5.8635015480461268e-03
333 9.6698079505402497e-03 -5.8065490802147572e-04 9.0822734188286264e-03
334 2.0941761079252296e-03 8.4079904284593675e-03 -8.7608745990409957e-03
335 -5.4454161221229275e-04 1.9744523037791878e-03 1.6181684123656934e-03
357 6.7404561840323266e-04 3.0516830485044903e-03 -3.2175664842099593e-03
358 2.9123033032457551e-03 3.5949522670644346e-03 -9.8796966331439404e-03
359 -7.4182680324830731e-03 9.3983745935648077e-03 1.0829742601366590e-02
534 1.3141719683640677e-02 1.6107632045647092e-03 1.3485411602769627e-03
538 -3.6240712117917827e-04 -3.9475425690791198e-03 -1.4313706053627165e-03
577 3.6445070686990963e-03 -1.4618084276850536e-04 -3.8124519742845911e-03
580 -1.6837143050933508e-03 3.2501641662595784e-03 -1.5740115154628863e-03
581 -1.8435555574092017e-03 2.1782756548220059e-04 -8.9465092714431736e-03
584 -5.0340317204193331e-03 -2.3877628303236686e-03 -7.7059517181737945e-04
585 -3.9263130897734366e-04 8.2917289581420084e-03 6.8381848674374896e-03
588 -4.7055165209682866e-03 -1.4725503420905052e-03 1.8851338564692007e-03
589 4.7803517671894490e-04 4.9881537683716072e-03 1.0283674199711059e-03
615 4.9604608444931099e-03 -4.5940807360869288e-03 6.6306456099779927e-03
103 0.0000000000000000e+00 0.0000000000000000e+00 0.0000000000000000e+00
105 0.0000000000000000e+00 0.0000000000000000e+00 0.0000000000000000e+00
115 0.0000000000000000e+00 0.0000000000000000e+00 0.0000000000000000e+00
116 0.0000000000000000e+00 0.0000000000000000e+00 0.0000000000000000e+00
117 0.0000000000000000e+00 0.0000000000000000e+00 0.0000000000000000e+00
118 0.0000000000000000e+00 0.0000000000000000e+00 0.0000000000000000e+00
119 0.0000000000000000e+00 0.0000000000000000e+00 0.0000000000000000e+00
120 0.0000000000000000e+00 0.0000000000000000e+00 0.0000000000000000e+00
121 0.0000000000000000e+00 0.0000000000000000e+00 0.0000000000000000e+00
122 0.0000000000000000e+00 0.0000000000000000e+00 0.0000000000000000e+00
123 0.0000000000000000e+00 0.0000000000000000e+00 0.0000000000000000e+00
125 0.0000000000000000e+00 0.0000000000000000e+00 0.0000000000000000e+00
126 0.0000000000000000e+00 0.0000000000000000e+00 0.0000000000000000e+00
127 0.0000000000000000e+00 0.0000000000000000e+00 0.0000000000000000e+00
128 0.0000000000000000e+00 0.0000000000000000e+00 0.0000000000000000e+00
336 4.3561785126010723e-03 5.7919658363505431e-03 3.8848611259761625e-03
338 5.2365649022078590e-04 -3.3709413013533339e-03 3.6423504845587557e-04
342 -3.1300744573161997e-03 -6.6410473469175821e-03 -4.6581107226392367e-03
360 7.3389510642851220e-04 -3.3948361574645588e-03 5.6551538319407520e-03
361 4.3023480434773876e-03 -5.4562779015062097e-05 -3.5064422775475837e-03
362 -1.4710265293657065e-03 5.8439999299394422e-03 -2.2418560368330310e-03
363 -1.2441023187108352e-02 -2.9109037075291297e-03 -9.0042440289526211e-04
364 7.7922781650174909e-04 9.3034020428163857e-05 3.8120447653892651e-03
365 -5.8690532392104697e-04 -2.0180011171663870e-03 -7.2794958956692935e-03
366 -6.8745673287276847e-03 6.3674193295445401e-03 5.0527469157973740e-03
367 -2.5713616405741944e-04 -2.0711767606043652e-03 -9.3798364935159338e-03
368 -1.8788715276201794e-03 -3.9823139147027799e-04 2.8526251051908379e-03
369 2.3513742827406519e-03 1.5016286869207654e-03 2.8566574206437241e-03
370 -1.0225297336936398e-03 1.7244650235647436e-03 4.7105438245745009e-03
371 4.4031837391146703e-03 2.2433631839311446e-03 -5.2569063379435546e-03
372 -5.5069117642584343e-07 -6.3810924030680092e-04 -4.7010862084924578e-03
373 -1.5672221970538082e-03 1.3518049270281587e-03 -4.1525456786176200e-04
374 -8.5099934277928415e-03 -1.2019437264661791e-03 5.6666382941152722e-04
376 -4.2590381724223851e-03 -1.6610754537290599e-03 -2.4483791897163616e-03
379 2.7610728706475517e-03 -2.7720024624586959e-03 2.3494093271270895e-03
380 -6.8425971563733402e-03 -2.3805822637498488e-03 1.3286883534259877e-03
381 7.7792057654161905e-03 -8.0511463312653558e-03 -8.8411342002123056e-03
382 1.3387923401685365e-03 1.4001573739082422e-03 1.0039986114408964e-02
383 4.3943808779299829e-03 -9.2003283166414221e-03 -2.9219365570808398e-03
384 -1.0561702363563860e-03 -8.9837821708425199e-03 -2.5232851094864517e-03
592 7.4071985124279848e-03 -1.9421121323679163e-03 -2.5817244411577428e-06
618 5.1048842328726167e-03 -1.1160026552764615e-02 5.6095518652078831e-04
619 8.8109662028438875e-03 1.4781104421047221e-03 3.0317143989361623e-03
622 -4.0556163086959193e-03 7.2182949236889189e-03 -1.2429432796132454e-03
623 -1.0652007630962811e-02 -1.7348334490645601e-03 4.7226711464008727e-03
626 -7.2795020622971893e-03 1.2962022271870566e-02 1.0357198133057272e-02
627 -1.1664113035413611e-03 -6.7354008372761537e-04 8.4794343501575246e-04
630 -3.9137349648044793e-04 -1.4579897278624134e-03 5.2804609513744426e-03
637 3.0781486997520568e-03 5.8867585387308661e-03 4.9453241022672807e-03
640 3.7295878087240057e-03 -3.1986658041596875e-03 -3.3491977341365800e-03
386 4.5116435273667814e-03 -4.7767592665890713e-03 1.5950549516082733e-02
387 -2.5016778893695558e-03 3.3681898462828669e-03 6.7286099379882747e-03
390 -8.4638936336603361e-03 2.6010254755716336e-03 1.1863312065296587e-03
393 -4.8525670551258799e-03 7.3187698228706355e-03 -3.3231124055783275e-03
397 -4.6738075120521027e-04 -2.8580646104806799e-03 4.4968705700446617e-03
400 -3.0287287917569843e-03 3.6770540538950919e-03 -4.0595297784578920e-03
401 -1.1274818667686828e-02 5.0204026055658607e-03 2.7590068444727518e-03
404 -1.2394664250792765e-02 1.4629928422750849e-03 1.8712283212481487e-03
405 1.0252023935654374e-02 6.2339584390670435e-03 1.1523422209113069e-02
408 -4.0581483558747031e-03 -3.6620758373891874e-03 -4.2922484581407305e-03
409 -5.5754966818350503e-03 -1.2227543289924590e-02 -2.8874425560488997e-03
412 5.2029882470686507e-03 1.3627212374754903e-03 -5.8836343801200895e-03
413 -3.6991077587842174e-03 5.7470219648755949e-03 1.9233354706961856e-03
416 8.9384628872313330e-03 4.9013109233106151e-04 -1.5497725716125776e-03
435 -9.3373826846491299e-04 -1.9980127475401495e-03 3.5263341914282794e-03
439 -8.3811754831112483e-03 1.2577074156699237e-03 1.9412997679058152e-03
442 9.8643319591952671e-03 -6.2430181063701257e-03 3.5164292216470026e-03
443 6.7595915256779479e-03 -8.3401293116710483e-03 -7.6625976175654512e-03
641 -3.0052552820684347e-03 3.6808536221639167e-03 -1.2057713626533258e-03
642 9.4171923274585304e-03 -3.9826498428989256e-03 2.8078415329689955e-04
643 1.0201192465293864e-03 -2.3315568344267268e-03 -2.6484698485070516e-03
644 -3.7791103023192330e-03 -7.7578208491665525e-03 3.9017038971970231e-03
645 -8.6102360104817650e-03 6.4684638459853571e-04 3.7671844299512732e-03
646 6.5920279347445130e-04 -1.0346344607547221e-03 -7.7682834583610860e-03
647 2.6340595572475795e-03 1.5634719582379058e-03 6.4909540867131204e-03
648 5.5780497697457887e-03 3.8771516813617926e-03 -3.9886033280998158e-03
649 2.2690421292837116e-04 -2.4437239569691005e-04 3.2262604659059955e-04
650 4.6204320818161570e-03 5.9155082837473970e-03 6.2549478414445931e-03
653 -7.4461846243466039e-05 8.3728150641166092e-04 8.3614788457346510e-03
655 1.5080020260669188e-03 -5.5362278590723197e-03 5.6386063583057809e-03
656 4.6274953555884134e-03 6.9554779029131347e-03 4.9891787872345357e-04
657 4.9270284293257219e-04 -8.6218189294134430e-04 -1.0423416495158025e-03
658 -8.1153128939706366e-03 1.1899561102705445e-03 4.4461988988474532e-03
659 -2.1515231015325894e-03 2.0480400347884886e-03 -3.3859103259024736e-03
660 2.8155600960805326e-04 -8.2762126694747818e-04 2.7600234030789338e-03
661 -1.5967507181297164e-03 -7.5545271230756965e-03 -1.0304529337720877e-02
662 -3.2223251102249007e-03 -7.4110623695850600e-03 -2.2517079715681189e-03
663 1.8480196721389268e-03 2.1387123309192287e-03 8.8173745748703312e-04
664 -1.8170851766192446e-03 -8.1427671736818065e-04 -2.5420020442731524e-04
665 -6.1447984768886604e-03 -5.1572119581514237e-03 -5.4109979829805536e-03
666 1.4114802050128287e-03 -1.5565112600073462e-03 5.7843250370833450e-03
667 -4.8990370601294838e-04 4.0647728140728789e-03 3.1606441883670609e-03
668 1.8431067282963960e-03 6.7305950630964419e-03 -9.9916325257959826e-04
669 5.0075011934993443e-03 -1.3198285449915754e-03 -7.6125740216054253e-03
670 2.9464208793451622e-03 -3.3003061085452993e-03 -7.4006992106005589e-03
671 -1.9280434777975346e-03 1.5373766896677516e-02 5.3325809814301888e-03
672 5.2635357020167483e-03 2.4972339471426926e-03 -1.3484140659988178e-03
674 1.9279172384853284e-03 -4.3421652069215045e-03 3.3172587458294355e-03
691 -4.2556259089657827e-03 -3.7183307314194490e-03 7.7297497891651180e-03
695 5.5987408022453574e-03 3.2762263968274495e-03 9.7861515001331081e-05
697 3.6064376802720185e-03 -4.8155205706379841e-03 1.4490786633829878e-03
698 1.2763237903452816e-02 3.8965900077668242e-03 -1.0414256103316302e-03
699 6.0750101383040241e-03 -7.5187406827922866e-04 -2.0822228559798329e-03
701 1.7074716201221344e-04 1.7210656036131845e-03 -4.6151688666077537e-03
897 -2.7717443618652314e-03 9.2967623510897528e-03 -3.7724614696911440e-03
900 3.4747258928569417e-03 6.5873195219959329e-03 -3.5211444957567242e-03
901 -5.9174714122547749e-04 -4.9641303016320706e-03 -2.2419791923739278e-03
903 3.0156561586067464e-04 -2.1676837212631981e-03 -2.4214477438412327e-03
904 -6.0633699036114095e-03 -7.9615123403030084e-03 -5.2199666352366093e-03
906 -3.3944522507187535e-03 -6.2835945781536274e-03 -1.5272547586255452e-03
911 2.6712192262280378e-04 -3.8036000330524851e-03 -6.1418203006567446e-04
914 -1.1730192111278454e-03 -4.3997113482409280e-03 7.5503637382234379e-04
915 -4.1666771392698384e-03 1.1561994374918304e-03 -7.8936933717845097e-03
918 2.6624500573899654e-03 -4.1650339941976732e-03 8.5419065969167558e-03
919 4.6306312902162774e-04 -7.0454537708471397e-03 -3.7924577249109775e-03
922 -2.1727169570657521e-03 -1.6582530703328532e-03 -2.0059417732821519e-04
923 4.2906455672918533e-03 -6.3922336921374869e-03 -2.4571610247347401e-03
926 -1.4132378640198268e-04 -2.5864289074402180e-03 1.0640423084317596e-03
927 3.4710172023883569e-04 2.8598596230603479e-03 1.0453789085663901e-02
930 -3.9879039059126497e-03 -5.7585971521144173e-03 -4.8816199986333108e-03
953 -7.9799657746077654e-03 4.4177780877246720e-03 -3.3865440932111285e-03
957 2.9403210173101625e-03 -8.5440663894759336e-03 2.0678499420822257e-03
419 -1.2097153617570324e-02 2.9334276417263294e-03 2.2381639408295762e-03
446 4.1061807897069987e-03 -5.4462344350799403e-03 -9.7335724620010600e-03
447 -1.3439239050078873e-03 -4.9583029266978161e-03 4.6249389342952775e-04
450 -1.0805097754261826e-02 6.0304254774524776e-03 -7.3814475586684736e-03
451 -6.4571079782829010e-03 7.0025628379277467e-03 3.3637327034774615e-03
454 -5.9640929149441932e-03 -3.8456498053679464e-03 2.3947168062403400e-03
455 6.6252971541068224e-03 -9.9804874542650645e-03 -2.3614074056295532e-03
458 3.8680124527385542e-03 7.3148625491265256e-03 8.0096364801245674e-03
461 -1.4987220869515155e-02 7.5026096878399850e-03 -1.1305483854549381e-02
493 -4.4284664190784341e-03 1.6530972858802243e-03 -1.3258211156846539e-03
497 7.6980338780218028e-03 5.7262727213846232e-03 -1.2020239118255580e-03
500 8.3672859260501570e-03 -2.5920988583346641e-04 3.8049959740313970e-03
501 2.5644164309448266e-04 5.0475594264399537e-03 -9.5233226540132924e-04
504 -1.5485322794367751e-04 -3.1403128780594369e-03 -2.8754355579720058e-03
505 7.3405582668579377e-04 -6.5043411157998787e-03 4.3923423512887382e-03
673 7.1260199103466925e-04 -7.7390648840525234e-03 -4.5622530432358980e-03
675 -1.2822559113230452e-04 9.7659143131965925e-03 9.8425095609898979e-03
676 1.7511149814636810e-03 1.5209742868110172e-03 2.6195470770504037e-03
700 7.1573419395022184e-03 6.9060824887860316e-03 -4.2595142481842577e-03
702 -2.1507960216329684e-03 -3.9320510096407914e-03 -4.2839808880038178e-03
703 -6.3633594577800021e-04 5.9689599475987072e-03 4.3557786647374676e-03
704 5.0472094951962299e-03 -4.9167454108697221e-04 -8.1847986439250061e-04
705 -8.0245865600836828e-03 -4.3410889183330874e-03 4.7075969450317600e-03
706 -4.6846129230893968e-04 -1.1705251954945259e-03 7.4415395021861473e-03
707 -9.8149663419904516e-04 -1.5254595499377530e-04 -7.4013939223521784e-04
708 1.1353546716306822e-03 -7.0033121811194478e-03 1.0042143656327808e-02
709 -2.8001441435206680e-04 -1.9842064853794949e-03 -3.7427772551273811e-03
710 2.0879063063309637e-03 3.8514452687932197e-03 -2.8190357478574167e-03
711 6.2925427438113839e-03 5.9330018783143972e-03 -6.0685135149121565e-03
712 -1.7632415628257717e-03 6.5998848697694148e-03 -2.7100504212391897e-03
713 -6.3359279351042665e-03 -1.8263444366193107e-03 -1.8380834056429720e-03
714 -5.2009183991494684e-03 8.1085433603703596e-03 1.6878710385135462e-03
715 8.1318743134183042e-03 -5.7091397711879089e-03 3.0414025826320293e-03
716 -2.4670288857142324e-03 2.4481564508083403e-03 -4.2881355604908661e-04
717 -8.7895500893825397e-03 1.6334415892417192e-03 -1.7170305012114335e-03
749 1.5649833580278636e-02 8.0738921173698474e-03 -7.4800372844283950e-03
753 -8.7900029213430313e-03 -6.4062069506357084e-03 -1.5751571878295937e-03
755 -4.0135141866989019e-04 5.6678951765487852e-03 8.7403551743088451e-03
756 1.2536619720818197e-03 -6.2173214330383921e-03 -1.1304167786869979e-02
757 -4.8158119689674394e-04 -4.0979597972303364e-03 -7.7598068963053877e-04
758 3.6112542583280620e-03 -6.5236223959162639e-03 -4.6853337144876763e-03
759 6.3145024330060091e-03 -5.6172095513771841e-03 2.9217863837296102e-03
760 2.5580656439135144e-04 -1.5699872587849122e-03 2.3351894314468527e-03
761 -6.5382656889889966e-03 3.1194910015277899e-03 8.6093985321672173e-03
763 1.5242740441275681e-03 7.0058637852352069e-03 -1.6844267192506512e-03
929 3.6690956087874669e-03 7.3279305682799837e-03 -9.1702080404450453e-04
932 3.5739216640007228e-03 -3.0244526238453074e-03 9.7725621982113799e-04
956 1.3404935147441931e-03 -1.0780003920826448e-02 1.2410827012421337e-03
960 -2.0452193958119627e-03 -3.1568592122788088e-04 -2.6445098507352450e-03
961 1.0593579650795607e-03 8.9557012685637961e-03 -2.7091731152126151e-03
964 3.8333109685224115e-03 1.3606643468549602e-04 -8.0240124899882050e-03
965 9.8912188970179868e-05 -1.6961671883505508e-03 -1.0954416712827683e-03
968 7.7724518261470454e-03 -4.9735346039827657e-03 6.4128409328291936e-04
969 1.4287437231702900e-03 -5.7069252918831442e-03 -2.6742188044431882e-03
971 2.5845329277495426e-03 -5.1433272763298978e-03 -3.6086221486043520e-03
972 5.7812940993945804e-03 2.4726852988393093e-03 3.0432010764043561e-03
1011 3.2491129028133689e-03 3.5356761194008080e-03 -1.7407678778715741e-03
1014 -1.7983802328028244e-03 -5.3290565586358706e-03 -3.6522205640755409e-04
1015 -8.6255621766368369e-03 9.0973227643384555e-04 3.4305381042845861e-03
1019 -4.0963653746304615e-03 -8.5020130791679440e-03 6.6011983057719902e-03
508 -4.9712333835890349e-03 1.3428377081765430e-03 -7.0329636507204651e-03
509 -4.8535186887086667e-03 -6.7034594639571576e-03 -1.5295209980694905e-03
512 -6.9040124612066952e-04 -4.9820891983248490e-03 5.9396207586261338e-03
513 7.6345307008773605e-04 1.7380696996690996e-03 -2.7027542975423687e-03
516 1.5152319556282015e-03 5.0043829463123973e-03 -9.0284900923112837e-03
519 -1.8800768799156656e-03 -6.7900238677253983e-04 2.0538503757169626e-03
557 -2.2892002939440895e-03 -1.6154257850644156e-03 -2.0206343763007522e-03
561 6.0347250831167864e-04 -6.0484081877067511e-03 5.9250436059548849e-03
564 8.1588199004522608e-03 6.8935143721135204e-03 -4.2433512340056996e-03
565 -6.2156129321316363e-03 -6.8274557435969003e-04 -2.9235439095422569e-03
568 -3.4043738948287528e-03 4.1511818848323058e-03 2.4519043847498049e-03
569 6.8622885527808170e-03 -2.9267494110260333e-03 1.0360640348226196e-03
572 -1.4459442749040221e-03 1.6088263559922973e-03 2.7809041666703635e-03
573 9.6500117843799898e-03 1.0572278767279189e-02 -1.1204523491445801e-03
611 -8.5014685181658781e-03 1.0847298203208620e-04 1.9439970497124616e-03
718 -1.8563867994088761e-03 3.7367248874066068e-03 1.6361996207375949e-03
762 4.2461526413269668e-03 -1.2965829596300895e-03 -3.4011105043959258e-03
764 -3.7881587041878489e-03 -9.5848134933109227e-03 9.3317731024717180e-04
765 -1.0029148444316209e-03 7.1667984632227204e-04 1.5386674612514234e-03
766 -1.9124300509518633e-03 1.8781407462427268e-03 1.0574065319282069e-03
767 1.8688993331860840e-03 -1.7830447573178557e-03 2.9380972179482087e-03
768 1.7420005767891094e-04 1.2171967893588145e-03 3.5989413526190703e-03
769 -8.8515797986427665e-03 2.9446728937409000e-03 -4.1534461032308734e-03
770 2.1193570023875461e-05 5.6801595533236141e-03 7.7358010762427747e-03
771 1.3684259464316626e-03 -1.8516721839637916e-03 2.6882512320990392e-03
772 2.0000526746109934e-03 -3.9427240000704066e-04 -1.5897031459889365e-03
773 2.6561164570211271e-03 -2.3454229741125413e-03 9.1997029706450493e-03
774 5.8826696215104812e-03 1.3261379591610254e-03 -1.0545668803121357e-03
775 -1.3487453494519985e-03 6.7151814627986152e-03 -5.2072872716550315e-03
776 -5.3140612946742214e-04 4.0811183048760011e-03 4.8320256893851082e-03
813 5.0067478040026411e-03 1.3103518091859889e-02 -2.9342804938052784e-03
817 4.2830459220724609e-04 2.6493588717497905e-03 -5.6443357767009083e-04
819 -2.8646252261952210e-03 -4.4278087876692719e-03 9.5909830962580993e-04
820 2.4278808141013943e-03 -3.3331802447256740e-03 -9.5606821968545214e-04
821 3.2004133006949239e-03 7.0232929328958079e-04 -4.9037208958233785e-04
822 -9.5376342314796263e-05 2.5379920107433877e-03 1.9521533630417293e-04
823 -8.1158853163478296e-03 3.0065940451192642e-03 -2.7658461809608901e-03
824 -2.8247958505778683e-03 3.4298390190718210e-03 3.6298351771226487e-03
825 -9.1639093397383696e-04 1.6081404703790769e-03 3.9812085508056556e-04
826 -7.4739188150211723e-06 4.1572140661387301e-03 -2.9084076966807478e-03
827 -9.9001846665889084e-03 -3.7859284025115454e-03 -2.5204845837165325e-03
828 6.7202752949713457e-04 1.3566092664108933e-03 -4.3658379676455228e-03
829 -6.3887420172326174e-03 1.6079703745371949e-03 -3.6572393750789579e-04
830 -3.8681316362003848e-03 -2.0648982412363420e-03 -6.0844697007004355e-03
867 -5.4281844737156409e-04 1.6465372362540307e-03 7.6331301850874837e-03
974 5.0504132671617798e-03 4.8533821068389438e-03 2.3280387075760335e-03
1018 -1.3114355512423631e-03 -5.9539692755198031e-03 4.1682026611377246e-03
1022 -1.0375914655631109e-03 2.1034472193051626e-03 -2.4211606686124119e-03
1023 5.2211918275929864e-03 -7.0317151354135261e-04 -1.7256246235628956e-03
1026 5.0419635226804161e-04 -5.0377850988572964e-04 -2.1261589299031162e-04
1027 -3.5332836005957549e-03 -9.1119142475810683e-04 3.1095818652702691e-04
1029 -5.1865189825520252e-03 -2.3684455661286794e-03 -1.5956949456679556e-03
1030 -3.5687654215970895e-03 -2.1070147399719309e-03 5.4264674886956429e-03
1032 -5.8946293523484917e-03 -2.5142874680556160e-03 -3.5256037076348130e-04
1075 4.5763457834276551e-03 -8.8201410807612433e-03 -6.3724197376167817e-03
1078 5.2190178207295133e-03 -3.9307623565036491e-04 -4.8104429549162258e-03
1079 2.2624731443217755e-03 8.1285407532969145e-03 3.6452661481494423e-04
1082 7.1474414553770590e-03 5.0211494220549690e-03 -8.6271719056497179e-03
1083 -1.9769788833719827e-03 5.8492977824302090e-03 -9.0785180425924708e-04
1086 -2.7428263590510240e-03 2.0599307729858704e-04 -4.2535804788874270e-03
396 -2.9048697957140012e-03 -5.9204119431199740e-03 3.2105901557931350e-03
423 -2.5190386024795878e-03 7.9819511821388606e-03 -6.6980601749686893e-03
426 5.8262131096412425e-03 -5.2539284450018797e-03 5.9864037297903475e-03
427 3.2829168790919957e-03 1.1415608916939466e-03 -1.0694960611383056e-03
430 -5.6192197486367400e-04 9.9273684543391000e-03 -6.8585173624944012e-04
431 -8.0345668921296689e-04 -3.6724909102512594e-03 -7.0644014788174229e-03
434 1.0103176612197404e-04 3.8156130228502263e-03 2.6950252135535644e-03
438 4.6393090599299771e-03 8.3402870737704585e-03 1.4876992798901047e-03
477 -1.8611927666581877e-03 -1.2573272294254738e-03 -1.4404244489559217e-03
481 -3.3693625555090874e-03 -8.6561332931867352e-03 1.9490622208359878e-03
484 -3.1178995879595551e-03 7.4992287509170951e-03 -9.0017959648626897e-03
485 -6.9652981166184959e-04 -1.7602406292959007e-03 3.0516038729495854e-03
651 -4.7389646241244119e-03 -3.0698844308615059e-03 5.7615511345688467e-03
652 5.5033247803222976e-03 2.0056649923128086e-03 -4.2483444477396702e-03
654 1.0448783554665437e-03 -5.5007335219825464e-03 5.3217135317582681e-04
677 1.0836891400872978e-03 -4.2557819697358950e-03 -3.4934113870218257e-03
679 -8.4106458501437935e-03 -3.0774065243745746e-03 7.5846264045167757e-03
680 -2.6305676314118086e-03 -2.4545933076515593e-03 1.4032417941720373e-03
681 9.0326746879479337e-04 2.7670350911863490e-03 7.5152102149246194e-03
682 9.8725754002814518e-03 -6.5304377228392807e-03 -2.1151139583537593e-03
683 -2.3288090719374784e-03 -2.9705366438629510e-03 6.5667284471033309e-03
684 -1.9008064647520323e-03 6.3419569701841103e-03 -4.1640773406261388e-03
685 -5.0669358505776715e-03 -2.3980248866239929e-03 1.1884291057200116e-02
686 6.7656109113791005e-04 -2.3538864778219256e-03 -7.2428945827046993e-03
687 6.0474151365044054e-03 4.8215439547546232e-04 -3.8768232191707598e-03
688 3.3662592961937726e-03 -1.2022060083164294e-02 9.8023662266734351e-03
689 9.0661906705926023e-03 3.5557839224261748e-03 9.1916868211579291e-03
690 1.3146834559799368e-03 -2.1069739961556370e-03 8.9138621839452412e-04
692 -4.6856760077774104e-03 -7.5616298539907967e-03 4.7539014031226746e-03
693 2.2301277156831860e-03 -7.8697669550759541e-04 4.1709865419437874e-03
694 1.1835969084365045e-03 -1.9831050442908238e-03 -2.5025748972542961e-03
696 6.7943983196852194e-03 5.3090995533016097e-03 -1.1560463450994081e-02
731 1.0086634725291491e-02 -5.8063339159687049e-03 7.4908837024840981e-03
733 -7.4340538313662075e-05 -2.1888695902293766e-03 4.8959056612168554e-03
734 -2.3664109371113679e-03 -4.2307351682100965e-04 -4.7601091056934004e-03
735 -3.4706293201306262e-03 -1.2536682839136219e-03 -2.9709669598945929e-03
737 -1.2340952875413928e-03 -1.6352013592505212e-03 1.0367251625426910e-03
738 8.6602884863411986e-03 -6.9229246482746293e-05 3.4639772465459512e-03
739 -4.2690246403199669e-03 2.5367091480892811e-03 2.8545440697867836e-03
740 -3.2671129161732865e-03 -3.7458798657672315e-03 1.8657720838605352e-03
741 -2.9419301809987738e-04 2.6777983080227869e-03 -2.4804534919559027e-03
743 -1.1577174552881819e-03 -6.1180316596354907e-03 -4.5130483745859798e-03
907 7.4950567285350942e-03 4.2201816504501425e-03 4.3933608334654874e-03
910 6.0482850197760224e-04 -3.7653323528117353e-03 -4.8083638625986197e-03
933 1.9296945662767161e-03 -4.0952269995945577e-03 -1.4169919929424538e-03
936 -3.4685415604712763e-06 -3.4720517181811329e-03 1.1133148904385038e-03
937 1.1708438411921138e-03 5.2521093611712939e-03 -7.9611088347765879e-03
940 -7.3228714626561312e-03 -4.5833354478588160e-03 -5.7908289446864528e-03
941 2.2315459611604469e-03 2.2533439093513673e-03 -6.8626751819984323e-03
944 1.1201650451868720e-03 -2.2024015503247438e-03 -5.5152712972821229e-03
945 4.8267582232251565e-04 -6.4890005448128042e-03 -9.7072097900239413e-04
948 -6.7333890303717565e-03 2.5402081017660803e-03 -2.2394086592826103e-03
949 -5.5311005843550220e-04 -8.2830151994391019e-03 -7.9060199305998630e-03
952 1.6546096804951815e-03 -3.0771500538085907e-03 -6.6817914472116977e-03
987 -7.3934764911542234e-04 -5.9593872536046078e-03 5.7675290704827724e-04
990 -1.9049306641059334e-03 2.3406167199239132e-03 -3.5564003796271135e-03
991 -7.8452755670036303e-03 3.1277608166836294e-03 -1.1263535829649732e-03
994 -5.4719534768579887e-03 -2.9003313563842406e-03 6.1676102840971013e-03
995 2.2687202348131881e-03 1.9268048984770463e-03 -6.5001074056721241e-03
999 -5.1314353488509171e-03 1.3877278640945570e-03 -7.1996369277026045e-03
488 1.0491383274258621e-04 6.8244294563538687e-03 -5.6532426969581329e-03
489 -5.8144074140728899e-04 -3.4144216677296779e-03 1.3388701249554197e-04
492 -3.2433988285430725e-03 3.3818255836674384e-03 8.2122029271723598e-03
496 3.0472374585302467e-03 -5.2699311279669966e-03 2.5567217103733132e-03
541 1.0427248336119996e-03 1.6112921585024803e-03 -6.0874141466617506e-03
545 3.2196173552042338e-03 -1.1753141554678944e-03 -8.3516503677399725e-03
548 -6.3571873994463426e-03 1.1507872872205343e-04 1.4738814206091268e-02
549 -2.4550288008356562e-03 4.6822903774204996e-04 -8.7751355032096535e-04
552 6.7678600233645417e-03 -8.9083505762149809e-03 3.2173245038212748e-03
553 1.2135589784731194e-02 -4.6251254666795690e-03 9.3098308943033686e-04
742 -3.9286364782303829e-04 5.4978983265732842e-03 5.5050989257616817e-03
744 2.9985321354981741e-04 1.4834248204117760e-03 7.1874241911463830e-03
745 -7.3269170283278449e-03 -1.6613644691688470e-03 -7.4687286419625907e-03
746 -2.3691035820591643e-03 -1.7648094418397742e-03 5.6077550939906771e-03
747 -8.7550334849861369e-03 -4.2409536456651043e-03 1.2633727603883046e-03
748 5.9337347985458947e-03 8.9032910231881882e-03 -1.0713950723147659e-03
750 -2.9849412238576335e-03 2.8016328800584927e-03 4.1842909169600645e-03
751 -3.6325847275373324e-03 -2.6358470079074934e-03 -4.8914613582246892e-04
752 1.2319848649950890e-03 -2.3247252426833001e-04 -1.1704904489968527e-03
754 -2.6647215192194401e-03 2.7774803926581115e-03 1.0010105933908275e-03
795 5.4376440528720968e-04 -5.0873860294974754e-04 -6.9021337413825339e-03
797 -5.8704987061850402e-03 -3.1086088160217455e-04 -1.3608356638871571e-02
798 3.5004515132402406e-03 -3.2632115112350380e-03 -1.0664793285828822e-03
799 2.0340548091265409e-03 6.9806798403548387e-03 9.4486592309869278e-04
801 -2.1870793111276460e-03 -6.5774932764130461e-04 -2.5532654877487107e-03
802 1.9583651290690797e-03 1.9227216103826774e-03 1.8985825748553519e-03
803 6.4193255401701821e-03 -4.6868223476556510e-03 -2.8736367618142932e-03
804 2.5973606866935032e-03 -4.0361784335578143e-03 -2.6171052500152977e-03
805 -2.9471636630831605e-03 -1.3317072779616655e-03 -1.1521325755636512e-04
806 -1.0717645036414045e-02 4.9053793271886951e-03 -4.8059154458011781e-03
807 -2.3047126513542665e-03 -3.4257624135276450e-03 -3.3129732011056502e-03
808 5.4027639881536584e-03 -1.8982611385785662e-03 -2.6439414285288352e-03
809 -2.5308062440486585e-03 6.7755736486430429e-03 6.6297193394208639e-03
811 7.9675522078295723e-03 -8.3910786357494129e-03 6.8909288191829087e-04
849 -4.0750098568761786e-03 6.7969261139606092e-03 -2.7437900509801575e-03
998 2.1376813064989376e-03 -5.0043854232989645e-03 8.6223216662831351e-03
1002 -4.1371845763919814e-03 -9.0795455848221912e-04 -1.8285843963267644e-03
1003 1.8295431129843180e-03 2.7236872060916011e-03 -4.2505742891718844e-03
1006 -1.1059115371605131e-03 -5.9399512324268423e-03 -5.2473635310900735e-03
1007 1.6417495104614605e-03 2.9564491916508561e-03 1.1127949254211248e-03
1010 -6.6728414224030141e-03 -8.1790839689994770e-04 3.1640501751011092e-03
1051 -1.5055027518454151e-03 -7.1073445745551810e-03 -5.3702334231803938e-03
1054 -1.5513241966052531e-03 -4.6157790040334684e-03 2.0857291703211250e-03
1055 6.4906694653780721e-03 4.2135364581991925e-03 -3.7451178269427817e-03
1058 2.2057689863228805e-03 -4.1496059358454582e-03 1.3965881083204497e-03
1059 -7.4558657798805370e-04 5.2185753347544842e-03 -1.1095320714336556e-02
1062 1.9694089811662938e-03 -5.3388227203237217e-04 4.0219397810973504e-03
1063 9.6917201350761924e-03 5.5272758023104584e-03 -4.7635444471095800e-03
1067 -5.9517410907904290e-03 -4.7956936680465974e-03 -7.3771440436512046e-03
1105 6.7843332267572970e-03 3.0657148972218651e-03 3.5075177901034696e-03
556 9.7464453326499357e-04 6.5657320440477345e-03 -3.9135882845550869e-03
560 2.1521036245160199e-03 -3.4672374609201482e-03 2.9503674912469630e-03
595 -7.5836546851247872e-03 -2.8538165829268473e-03 2.0694667674833866e-03
599 6.3468303682952662e-03 1.3826991654181039e-03 -8.0003755287430985e-03
602 -1.4958193250504930e-03 -7.6715459783186441e-03 -6.0688446877484956e-03
603 -6.6231935244025599e-03 5.6844507419734347e-03 7.4906466545553944e-03
606 -2.7839245768574326e-03 -4.5914558255341336e-03 5.0231888809490889e-04
607 -2.9934314522206498e-03 -9.2383394655915125e-05 -4.7769206427407986e-03
610 -3.0464832901965907e-03 6.7299515039139822e-03 1.3465558852310308e-03
633 -1.7998632500440689e-03 -8.1493925748828428e-03 3.4754885316916552e-03
810 -3.5232234458618724e-04 -7.1083739882419755e-03 4.6516466228073991e-03
812 1.4168677241073791e-03 3.8228849324247940e-03 -4.1414043116563088e-03
814 -2.9765965843079737e-03 2.3866554580170350e-03 2.1418925606142285e-03
815 -4.2464579636859853e-04 -2.2632746994674909e-03 -8.1188936494088360e-03
816 1.1482728350496539e-02 -5.2591408382049584e-04 -1.8360270793354447e-03
818 -6.9039266753379092e-03 4.4855890338077178e-03 4.0928247835522388e-03
851 8.2076381811974821e-03 8.6309941972431189e-03 -5.0535872387892956e-03
852 -8.6912128555175962e-03 7.6207487891283340e-03 5.5867839144377093e-03
853 -4.8183333909753605e-04 -3.3260621353305305e-03 4.6142269382624590e-03
855 8.1312279463458884e-03 -4.1630053729825641e-03 1.5421989997340519e-03
856 -1.3142227754069323e-03 1.4365943802190160e-03 5.6763907535159518e-03
857 1.0772348906051331e-03 5.0626669919254207e-03 3.4512721317137105e-04
858 1.4886384029984369e-03 6.5788772941860725e-03 3.4483364597362987e-03
859 -4.7048418263482064e-03 6.0741383650350029e-03 -3.5078297380258298e-03
860 1.3068094062240314e-04 2.5811941490742462e-03 -3.9444079190257145e-03
861 3.8320409662101262e-04 -5.9533672856172375e-03 -1.5633804523518934e-03
862 -4.5770859492466828e-03 -3.8957999872135363e-03 -5.4114520244801564e-03
863 -1.8185433080920455e-03 1.2486413246228013e-03 -3.9973070232293233e-03
864 -1.0470249644668607e-03 -4.7639273582516335e-04 -9.1452811661364426e-04
865 4.7920589185943890e-03 2.3563197317456991e-03 6.3578937360182115e-03
866 8.3991691687522341e-03 5.3331285201047400e-03 3.6060175567939542e-03
868 -4.8701760437848711e-03 3.0114286073685292e-03 5.8886149647829327e-03
887 1.4825355015115002e-03 7.6106195220301057e-03 8.9798876683004642e-03
889 5.4972865527648680e-04 -7.9099297584734978e-04 -2.8897945092629315e-03
890 -6.4576300166153990e-03 -8.5353797654970122e-03 -2.8220001239465681e-03
1066 4.3775782943515458e-03 3.9398237834549366e-03 5.9596039612584365e-03
1070 6.7033263216016645e-03 1.4067359153655304e-03 -6.3559741980502788e-03
1071 1.3525128633574181e-03 -2.3705928938922631e-03 -9.4657379616694599e-04
1074 -4.8201163746416743e-05 -4.8414274371034642e-03 3.3833012895578105e-03
1108 3.0065591108267764e-03 3.4772368706906443e-04 -6.8221114662657453e-03
1109 2.1098277910393806e-03 -2.7451394127718971e-03 1.5735822333097695e-03
1112 -3.5004821094541524e-03 1.9154990373534393e-03 5.3717661370475314e-03
1113 9.8922993031291366e-03 6.7054302124478719e-04 4.3636520964464272e-03
1116 3.7759177451395240e-03 2.6285643492092101e-03 -4.9890032525439524e-03
1117 -3.4837648329782704e-03 -1.9914767560835866e-03 2.8370146796772213e-03
1120 -6.2006158090449756e-03 -2.1373467131684410e-03 -6.3512754658858774e-04
1121 1.0234159225019268e-02 -5.9913853610830924e-03 -4.1387667072007124e-03
1124 -2.9126441282185029e-03 -4.4688276424844223e-03 1.1722726310279199e-05
1143 2.2396297008194397e-03 6.8094106198849521e-05 2.8656186867153828e-03
1146 2.2064461180244061e-03 -3.2326096763572801e-03 -4.6260907623112447e-03
422 -5.9411319672327630e-04 1.2868038694596530e-02 7.1711498770754610e-04
464 -1.3012319987937889e-03 -2.7172728984811625e-03 3.0006306620864815e-04
465 1.6049952155583973e-04 -3.5352786709822964e-03 -1.1718387768339003e-03
468 -3.3903379874593380e-03 2.7340807700616211e-03 3.2211788452516112e-03
469 8.2701953324730701e-04 7.3726967735063577e-03 1.0298798442209061e-03
472 1.1133594882559974e-03 -6.4898233043634099e-03 -1.5527991939505497e-03
473 3.8594174979580574e-04 -1.7077569959359944e-03 -1.9761127774539197e-03
476 3.5815202873864765e-03 -7.5928931969077348e-03 -2.2253165815835675e-03
480 -3.4996251171182076e-03 -4.1643930108462739e-04 -3.2991481493755371e-03
521 1.9051537434361355e-03 5.5426921060592847e-03 7.8496450391629252e-03
522 -4.0938325710315653e-03 -1.9047027567570195e-03 2.8431293903103030e-03
524 -4.8286025464235093e-03 -1.5585021901364166e-03 -6.9352017431955496e-03
525 6.9094739327332693e-03 5.3401097821270096e-04 -6.7232674800313938e-03
528 1.2856810347070342e-03 1.9365727876929882e-03 2.9528029650607709e-03
529 5.8745247769586232e-03 2.5446460731161670e-03 -2.7094454314331318e-03
532 -1.6121451765352267e-03 2.0173155744205064e-03 2.2821613356303339e-03
533 4.1648119646082563e-05 -4.2054805729452804e-04 2.0962647851333503e-03
575 -1.0875530303961509e-03 -6.7447840882240949e-03 8.1499422098545767e-03
678 -3.9189251519430651e-04 -1.3604690820554686e-02 7.2323273036359976e-03
719 1.4806576545631103e-03 -1.1241234116159103e-03 -7.5110664533396022e-03
720 2.1179610498406583e-03 -5.6079129826104484e-03 1.0708514412931264e-03
721 -8.4663535702180059e-03 -4.4868419391377798e-03 -3.7284966589628760e-03
722 -7.5254503108246296e-04 -1.3402194421876469e-03 -7.1895228465784224e-04
723 -9.6471912695136636e-05 -2.2981383501422363e-03 3.4069999193238943e-03
724 2.8664923312598199e-03 5.3474146109660494e-03 4.9887279620502087e-03
725 -4.8662484104461329e-03 5.5962452074910952e-04 3.0218367675007921e-03
726 -4.8378008086153411e-03 5.6514483272750125e-03 -1.0810981772891987e-02
727 1.3269782021907259e-03 -2.5615601348904682e-03 3.0193635040415326e-03
728 -6.3177481615690418e-03 3.3373697962824317e-03 -2.4449590653959261e-03
729 -2.8854909463290803e-03 6.6977934450600024e-03 3.7155918588536466e-05
730 9.3202153156268387e-03 3.3465245705335224e-03 1.6140381140911273e-03
732 -1.9898678859079031e-04 2.0805820095836317e-03 -7.1876765628695548e-04
736 -2.4249789875162861e-03 -1.1535986666932105e-02 3.8907790557872238e-03
777 -5.8414085425587499e-03 5.3784663160176679e-03 -9.8390467257337836e-04
778 1.2768817279947533e-03 3.1480098156348411e-03 -6.7570142064461505e-03
779 2.7729996299291593e-04 7.4298390897953696e-03 1.5622156811744520e-03
780 -4.1079445795801896e-05 -1.8002517065322282e-03 -4.3660493489394783e-03
781 -1.3816260984319451e-03 6.8654267635193441e-03 9.3114386790696434e-04
782 -1.2458041656072570e-03 -2.5034986938478419e-03 5.0028769408336365e-03
783 -2.7867887389982503e-03 5.0277351753386448e-03 1.8998711757786805e-03
784 -2.4088265224326681e-03 1.0195216352216533e-03 -6.6510086290012711e-03
785 1.8900352023899047e-03 -2.0993953471446047e-05 -3.5762482611180900e-03
786 -3.9164554888054606e-03 1.1839950088047859e-03 -8.3891650593636881e-03
787 4.1195930380643958e-03 6.4205513147981537e-03 4.1146268111534288e-03
788 -1.8194699703341945e-03 3.2600235225462510e-03 -2.8449623464105404e-03
789 2.2489451835159772e-03 -3.4791908548408679e-03 -4.8771588483485940e-03
791 -3.7316881040843600e-03 -1.4473951922252047e-03 -1.1036450010949208e-02
831 3.6646984837330218e-04 -1.4507445170090147e-03 -4.6285724085711830e-03
975 -1.1103885088707580e-02 5.1832749584662481e-03 -6.2086363306132373e-03
978 1.0065342842653542e-02 -6.6464717349689869e-03 5.0040163316915345e-03
979 3.3553267162869682e-03 2.5528476317562666e-05 8.1389871169964319e-03
982 7.6547783705381818e-03 4.5458518639974275e-03 4.9203527837352271e-03
983 1.7609924081763242e-03 -5.8467134235322066e-03 -4.6733104249830808e-03
986 -9.5957341631417691e-03 -5.8781983752477247e-04 -7.9873107546300399e-03
1035 -6.7467103004855795e-03 -8.8688068374356127e-04 -6.6834530675558427e-03
1038 5.7409684224481771e-03 -6.4661214857929016e-03 -1.3768072145464755e-03
1039 -1.1569789065659150e-02 6.8049727185432261e-03 3.4472496261535437e-04
1042 -7.5412275118611589e-04 2.9308881368059841e-03 -2.2975367537021022e-03
1043 -9.7899332009729213e-03 -3.3018472648739480e-03 -9.2345098330844793e-04
1047 3.6713635103136489e-03 -3.5337697525413860e-04 -6.5380253197706859e-03
536 1.4169712125618379e-03 -3.2299561798605402e-05 -7.9830577614394861e-03
537 -3.0064935413289416e-03 4.1312809820175057e-03 2.2670864265005816e-03
540 -4.2216529998622277e-04 -4.3755484405941245e-03 -1.5822637489738471e-03
544 3.4627890680509967e-03 4.8172948748441986e-03 -5.3013900809650910e-03
576 -1.8698200739205139e-03 7.9225766875529770e-03 -8.7693942405725782e-04
578 -2.1706112714602057e-03 5.3629688230737204e-03 1.2336441408992648e-03
579 1.9271100356939618e-03 5.1207675097282440e-03 3.5955029655966009e-03
582 -8.4818694075416328e-04 3.1712326668254152e-03 6.2870864851754743e-03
583 1.9450598726940677e-03 -6.1207197906348329e-03 -8.3260121213821073e-04
586 -7.5259038890600760e-03 8.0861441863806522e-03 -1.3866101303008328e-03
587 4.3879331943160920e-03 -5.9827959153223361e-03 -6.6157560735211314e-03
590 -2.6214874471615704e-03 5.9342506577636477e-03 -3.2916152937437970e-03
591 5.1047377399565594e-03 6.0612206959905776e-03 7.4853574025841928e-04
613 2.7795698616444745e-03 8.7884859382306325e-03 6.8900217022043637e-03
614 -2.5156868495303806e-03 7.7432540879440585e-04 -7.7642258905841308e-04
790 -4.5917311393023613e-03 -9.1170626259417761e-04 1.0287612694177832e-03
792 4.7761026892992869e-03 -2.6506623879530419e-03 -4.1703501498080355e-03
793 5.6289259199445232e-03 -3.5895682203575989e-03 -2.0327775005269002e-03
794 -7.1552417852703259e-03 2.2333173437782037e-03 1.6017034703186314e-03
796 -2.4211843286481940e-03 -1.1757054599761846e-04 1.3881626393764700e-03
800 4.9335409427624247e-03 -7.6405060942744260e-03 5.3843647495991215e-03
832 -7.3823521017418398e-03 -4.4427636828531627e-03 6.5515495446964167e-03
833 -6.9519509172260097e-03 -1.3881753067865729e-03 -9.5561746257564195e-03
834 -7.7945424025755265e-03 -1.1977424781033335e-03 -3.4307767952284625e-03
835 -1.1793279710691352e-04 -1.0683487804330088e-03 -7.9878997213697397e-03
836 -4.3839268441822508e-03 -5.3981401695229617e-03 2.4797090453624378e-03
837 2.0872679751044198e-03 -1.4214187477898932e-03 2.7584777618663969e-03
838 3.4434051718058899e-03 -1.7459675318071263e-03 4.3946183204574309e-03
839 3.1351344995611758e-03 1.8681010064558793e-03 1.0677988516749151e-03
840 -9.7845729666946255e-03 -1.6564771805400804e-03 -5.9760373743602260e-03
841 -6.4986586151445907e-03 1.0902809062274902e-02 -3.3209244468974529e-03
842 5.0776681972003329e-03 3.5155389629775748e-03 5.0319092457243491e-03
843 2.4381747897961182e-03 -1.1607709240529858e-03 -2.2746919868857447e-03
844 -7.3283325606560978e-03 7.2498731754037423e-03 -1.2729067580935980e-03
845 4.7287616706871564e-04 5.8347760076993627e-03 -1.0131411740808146e-03
846 -1.3096989133515521e-03 -2.1558444009490128e-03 1.8673663702518156e-03
847 6.6701407534935998e-06 5.9881985222270950e-03 3.4514067132561258e-03
869 -5.3314459513927230e-03 -6.5874620117102826e-03 5.1897286552136275e-03
870 -1.1291400375357942e-03 1.4484577488275607e-03 3.2413517209786396e-03
871 1.8801551733560252e-03 -2.7741797171101407e-03 4.9684016144104608e-03
1046 1.2519944632217715e-03 -2.9413950489669133e-03 2.6250841195859394e-03
1050 -2.1423760165515549e-03 -7.1395662075855711e-03 -9.5986191134191285e-04
1089 -3.3388630764542519e-03 -1.1520957568215676e-03 2.0871143771194283e-03
1092 6.4725340457719429e-03 -1.0027408843508773e-03 1.7657861062933993e-03
1093 -2.7067726677660418e-03 -7.7229130588818494e-04 3.5163843007498885e-03
1096 2.7541464823633123e-04 1.8856360459317883e-03 -2.5397620894531520e-03
1097 -1.9670444440986973e-03 2.3555477216538717e-05 1.2236320869329833e-03
1100 2.4795205677312755e-04 4.0153514077854785e-03 2.4897884408116018e-03
1101 -1.2146514389130968e-04 5.1584464822020332e-03 -8.9763695418928618e-03
1127 -3.7510148518169750e-03 -4.8888734314708662e-03 -1.0064772619977515e-02
594 -1.9352019833619610e-03 2.8991880729244881e-03 -1.6911245356476679e-03
598 -1.1007480612996079e-04 1.5703896774562907e-04 5.1058654934657693e-03
616 -7.9046151235780474e-03 -5.1421729728813581e-04 1.5578083291191915e-03
617 -5.0131016895737998e-03 -6.8630574031632663e-03 7.4795718244740411e-03
620 -7.4113100361464356e-03 -4.9421192770809450e-03 5.3943324972330147e-04
621 5.5919345856658455e-03 2.9533821410048177e-03 9.0754437993343750e-04
624 3.4014063527239798e-03 -4.2181325127895585e-03 -1.2594702276332481e-03
625 -7.2640396033802953e-03 -1.4641156929500435e-03 -8.1449778811824999e-04
628 -5.9811257011403208e-04 -4.7186761495364169e-03 3.2451819960811461e-03
629 9.8747960874633354e-05 2.6529508390966714e-05 -4.7955862363514791e-04
632 -7.3165504319522342e-03 2.6781599927084144e-03 2.2628658766804866e-03
635 6.5849724625288231e-03 -4.0270969697757840e-03 -5.7237204111148989e-03
636 -2.5624379676274329e-03 3.8304185095012783e-03 6.7995612231495388e-03
638 7.3243674702331164e-03 1.1966102184610484e-03 -4.9088867339562850e-03
639 1.0140341774952103e-02 -5.9000496139435732e-03 -1.3116258969750165e-03
848 -9.1228017784990706e-03 5.0817854453593797e-03 2.3386676337377376e-03
850 -2.4965292409676249e-04 -1.5359039697116967e-03 2.2947810754775939e-03
854 8.2088520046527912e-03 -2.8104893281967998e-03 3.2988513698467038e-03
872 3.9015472867806296e-03 -1.0448222586667897e-03 5.2118291909008258e-03
873 7.2199085512036146e-03 -3.1653096722540461e-03 -1.1865525863172996e-03
874 3.8758835279903477e-03 -1.0331620962311442e-03 3.6109493087507073e-03
875 5.2912396309309027e-03 -2.4479315842422744e-04 -6.2800815293338980e-04
876 -7.9004816186557195e-04 -1.7663666002910659e-03 3.2219768475300558e-03
877 -2.4722724085174119e-03 5.0951619166120198e-03 2.1546098362854333e-03
878 1.1069738065619930e-02 -3.7395574453110564e-03 5.3914569853246034e-03
879 -3.0451957637391697e-03 9.6748535468798842e-04 -1.2622013148739361e-03
880 -2.5594636035315937e-03 3.9266067095762129e-03 -1.0898641349838763e-02
881 2.4231103070071328e-04 7.0268953727132310e-03 -6.6929695842489444e-03
882 3.5415508275888222e-03 6.8689331387639429e-03 -2.8490386115974718e-03
883 4.7924913567830366e-03 -2.8994179356841092e-03 -4.9771459069322451e-03
884 -4.4325710174507593e-03 -7.1390339758310491e-03 3.2459809360337682e-03
885 -6.0833567248900705e-03 -7.7898939273619867e-03 1.9747311469959228e-03
886 1.0088135826607117e-03 6.8257292630739238e-03 -5.3654455990995234e-03
888 4.2245305276976354e-03 7.5046142616225454e-03 2.6822626968157960e-03
891 1.1066734516320836e-03 -5.0437296179725319e-03 -4.0668436331919152e-03
892 -1.7283363147781359e-03 -1.6429654191539824e-02 3.5737985658759984e-03
893 3.8528406031882833e-03 6.1436246400661306e-03 -2.2737684264642439e-03
894 -4.1978401513550747e-03 -2.7565543812816903e-03 -6.1175352776150153e-04
895 -1.1481912969719425e-03 -8.5908841913684732e-03 3.4933986710661623e-03
896 -3.4026142972378407e-03 4.6297769921745903e-03 5.9259214282785758e-04
1104 7.8491738301660497e-03 -5.2087705711624044e-03 -2.6813150914902326e-03
1130 -5.5498488087655957e-03 5.0912420983482498e-03 2.2923050218389232e-03
1131 2.0542302473589543e-03 1.3220747601875335e-03 -2.3739730387904243e-04
1134 -1.3572136827686409e-02 -3.4132262591342685e-04 -2.8626892610204404e-03
1135 4.9016035014275939e-03 -8.5239439653272774e-05 8.5886335888069509e-04
1138 4.8158893294802723e-04 -2.2060352463082493e-03 -9.0630770047350311e-03
1139 6.7731626064329673e-03 9.4499950581586258e-04 4.8424162501505674e-03
1142 6.6581145818499958e-03 1.4606170513146327e-03 3.8143038440948411e-03
1149 1.7720703911336642e-03 3.1636294046744192e-04 -2.7024217396028104e-03
1152 -2.2369559082722635e-03 6.1709373561297078e-03 -2.4079757164066234e-03
898 -1.1506312926575654e-02 7.8629402312923745e-04 4.0713901522001234e-03
899 3.5109573376182848e-03 9.2440844894305411e-04 8.4939533322154290e-03
902 3.6791409862021421e-03 -1.9003251444380310e-03 1.6731855580725350e-03
905 3.3553240669709546e-03 6.6607243442119962e-04 5.8672215173785549e-04
909 -5.6159125729103076e-03 -5.6804773938805265e-04 -1.0089892442543371e-03
912 -4.6016731656953755e-03 -2.7003605080702072e-03 2.1175986661407845e-03
913 -2.1841423328492066e-03 9.1441547761322752e-04 6.2213837175000980e-03
916 -4.5507951284952941e-03 1.0954388293124338e-02 1.1946289087048450e-03
917 -2.2593976753302013e-03 -3.6610677798954690e-03 -2.7499309115214311e-03
920 -1.8878020808230762e-03 2.4038855419621212e-03 7.7190459704748618e-03
921 6.3933111715478372e-03 6.0851775095167038e-03 -8.8648839622067406e-04
924 -4.8853297942026488e-03 -2.4757803665656393e-03 -5.2007179663364680e-03
925 -4.5386605950858928e-03 -2.4257995089413792e-03 -2.2066980208514564e-03
928 -7.7650172968253698e-03 -6.8720628003546766e-03 -3.1616646119849664e-03
947 3.6162476971741495e-03 -6.4070883208614321e-03 8.0499640300255183e-03
951 -2.4931321812312404e-03 -6.0167391641446121e-03 2.2984351479935161e-04
954 5.0634605024930408e-03 9.2191883471105969e-04 2.6756074382294198e-03
955 5.5387202528004182e-03 1.4620112994867653e-03 -1.1645129508358128e-03
1153 1.2144834565092596e-03 6.2195881532461240e-03 -1.5375523295166930e-03
1154 -1.0197092373415860e-04 1.3289220889576455e-03 -4.1500339647188647e-03
1155 3.0330326817876872e-03 4.6240354047906822e-03 -3.9933931354465711e-03
1156 8.7331209510991669e-03 -8.2134009384108567e-04 -3.9525829624898643e-03
1157 -9.1421417130705632e-04 -8.0631823490470052e-03 2.8178365495500918e-03
1158 6.3350081783015363e-03 -3.1617601097404897e-04 -2.8367298307396963e-03
1159 -5.4305093679115235e-04 5.4951346563209148e-03 1.7329413221773200e-03
1160 3.6276189322714089e-03 -2.2998874183429523e-03 -3.5713327393104149e-03
1161 -2.9704211608976229e-03 5.5656916453146630e-03 2.9671594633177978e-03
1162 1.0304575632763236e-02 4.0377578457535881e-03 8.6346721227352052e-03
1165 -4.1820331822405871e-03 -6.8493875100647779e-03 -8.4864100273949940e-03
1167 -3.5566574478613426e-03 5.8049021670942931e-03 -7.8636479370464106e-03
1168 3.2685728086121603e-03 4.8229437516186569e-04 -7.5017956525972665e-03
1169 -4.7602842992794225e-03 -1.2363219958443704e-04 -1.4935286263409195e-03
1170 -1.7707321570644588e-03 4.5927842898891317e-03 -1.2841728029244620e-03
1171 8.3265613487634085e-03 -1.0778698356672970e-03 1.0193386385991895e-02
1172 6.9346232021151122e-04 6.8485565781723325e-03 3.1865833917741433e-03
1173 -1.7450101714872519e-03 -5.6197699228126225e-03 2.6366102539201134e-03
1174 -5.3234667953720553e-03 3.7460807195782578e-03 -4.1093771499352396e-03
1175 -1.0818035640992650e-02 -9.4853550468028645e-03 8.6042779490361748e-03
1176 1.5729507280616195e-03 -1.5405598715166294e-03 -5.0228373085060287e-04
1177 -2.0832569764793253e-03 8.3818566853758074e-04 -6.7725333783601226e-03
1178 1.1972826694672346e-02 -3.5811346980739490e-03 2.0910706783697848e-03
1179 4.0840533692245396e-03 -2.8042766672008580e-03 -3.4298768952019227e-03
1180 -2.2496974952393252e-04 -2.3710398852584379e-03 -5.7197237346314194e-03
1181 2.9343439651142536e-03 -4.2112798629857289e-03 -1.0372415225351027e-02
1182 -4.6424353609460286e-03 1.2717250488312671e-02 1.7360049251166794e-03
1183 4.4779117503326304e-03 -6.4067704190762121e-03 -4.2226471559529289e-03
1184 3.5043935633570960e-03 7.4451187038110456e-03 1.2448068782188119e-02
1186 1.2030824121314965e-03 4.4586657494178538e-03 -3.1892111004614408e-03
1203 7.3685022526806497e-03 8.5595367397912972e-03 1.1065429965322312e-03
1207 -9.0162826117373641e-04 6.6074490386307857e-03 5.2601859914544295e-04
1209 -7.8793663875797819e-04 2.2338814096429433e-03 -9.9278915289327595e-04
1210 -1.2024772389537222e-04 -6.6929262276652893e-04 -1.6777820130079511e-03
1211 2.0364559795778745e-03 -4.0606651417983636e-03 3.6042983168278367e-03
1213 5.2405985133608148e-03 -2.1261369427130113e-04 -7.8466676304634331e-03
1409 -3.2092639300301934e-03 -5.3306464183822009e-03 -4.1294611927976330e-03
1413 6.1893114285716769e-04 -2.1067824701759101e-03 -5.5257752422176664e-04
1415 9.4491464888473292e-03 -3.8000450021820529e-03 -1.1489590615958781e-03
1423 2.2817085833121368e-03 -3.3343417160848167e-03 -1.7846075635735792e-03
1426 2.2677522252464439e-03 7.6148230936243233e-03 6.1419040855649075e-04
1431 4.4646541478532658e-05 -3.4851405433690027e-05 1.5892740801054137e-03
1434 9.1131971334380158e-03 3.6088760889349380e-03 6.2189702769047187e-03
1439 -1.2181304454243001e-03 6.8550668907855312e-03 -1.2487582926942228e-03
1465 -4.7817169345437373e-04 5.7104661158555959e-03 1.7862865798768351e-03
931 3.8300734699166002e-03 -8.3764213679611414e-04 2.2192133255062654e-03
958 3.9158972920679651e-03 -7.8107837972253406e-04 -1.1739835924134280e-03
959 6.8459182202424448e-04 -1.6074126867329148e-03 7.6497950225375049e-03
962 1.0490763605814609e-03 -3.9112957140493339e-03 1.5440200451451612e-03
963 -3.5746055588648884e-05 3.5597414973378900e-03 3.0010819003835872e-03
966 1.9480021743070296e-04 3.2833977979988970e-03 -5.7987468197318063e-03
967 3.6981255928919795e-03 3.7962757507614044e-03 -5.5489442556147716e-03
970 6.0165593425470891e-03 -2.4842250298454916e-03 8.3951407795604619e-03
973 -3.1614137773906463e-03 8.3809562625830145e-03 1.1013744188069325e-03
1005 -1.4043692985245817e-03 1.5596803973367524e-03 -4.4785310071414047e-03
1009 4.8563132190236917e-03 -2.1087358049392798e-03 1.1327034078343916e-03
1012 2.5014984308915291e-03 -6.3030341775373363e-03 -6.0358964897707290e-03
1013 -8.7288415817362772e-04 -4.3995182126621369e-03 8.9384516712233929e-03
1016 4.9188053090119411e-03 -3.9906834949513890e-03 -7.2369010025972857e-03
1017 -6.1828206137453995e-04 4.9411533184576008e-03 -7.8775187952850982e-03
1185 -2.8670669121169841e-03 8.2147171966976047e-04 4.7163162438377546e-03
1187 2.9214272098139300e-03 -2.5077869730727718e-03 -4.4770572680147801e-03
1188 -9.3170719118328693e-03 5.8202056971855803e-03 -7.9709350641584233e-04
1212 -2.3389684011673397e-03 -3.4058360512835345e-03 -2.1985072401143103e-04
1214 -1.7949082291968258e-03 -9.8021035282645965e-03 3.8264162633713274e-03
1215 4.9133705814953365e-03 3.3214648171639681e-03 4.2653783889594395e-03
1216 -1.2101921622897369e-03 -6.3376762913620839e-05 -6.4374781029899412e-03
1217 6.5162150335142770e-03 -3.8151353303061755e-03 2.3364665678286923e-04
1218 -3.2431453870230748e-03 6.9837285518779628e-04 -2.3807073070175075e-03
1219 4.2698572199427362e-04 -5.9277327696581356e-03 1.1361038948009316e-03
1220 -2.7324439498828987e-03 -6.5458108375622956e-03 1.2416673795581617e-03
1221 -2.0151914776512093e-03 -3.6749164782168002e-03 2.7587561368879270e-03
1222 5.3550377211876374e-03 -3.9393141327649208e-03 3.3206026126419503e-05
1223 -6.4632153934746986e-03 3.2514308650101651e-03 3.0289463707656086e-03
1224 5.1350621533983775e-03 3.7750423516638813e-03 -6.6901004685204302e-04
1225 1.7394880760903978e-03 -1.1529074875557209e-03 1.0836999025056500e-02
1226 -1.4076306422508112e-02 -6.1773112432653692e-03 -5.7719414885103572e-03
1227 1.3852640203804989e-03 7.8632317398829032e-03 -2.5852720977277994e-03
1228 -1.0994907178472721e-03 4.4544630232958493e-03 -2.5026220892388693e-03
1229 3.0889672987358149e-03 -1.0400407727288021e-04 -4.4136615033493493e-03
1261 -9.2371253889097105e-04 2.8827730552859776e-03 -4.9660716566920626e-03
1265 4.0252645058464730e-03 2.3030627758249087e-04 2.7499312035742982e-03
1267 1.0359520325604190e-02 -5.2340542162399809e-04 9.3413164485111298e-03
1268 -4.5848439804498349e-03 -5.4070098335000424e-03 -7.4642229621205069e-03
1269 6.2775778722817064e-03 -1.7929840725698796e-03 -3.8188123811131514e-03
1270 1.1016635547677203e-02 -1.3227150755577995e-03 3.5505706618197868e-03
1271 -9.1355668372251498e-03 -2.3080340376198018e-03 -6.4821210783017448e-04
1272 -9.6361939303818412e-04 -4.1777447757631271e-03 3.1709366830398071e-03
1273 5.8806615355692041e-03 -2.5752287174647505e-03 -6.9106952714272319e-03
1275 1.1574672259085854e-03 -4.5018300053378396e-03 -8.7512439274302356e-03
1441 -5.3643912016005371e-03 3.5746682741917089e-03 -6.5199987339586681e-03
1468 -1.8215977116500881e-03 -2.7765214881493288e-03 -4.6722003788124480e-03
1473 1.0335107375360969e-02 7.1445537559258390e-03 3.5821444754184821e-03
1476 -1.4458147248441116e-02 1.6788427155590190e-03 -3.7931926984200791e-03
1481 1.1740041284471087e-02 -4.9277025062499039e-03 -3.7917462524698214e-03
1483 1.0796597041688803e-03 -2.6509886678165238e-03 4.8963571751248118e-03
1523 -3.2922627965123567e-03 -6.8029426645417378e-03 1.4302122591502372e-02
1526 2.5649848926494719e-03 -3.6074861891647338e-03 2.7325947368665310e-03
1531 -4.5172776501957237e-03 1.6506372005527944e-04 -1.7072064217587151e-03
1020 9.4936383094061105e-03 5.4368213887426922e-03 -8.2419384870756236e-03
1021 1.6467350641499398e-03 1.7137761782931157e-03 6.4227847847715845e-03
1024 2.8852550307892732e-03 7.7563464399036160e-03 -6.3183619737292767e-03
1025 -2.6931427308421311e-03 6.4475743056869751e-03 -3.6757936624530122e-04
1028 1.2232373371327297e-04 -4.1857033404860003e-03 2.0584654826796209e-03
1031 1.2912588288806644e-03 5.8145667349797647e-03 8.1993770455918700e-04
1069 -3.9273454087281993e-03 -4.7601954342676974e-03 -1.6808010106224077e-03
1073 -1.6282001207220010e-03 -6.8715721408938810e-03 -2.7505672898102728e-03
1076 2.2723818678148872e-03 1.0234234868899740e-02 -7.2304311680497875e-03
1077 2.7127415475375343e-03 -1.8854008262995496e-03 -1.3870133296106063e-04
1080 -9.8013288719569786e-03 -1.0882267610654211e-02 5.8460504455477534e-03
1081 -7.4273816895113814e-03 3.8910964235367440e-03 -8.7661083313978917e-03
1084 5.8833017589200488e-03 -1.9075986296012378e-03 -6.2798786806560691e-04
1085 8.9477458987561632e-04 -1.1526414202537691e-03 8.6986259778004324e-04
1123 1.3345900518030047e-04 -3.3787829220637646e-03 4.3902768432155020e-03
1230 7.5110337294750518e-03 7.1935415441501845e-03 -6.8957267709399157e-03
1274 1.0297686795171474e-02 -7.3844654633610949e-03 2.4724811751711750e-04
1276 -5.1271977071009906e-04 -1.0996762707206021e-03 -7.4449689869523113e-03
1277 3.7550052974660007e-03 -2.5488552399049449e-03 -7.8904345596354439e-03
1278 7.5661149881613658e-03 -5.4544211108904198e-04 5.8717874127252219e-03
1279 -1.4737280034773953e-03 -2.5694196604227914e-03 -1.5403848009234672e-03
1280 -3.7731584687778338e-03 1.3279874616931068e-03 4.9654562151866611e-04
1281 5.2246987603549037e-04 -4.8020355141353046e-04 -3.7407658900711557e-03
1282 -4.3736685216968401e-03 -2.6840157416960072e-03 1.5897163878970385e-05
1283 3.7516692678790375e-03 -3.2436189530472229e-03 -7.3447200063373142e-03
1284 9.6335307685077656e-03 -1.8928521361095444e-03 1.2335035326552265e-03
1285 7.0899369641900635e-03 3.9185284624652780e-03 2.1416317671082812e-04
1286 -9.1996782833139476e-05 3.6476845440417544e-03 -1.0766945450827559e-02
1287 -7.5016261374322027e-03 -6.5445243061103484e-03 -4.6893053340253720e-03
1288 -2.5062984762352228e-03 1.1158775787745972e-02 -4.0884844488843098e-03
1325 -6.8048499589051939e-03 -1.5433003373966625e-03 5.2107045243325167e-03
1329 -4.2021831382270617e-03 7.1644277393961078e-03 6.8796033562547256e-04
1331 -4.1936066687242469e-03 -2.2856295242666023e-03 5.2532039151215850e-05
1332 -2.6144136469006701e-05 1.0995992999290344e-03 -1.3855535783695145e-04
1333 2.9694483122324851e-03 -4.7750356343247936e-03 8.3767124612214481e-04
1334 8.3682080609660814e-03 -6.5675891225111492e-03 1.5536816881189948e-03
1335 -5.4319214795947417e-03 -3.0010368686920544e-03 -7.4025572135368286e-03
1336 -4.2983894560656797e-03 5.1595127181589618e-03 -4.1641963091444221e-03
1337 -3.7556006832347578e-03 -1.0031629956804672e-02 2.5370587928796764e-04
1338 1.2614680073445980e-03 4.9671674885210081e-03 1.6322850195925611e-03
1339 8.8216893167236362e-04 8.3764816564246901e-04 -1.1647998728360122e-03
1340 -1.5235058648690018e-03 1.4112197590909247e-02 -1.2767511994589405e-03
1341 1.6299639655437601e-03 1.0180595337569124e-02 7.3333281080421430e-04
1342 5.8806728893540600e-03 9.3825253515991344e-03 3.6110832457948100e-03
1379 2.5630306599243890e-03 2.8303076361189993e-04 -8.5666760365833456e-04
1534 6.8890713796947549e-03 -8.1942460995071322e-03 4.5908283298185162e-03
1539 3.2529026416079259e-03 -5.2032051153090945e-03 -2.4268681639923882e-03
1541 4.1881052450495606e-03 -3.1791954226795768e-03 5.6104451633225520e-03
1587 -3.2614393178004943e-03 5.0200284800321787e-04 1.3509919934353088e-03
1590 1.6562964781122863e-03 -5.9550002646531822e-04 1.8022608868391403e-03
1595 -2.2163105116871219e-03 -6.8417754871168300e-03 -9.3345804439796956e-05
908 2.8969887906495971e-03 1.3997033383559667e-03 -3.5431613395317581e-03
935 -2.5556689303679238e-03 -3.8746039455629529e-03 -5.4582050745244619e-03
938 -3.8395857887797884e-03 2.7571015066147177e-03 6.8887770186625572e-03
939 2.6114523873250968e-04 -1.4048267190149410e-02 -2.9070131985851795e-03
942 7.1082756193618906e-03 -3.7578076871433680e-03 5.5880793488114399e-04
943 1.9115467365516667e-03 4.8920825823607899e-04 4.9875199210226142e-03
946 -5.9029486791559874e-03 -6.9638190668800002e-03 -7.6436150859304488e-03
950 3.6699707992066555e-04 6.8407134585967829e-03 2.5175035358052681e-03
989 2.6729537654103623e-03 2.1230355027598473e-03 -1.9917093754338879e-03
993 -3.1188104841603490e-03 7.4635925184198763e-03 9.5785574223696320e-03
996 -1.1854409059507312e-03 -2.6342311985703016e-03 2.5515150471908635e-03
997 -4.6998435685522665e-03 2.5969696257499087e-03 -5.0723785910756474e-03
1163 -5.9787850235412023e-03 5.8305641124095002e-04 -7.5517091970941431e-04
1164 -7.4498252945801010e-03 9.9603869386484887e-03 4.9603514344567466e-03
1166 -2.2986092357454380e-03 3.4340006391923692e-03 -1.0855009420866625e-03
1189 2.8238833497660908e-03 6.2049018392818379e-04 1.2725223987049454e-04
1191 6.3183405076327470e-03 -8.9037992348377261e-03 -2.5623306684589300e-03
1192 1.4384815442382575e-03 -4.8693465279324426e-03 -1.4708275115507567e-03
1193 -8.3821968688573695e-03 1.8804552949068523e-03 -4.9006770275769026e-03
1194 -1.1060630675982107e-03 -7.0124195759570821e-03 -4.0689028963190508e-04
1195 -3.3423728614772482e-03 3.9668780202741652e-03 -4.5999213323596952e-03
1196 3.1035887112806112e-03 -6.6247217820802357e-03 1.3588096520778285e-03
1197 3.0634068949847537e-03 2.1125136606746058e-04 -1.8029035920025141e-03
1198 -5.1433397997379254e-03 -3.9063412817319822e-03 4.8696938804852112e-03
1199 2.0802544067034276e-03 2.6371332632472975e-03 -4.1641499278000153e-04
1200 -4.4837721699467404e-04 -5.0063966567101929e-03 2.9810276210092258e-04
1201 -2.5510461067542139e-03 -4.9484951940176973e-06 2.4361262332803389e-03
1202 -3.0233468947068582e-03 1.0625763533405649e-02 -7.5249168341983809e-03
1204 9.0746456797573055e-04 2.8056956567953798e-03 -2.4790601398615763e-03
1205 3.3630469151769873e-03 1.7639051943311925e-03 -9.3419482308885896e-04
1206 -9.7887130088896504e-03 -8.1567086282109142e-03 5.1497797613486041e-03
1208 7.4284914758531778e-03 6.4432385497620900e-04 -2.9305403516993300e-03
1243 -6.5103125362912483e-03 -5.1672482061439198e-03 2.8278225911222660e-03
1245 -1.8016285010894648e-03 5.3127353905913768e-03 -8.4086495743375834e-03
1246 2.4935146880310831e-03 2.5958291435344452e-03 3.0531361192245110e-03
1247 -8.3803116693487584e-03 3.5316725973078265e-03 5.5145985296458609e-03
1249 -1.0351698731996276e-02 9.4212016877434906e-04 2.7557521410934700e-03
1250 -8.8403753538306429e-03 -7.8574473411436360e-03 5.5880222497917652e-03
1251 5.0005726095112271e-03 -4.4898243121921262e-03 1.8377457469868795e-03
1252 -2.5269893852730104e-03 -7.8134353613289848e-04 3.3193605614730568e-03
1253 -1.3755869436221121e-03 7.8832691104163011e-03 -9.5804296414891748e-04
1255 4.0620180425254959e-03 -8.0501736333758050e-04 -2.6080528066252935e-03
1419 -4.6781536238849883e-04 3.3525506365347977e-03 -5.5917407169503936e-03
1445 4.1437547742659720e-03 -3.5726017572989995e-03 -6.9323674075779341e-03
1449 -4.9935367908239704e-03 2.1530799887082806e-03 -5.2679125636796676e-03
1452 -4.6158891145766569e-03 6.4405041732179449e-03 2.4134031118217131e-03
1457 7.7889956405773877e-04 -2.8187374113680853e-04 -9.1985319260321657e-04
1460 -8.0993257786264108e-03 -6.8575205759796865e-03 -7.6991879393767931e-03
1499 3.4342835428830692e-04 5.1707096817397383e-04 -4.1180438542295300e-03
1502 -7.0967238019054490e-04 3.9381939285737218e-03 1.5723246299510858e-03
1507 -5.0403393763325359e-03 3.8617589289479826e-03 -8.4029439499681904e-03
1000 6.5108584459583722e-03 1.5214573444245973e-03 -1.0155440968993384e-02
1001 -2.7311865453376735e-03 2.2037924664117907e-03 -1.0207685467654769e-03
1004 -7.7008770851957394e-03 1.1306816174307872e-03 8.7166885245426942e-04
1008 -3.7278037902318205e-03 -4.6281589280235428e-03 -3.6551379039304536e-03
1053 -1.0345862549226870e-03 -1.9112375462212118e-03 4.5255488271402907e-04
1057 2.7571018669448073e-03 2.3646804011133830e-03 3.1333718141665842e-03
1060 5.6254773853137781e-04 5.4796668187893898e-03 -6.8349170860863048e-05
1061 -4.3799213104138016e-03 7.3766628525372474e-03 -1.8159847558397570e-03
1064 4.5771683842315948e-03 -6.6549769717787277e-03 1.5040197579153551e-03
1065 4.1340871555865837e-04 4.9983273469315914e-04 9.4771601713893473e-03
1254 -2.0285490007426752e-03 6.6653650782516730e-05 -4.3527811644877542e-03
1256 6.2779502833454764e-03 4.5812992490979199e-03 3.1536142307399735e-03
1257 1.4774673855790664e-03 -8.2786204760340355e-03 -1.4188314503726999e-04
1258 6.0276826768579901e-03 5.1469093262938893e-03 -3.1569948479850565e-03
1259 5.0736086004148631e-03 2.0514592872924024e-03 5.8896659952852549e-03
1260 1.1101576511826517e-03 -2.3694618391135991e-03 2.7518438506751734e-03
1262 3.2150326914386455e-03 9.8755553083683320e-03 6.1790372713062206e-03
1263 1.5675987935573428e-03 8.0223115474565513e-04 1.2802439255762065e-03
1264 -5.6798998001461936e-03 3.9646944270494665e-03 2.4408395175793680e-03
1266 3.9048232387599892e-03 1.5593652261529523e-03 3.8055964064214192e-04
1307 -5.5522138003538766e-04 -9.2346941578521659e-04 -1.0050506028213249e-03
1309 6.2715171714589231e-04 -1.0040581806467367e-03 -2.8345136106225828e-03
1310 3.0572113023876473e-03 9.0066531281293889e-04 -3.3869878907894870e-03
1311 3.1859374783156495e-03 -1.3707335603343460e-03 2.6051979382812826e-03
1313 1.3986285615402365e-03 -3.4834472557232054e-03 -2.1723666960965717e-03
1314 -7.2773089180118763e-03 6.6628893957622545e-03 2.4759292512298936e-03
1315 1.4197597706581001e-03 5.5031093177655638e-03 -8.2108353469828154e-04
1316 3.6037256124112961e-04 -3.0750286779183925e-03 -1.8463090260077378e-03
1317 -5.8440586301416117e-03 3.9686482584857657e-03 5.3580647443472731e-03
1318 3.6074224158026071e-03 2.1621419395791749e-04 -1.4014245847255352e-03
1319 -8.3236782110280075e-04 9.0984565294999578e-04 3.7996171857244869e-03
1320 7.8614946710161247e-04 3.4229391839426257e-03 -3.9333199972086570e-03
1321 9.0762182028586848e-05 -1.8116551967832266e-03 5.3599740004830901e-04
1323 4.7819857805177874e-03 -4.9926840441604616e-03 -7.9805239970092180e-03
1361 -8.7494782034125418e-03 -2.0609017572608798e-03 1.6720394434920579e-03
1510 2.8991278123290131e-04 -4.7002045201561876e-03 -1.1770636009500917e-02
1515 -2.0169087387974494e-03 5.3428283733787680e-03 3.9018895730379682e-03
1518 6.3977848772074006e-03 -1.5513429724737663e-02 -4.6501452400923354e-03
1563 -8.1497122006338500e-05 -3.7290957792446506e-04 4.4406197219731200e-03
1566 5.0297330256643001e-04 6.0373446443919953e-04 1.9815901879135945e-03
1571 -3.8436416450629203e-03 1.4040108114231190e-03 1.7120638539855619e-04
1574 -1.8431660876178724e-03 6.9776976651337967e-03 -1.6756633447372377e-03
1579 5.5686809525057022e-03 -3.8179289216468690e-03 -5.5548973436529382e-03
1617 -1.8315888626232475e-03 -6.0414980386461819e-03 -5.1634736757645390e-03
1068 2.9166058791094233e-03 -1.0269083407192721e-04 1.7895092326585080e-03
1072 5.0708440103615247e-03 -6.2064199115163953e-05 4.4919364602788198e-04
1107 -5.9675592690245586e-04 -3.0268184820295544e-03 -9.7995503927866259e-04
1111 6.1235698796711282e-03 3.8011009504708882e-04 8.4695889103247601e-03
1114 2.0067177681165014e-04 -1.3475340935534465e-03 -1.9686913530934085e-03
1115 2.2585732472905143e-03 4.8050190345782698e-04 2.8290770402267040e-04
1118 -1.1141053979200762e-03 -8.1137091554821033e-04 -7.1675650614486820e-03
1119 2.4577421974652505e-03 -3.9825943733960501e-03 -1.8273948055382001e-03
1122 -1.0194354147253571e-03 -3.1144423811923397e-03 -1.1815928068492944e-03
1145 -5.0086198838287096e-03 -6.6150473883511201e-03 -6.4074948319497848e-03
1322 5.6109292015655591e-03 6.1911301432244397e-03 -5.7865417915845454e-03
1324 -3.0975433838887588e-03 3.5446738310626422e-03 1.5810619587040815e-03
1326 1.8285751647608388e-04 1.7057039720347899e-03 2.5213997244501341e-03
1327 -2.5295999727037162e-03 -5.3265302728223659e-04 -1.7867660205898460e-03
1328 2.8255471274480238e-04 -3.6838838568994709e-03 -1.1986231430414916e-03
1330 -6.4241379013212874e-05 1.2696427795311842e-02 1.3930807715822951e-03
1363 -1.4780987324752143e-03 -3.2989067739894900e-03 -2.3786201798063613e-03
1364 7.4172596967663302e-03 3.6932921889455982e-03 -2.9486178801888968e-03
1365 -1.1086020316604259e-02 -5.7937719624571067e-03 -7.1873191578203342e-03
1367 -2.5293937553846385e-03 -5.5304281661802644e-03 -7.2222433376303661e-03
1368 -2.2827196705262620e-03 -8.4319871894380821e-05 6.3701523784600632e-03
1369 1.2356136935921519e-02 1.0075745043378492e-02 -6.0879617513025759e-03
1370 -1.3602284619674923e-03 -2.7568755963196857e-03 1.2901908940216296e-03
1371 2.0849826298340981e-03 -3.7572284369502633e-03 2.2225714661783056e-03
1372 -4.6861572018129663e-03 4.4882117752994494e-03 -9.5015482741454341e-03
1373 6.0686553019918717e-03 -5.6150048589154022e-03 7.0234764499159117e-03
1374 -7.5963324259193798e-04 1.9152412964655171e-03 -1.5170844026429504e-03
1375 -9.5659961818426781e-04 -3.6757043136178779e-03 5.3845620728531086e-04
1376 5.6036053578703603e-04 1.8087189201492070e-03 -3.3807180990120074e-03
1377 1.8224762053445868e-03 6.9669918233313509e-04 -5.5172912494254529e-04
1378 7.3111333056667801e-03 -5.5649601050085243e-03 -4.5758344422830565e-03
1380 9.4702382668420185e-04 4.7591984251917069e-04 -7.6262173925486934e-03
1399 3.7930891337075198e-03 -5.1256542742554210e-04 -3.7224964693584649e-03
1401 1.1695994717245018e-03 -6.9539775748399312e-04 -6.2361381107471584e-03
1402 4.1172945512684507e-03 2.9749574661978475e-03 -7.1741885956225181e-03
1582 -7.8157209425628715e-03 5.1529612480358620e-03 -1.8564117623084874e-04
1620 -8.0018739394250808e-03 -3.6387816547248453e-03 9.3277232843019045e-03
1625 -7.9404954296575323e-03 -4.6583822397284038e-03 6.7269017720993942e-04
1628 -4.5338905663986177e-03 1.7963682837219492e-04 4.7542960447760049e-04
1633 1.0486606577200246e-03 1.8522557175650104e-03 -1.2288743998289629e-03
1655 -6.8522607765927725e-03 7.5978259788302637e-04 -3.0480705548237065e-03
934 -1.2357370939170064e-02 -6.8998814683293242e-03 -2.2916857681710591e-04
976 -2.3401066463618140e-04 5.8720374807655499e-03 1.3867209675812394e-03
977 -8.8781495054205697e-04 3.5330487310193310e-03 -7.0890525236404585e-03
980 7.0802670609930998e-03 1.8528690450001464e-03 -1.1121646405537170e-02
981 -1.6459052931553983e-04 3.9531258845579521e-03 -5.6711860464046275e-03
984 -1.9774949122555291e-03 6.4484846558150333e-03 -5.8711459761703316e-03
985 5.0188975016464800e-03 -4.2355981891004568e-04 6.6226984747559817e-03
988 8.1599428517496273e-03 1.0167328530205186e-03 2.2546135158297322e-03
992 -1.4568962461925599e-03 -2.3426230544902719e-03 1.5379625181042773e-03
1033 5.6401582332695115e-03 -3.8605312314299425e-04 -2.4219409248426344e-03
1034 -5.5303353182108751e-03 -1.0136155355049256e-03 -2.3008238459457436e-03
1036 -5.5589519426305955e-03 -3.8589729351984560e-03 6.9424109250595372e-03
1037 -8.2862791801656193e-04 -3.7791110569291224e-03 5.8360380274693454e-03
1040 -1.0709947589048162e-04 -2.4168141508609585e-03 -3.5634423202484757e-03
1041 -1.0691711809220517e-03 1.5290563913875177e-03 1.4753223330999181e-03
1044 -1.9025212246856554e-03 -4.8908272395335860e-03 -7.2570920442164817e-03
1045 4.0924725921180662e-03 -3.4155707258944905e-03 -1.8487231135784008e-03
1087 -7.1849181714065975e-04 1.1837292785359645e-02 4.3972726691922414e-03
1190 -2.4046086226554458e-03 6.5247987784194513e-03 2.0137843728797299e-03
1231 -4.3677874352387007e-03 -3.0677286502376163e-05 -2.0843470187142171e-03
1232 -4.3676772347357434e-03 5.4139558743017784e-03 1.5664062970426424e-03
1233 -3.9002975284464702e-03 3.2060934703875589e-03 -6.9657681762821614e-03
1234 1.7930333729273833e-03 -1.2710840023053368e-02 -2.6964292573470228e-03
1235 7.0469715648564819e-03 1.4739852170209576e-03 6.7834487738659306e-03
1236 -3.1693742214770888e-03 -3.3852396837365808e-03 -1.3431981402500600e-02
1237 5.6673605478220418e-03 -3.9882352511660798e-03 8.4707413477024401e-03
1238 1.4499516386350742e-03 4.5540638970758673e-03 -1.1875091434116617e-03
1239 -3.5552405833197088e-03 2.3310222595419425e-03 1.3041005103323797e-03
1240 -1.0996730046724692e-03 -1.7411326549041459e-03 -6.8627522765620170e-03
1241 -2.7679158400231670e-03 -6.6083573517840537e-03 -9.6966612312273954e-03
1242 -2.2726465706277418e-03 5.5177258144402707e-03 -4.7854532324904768e-03
1244 5.6702400691435143e-04 3.6125121125759152e-03 -3.5355867758867718e-03
1248 5.0727267396363329e-05 2.4169394256701054e-04 -2.2062006060725170e-03
1289 7.5122147434517591e-03 -6.5299671021049740e-03 1.4943464518645251e-03
1290 -3.0555015177336242e-03 2.8903293886095374e-03 -6.5029681459935372e-03
1291 7.9454137510902457e-03 5.6957295543514598e-03 3.8737196089932337e-03
1292 -1.0107370065833694e-02 -1.1339798496420394e-02 -1.9556931129237902e-03
1293 2.9274103121064831e-03 5.8556075838630582e-03 -1.0114377821612402e-02
1294 -3.7105311678183556e-03 4.1842301830617185e-05 -2.0720375512129695e-03
1295 -2.7633674074589542e-03 -3.3813980401502966e-03 -5.9997542839328325e-03
1296 3.6118924913613659e-03 5.6076937322229988e-03 1.2232535212122517e-04
1297 -3.8506639107008093e-03 3.0134116161210354e-03 -6.1130212941653845e-03
1298 2.8030917036006441e-03 -5.6188045336684391e-03 2.4471893455464949e-03
1299 -1.5141063720112817e-03 2.1087588639631165e-04 -9.8699500740640780e-04
1300 7.1355256553056032e-04 7.5886552386618782e-03 -3.9741860401139749e-03
1301 3.5894158187341602e-03 -4.1199241992794025e-03 -2.8325655785042185e-04
1303 9.8277492717114383e-03 -1.5728440317942054e-03 7.1399904796085540e-03
1343 1.8626877082862871e-03 -1.1505542062693421e-03 9.0749121193873170e-03
1487 -8.5463266579343181e-03 1.4905621383552572e-02 -5.1501256844719116e-03
1491 2.8227507744510265e-03 -1.1905090216389235e-03 -6.4676228092157527e-03
1494 -3.8926732247839585e-03 1.3406744411726844e-03 8.5665613820647621e-03
1547 6.6951489701829363e-03 1.6022452609424759e-03 -1.4256787799096025e-03
1550 -3.5256881608460942e-03 4.0951779785182510e-03 -3.7091108153435411e-04
1555 -7.1095750759434927e-03 7.1715695111115151e-03 -4.4989486205962576e-03
1048 1.3790330594255702e-02 2.3020597765481556e-03 -5.8530748733187947e-03
1049 -2.3588449249420784e-03 9.3714814952620311e-04 -4.3500194705817993e-03
1052 1.0000828878130396e-02 5.9803292661986590e-03 -5.7845276270718855e-04
1056 6.4844466871756641e-03 -3.0794406442979866e-03 -1.6362942243290069e-03
1088 1.5581308225629997e-03 7.3279499448927563e-03 -4.9348872154738304e-03
1090 7.8459742100152972e-03 3.7608797896704444e-03 -1.8442588586832615e-03
1091 4.1377455711689099e-03 -5.1011743456760355e-03 -5.7660521800618455e-03
1094 5.6917170595515874e-03 -4.3918978242671975e-03 4.4659533191604523e-03
1095 -4.3317998560260624e-03 -1.7408714717785717e-03 2.5309635494152904e-03
1098 8.1075579724513333e-04 -6.3996933911899514e-04 -1.7059549829251345e-03
1099 1.5893660261308365e-03 -2.9424993918266001e-03 -6.2990556349660620e-03
1102 6.6429274490322670e-03 2.3901548648741564e-06 -6.5185172420022513e-03
1103 -1.7816196199650410e-03 3.0810487448139291e-03 -4.8290731129306446e-03
1125 5.9356556380604549e-03 -1.5513073757849418e-03 -6.8268308248905273e-03
1126 -2.1297470688593657e-03 -6.0745656192965547e-03 -1.8288545121987955e-03
1302 -5.5033456532520612e-04 5.4644169721972059e-04 2.9978911155326281e-03
1304 -2.4468813771307014e-03 -5.4904041847614276e-05 -8.0959922296553188e-03
1305 -1.4854973684753979e-04 2.8132903251851136e-03 2.5287422013241805e-03
1306 6.1877314796526511e-03 4.9692779779301494e-03 -3.9513784182268960e-03
1308 -4.1177254062003859e-03 1.6409253920593250e-03 -3.8239368875629563e-03
1312 -2.2230278517468014e-03 -4.4005495868164974e-03 4.8068551189110907e-03
1344 1.0720621051465930e-03 -3.1594567285041348e-03 -9.2963806144286305e-04
1345 4.7815232001506992e-04 2.1958971118228917e-03 4.5213621792085544e-03
1346 2.8418079518865492e-03 5.7264113652027706e-03 1.2757226452054567e-02
1347 7.7487404942346450e-03 -3.3336035447697235e-04 -4.8787650359378293e-03
1348 3.4319212048571958e-04 5.6899136271589840e-03 4.0663529425830755e-03
1349 3.5187922219495778e-03 -9.7893189116749976e-04 -2.5531328149673636e-03
1350 6.0840235531814098e-04 -5.1801601762936492e-04 -3.7319702839067343e-03
1351 4.2027167935060400e-03 -8.5686654853701187e-03 1.6335893817414455e-03
1352 3.1603872691476774e-03 -3.8331027146000216e-03 3.9851653376101121e-04
1353 -2.5702745947158694e-03 9.0125427365736574e-04 -2.5066965844958928e-03
1354 -1.4844733644360933e-03 -5.5267035423558529e-03 -4.8351938217643959e-03
1355 -2.5329212285163105e-03 4.1289417090770537e-03 -9.4298383093628681e-03
1356 -2.6424709772511984e-03 -5.3272323193230397e-03 -3.5612035419226138e-03
1357 4.5162203024016988e-03 -1.8363882286497651e-03 5.6624998658091142e-03
1358 2.7929617107211586e-03 4.0414432754565105e-03 4.4257190752007179e-03
1359 -6.9724642728687911e-05 1.0834063181302081e-02 8.6433089681563352e-03
1381 -7.6719460612116889e-04 1.2236911208453507e-03 -7.2441072654739307e-03
1382 -1.3386714043028974e-03 2.6454532868734715e-03 2.1210292723683362e-03
1383 2.8374775410864848e-03 -8.3109323313221154e-04 3.1388260932363782e-03
1558 2.2250199130471951e-03 -4.3444538828446991e-03 -3.5450430158098590e-03
1601 1.5649602725408412e-03 -1.5387057159078610e-03 -6.7832160405798857e-03
1604 -7.7306117942958655e-04 -2.9132586613489633e-04 -8.9048693839425156e-05
1609 6.6972865862858551e-03 6.0025642952094493e-04 1.7043737624961031e-03
1612 -5.2827708340503121e-04 4.3288602370080290e-03 -3.9759879317790247e-04
1639 5.8568154184252437e-03 6.1721603427553930e-04 3.0464704460266430e-03
1106 -5.7266139520097178e-03 3.8967615795516375e-04 -1.3672351407459375e-03
1110 -8.2576344332592096e-03 9.8173327360991255e-04 2.4689328088132391e-03
1128 -1.4870285114060545e-03 7.6333268804213686e-04 3.3163981114528915e-03
1129 9.6807330844029694e-03 6.2455431520141835e-03 -1.9639246639327401e-03
1132 4.0467085423085787e-03 -4.6902365713604611e-03 -1.8901312335631755e-03
1133 4.9446999876683754e-03 7.9589977854619166e-03 -8.2434940549103910e-03
1136 2.3402442390095600e-03 -1.1158476994358620e-02 3.8899010604648461e-03
1137 1.7407839791716273e-03 -2.2128712416205694e-03 -9.3590202891647364e-03
1140 6.1030048220671734e-03 2.0118082219874986e-03 -4.4307983713691625e-03
1141 -5.0041979268436333e-03 7.3867517594253815e-03 2.6616905916073044e-03
1144 -8.8213918163266029e-04 7.0490015011915336e-03 -7.1128644466582937e-03
1147 4.6629285195974902e-03 -2.1931922771867237e-03 3.3100320161917043e-03
1148 -9.0262379809659104e-03 -2.3806403792581954e-03 -1.3102680310121158e-02
1150 -7.3314843322617503e-03 1.0386161416480357e-02 -1.1737114866428224e-02
1151 -7.4740012246610513e-04 4.5154376940533987e-03 -8.3140815980092472e-04
1360 -4.0346105038734527e-06 -9.9505314866634460e-03 2.8655987361846922e-03
1362 3.1660418621765347e-03 3.2371072739871740e-03 -6.9124807779697758e-03
1366 1.4209739860493122e-03 9.9901281930340289e-03 1.7562843451637295e-03
1384 -2.8072989627865873e-04 2.7299336466451315e-03 -8.1550525203864591e-03
1385 -6.0218823191272725e-03 2.5446222491744622e-03 -1.2030686823530236e-02
1386 -1.0916833994679160e-03 -2.6476951440648142e-03 7.0293484904874364e-04
1387 6.1608167530961761e-03 1.6305404263254129e-03 -3.0792331655742880e-03
1388 8.4850326194369340e-03 3.2557712703492384e-03 -3.6485404765281798e-03
1389 -1.2176272010662331e-03 4.0296001220024762e-03 3.8480893279658991e-03
1390 4.5027810429393388e-05 -9.2583803509129863e-03 5.8303192316925894e-04
1391 5.0901515653505123e-04 5.4297010633459451e-03 -6.9322431908026036e-04
1392 -8.2280957204724694e-03 2.0152730182046020e-03 -5.3722672976935478e-04
1393 -3.9379235309351694e-03 1.2463697075655873e-03 -4.2813402212323499e-03
1394 -2.5909441056464846e-03 -5.2346418572797523e-03 -6.3575682663592906e-03
1395 3.2213276169283274e-03 4.2686757578577917e-03 -1.8090724464048893e-03
1396 1.2578195328733456e-03 -4.7312492172505377e-03 1.8656127890988394e-03
1397 -3.1755943165563370e-03 2.6411528978261788e-03 -4.4272795345073352e-03
1398 2.6514609004435197e-03 -5.3852426063612617e-03 -6.3072966623558754e-04
1400 -3.3660637613588044e-03 -4.2354527593084978e-03 -6.3324396514448681e-03
1403 -2.7518391552015932e-03 -1.4297125382878102e-03 1.6758862395136729e-03
1404 3.5149298082139636e-03 3.7657758198370267e-03 1.4549271757824599e-03
1405 5.8230258690270377e-03 -2.3964242357082978e-03 -1.4563024333845908e-02
1406 -7.6099330730849584e-03 1.0837495482455000e-03 -7.6282259818249466e-04
1407 -2.0128571016631105e-03 -7.6799620056197896e-03 -1.4810498730777042e-03
1408 -6.8713420398602496e-03 5.7358448313406833e-03 -2.0809845734994495e-03
1642 -1.4739182225630429e-03 -4.0289609960075896e-03 1.3866567247801338e-02
1647 1.4834555357154890e-03 5.4695709290354137e-03 1.4519633009324141e-03
1650 9.2886241000395831e-03 6.8891803844039739e-03 1.4123410733842486e-04
1661 -2.0582526760369643e-03 8.6484680124446333e-03 3.2986953009033222e-03
1410 1.4685453836674339e-03 -8.0153255799800937e-03 -1.4815451177528159e-03
1411 3.8543653868282177e-03 1.3957283164939352e-03 9.1165663630313927e-03
1412 -2.3516708983116852e-03 4.2198901346289196e-03 -1.0365700746180904e-02
1414 -7.8419119925301033e-03 6.5939715157226570e-03 -1.0970375343506795e-03
1416 -3.9895131007840391e-04 2.3645641634464200e-03 -9.7221218167607842e-03
1417 -2.2818108293459604e-03 5.3192908805596911e-03 -5.7677565360032832e-03
1418 -2.5976805347611527e-03 6.2013774544236256e-03 -1.0996146558679863e-03
1421 1.3104657384612115e-03 5.9109726101736586e-03 -1.3773977349632912e-03
1424 5.5922715326324382e-04 4.8745829167379451e-04 -1.5193615785237147e-03
1425 -2.9636587405969283e-04 2.2404477795187495e-03 6.6839836795456326e-04
1427 -1.6043192489157557e-03 5.1116186460811307e-04 4.3034062689606776e-03
1428 3.4985022455093825e-03 1.6868426469775551e-03 1.4506346353204444e-03
1429 -3.9724787903765938e-03 5.2318829933518454e-03 1.8784233819700943e-04
1430 -6.3371979546783669e-03 4.6703722146388075e-03 7.4132004143665524e-03
1432 1.0942981439365632e-03 -6.1145472972278236e-03 9.4520000488013643e-04
1433 2.1530311385782467e-03 3.5172669205730958e-04 -3.2698086280889709e-03
1435 6.4370985947533885e-03 -3.8407634043369923e-03 5.6726982238326533e-03
1436 -4.7084447219856692e-03 -1.9414062185718443e-03 3.9995183455571737e-03
1437 5.4141437641088861e-03 -8.0483743622722695e-04 3.3854376024435415e-03
1438 2.3119915873076147e-03 7.2210076636019353e-03 8.4669109675580031e-04
1440 3.8450428819359452e-03 -1.8068736854369306e-03 -7.6717314816950382e-03
1442 -2.7846680677874611e-03 2.4069364012398475e-03 -4.3046332828979456e-04
1459 -3.6836169847343607e-03 -8.3237926044092572e-04 9.1444213831170587e-03
1463 3.9533229032356291e-03 -6.7171797785079987e-03 5.1809769748011377e-03
1466 3.5437301148261943e-03 1.1908081050566262e-03 -1.2361722593145559e-02
1467 -5.0022951872230239e-03 -2.2033862786839517e-03 -1.9469348158396241e-03
1469 -1.1277639666076662e-03 -6.7477888032124551e-03 1.7377088598100347e-03
1665 -2.9841923730487065e-04 1.0336216556595742e-02 -4.2593552029811179e-04
1666 -2.4399411143884650e-03 2.0396254338333622e-03 1.7748873239157783e-03
1667 8.5217652054001513e-04 -3.6935167219233457e-03 -5.2616359121807951e-03
1669 3.9354660827732391e-03 2.6430115116157556e-03 -2.0713532068610432e-03
1670 -4.4881502642527635e-03 -2.5555016340310880e-03 -4.7152035540206369e-03
1671 4.7136618578340313e-03 5.6740376429430467e-04 3.4024318739292941e-04
1672 -1.6168017115684675e-03 3.3738464760213904e-05 -1.9199714693323238e-03
1673 -3.0137366445050018e-03 -1.0946675595042647e-04 -4.4794567058536721e-03
1680 -5.0845151300814703e-03 -6.7901920966370385e-05 6.0662502502487744e-03
1731 0.0000000000000000e+00 0.0000000000000000e+00 0.0000000000000000e+00
1734 0.0000000000000000e+00 0.0000000000000000e+00 0.0000000000000000e+00
1735 0.0000000000000000e+00 0.0000000000000000e+00 0.0000000000000000e+00
1736 0.0000000000000000e+00 0.0000000000000000e+00 0.0000000000000000e+00
1737 0.0000000000000000e+00 0.0000000000000000e+00 0.0000000000000000e+00
1738 0.0000000000000000e+00 0.0000000000000000e+00 0.0000000000000000e+00
1744 0.0000000000000000e+00 0.0000000000000000e+00 0.0000000000000000e+00
1745 0.0000000000000000e+00 0.0000000000000000e+00 0.0000000000000000e+00
1746 0.0000000000000000e+00 0.0000000000000000e+00 0.0000000000000000e+00
1443 -1.9225291122399750e-03 -3.3283421809813156e-03 2.3111122058521380e-03
1444 2.3319695020331869e-03 3.8889194499976240e-03 -6.0865068032675562e-04
1470 -8.8339337680831513e-04 -2.5208453697913142e-03 3.2016446562563743e-03
1471 1.5494204362740489e-03 -1.1255700653218278e-03 -6.2676191553713038e-03
1472 1.2441622142916596e-02 -1.0779944819743542e-03 3.0709046957382332e-05
1474 4.1805022935645619e-04 -4.2446238949334393e-03 8.3628351833816093e-03
1475 3.0470563909538433e-03 5.2829299147788833e-03 1.4675593026873734e-03
1477 -6.5286180728620583e-03 -3.9575528143806658e-03 -2.2326715449769055e-03
1478 -9.3811927781396222e-03 -3.2532121684766945e-03 -2.4282294364337152e-03
1479 -6.4371733128174248e-03 6.3264227680887193e-03 1.6598057112014335e-02
1480 4.7428864175064443e-03 -6.0406123524345753e-03 -2.4209831699389381e-04
1482 7.2596303281047686e-03 4.3253905277591397e-04 -3.8659642597719357e-03
1484 1.1132475680759167e-02 -2.1566024418357834e-04 -2.6741646110282073e-03
1485 7.2606585409012376e-03 4.4658465256954350e-03 1.0422660710405365e-03
1517 2.0245523476568024e-03 -9.1378599361227966e-04 -6.0501672348533802e-03
1521 1.5021702071861245e-03 2.5005068925232654e-03 8.5351226173319330e-03
1524 -1.7644105957201040e-03 -2.6787074196928337e-03 4.8533054452386277e-03
1525 -5.8573454487168154e-03 2.7820753350570361e-03 1.2156616033609647e-03
1527 3.7407530859822841e-03 2.7580673365728173e-03 4.5787736375865152e-03
1528 1.9160125214685057e-03 2.5254865791450023e-04 -1.1184926235304402e-03
1529 -6.5278910023326793e-03 -4.0029099756792565e-04 -1.1024483468736414e-02
1674 2.3827619737976191e-03 -2.0006495825328850e-03 -5.4624965689102694e-03
1681 -5.1951423579588646e-03 -1.2194947627525838e-03 -4.2022774338133740e-03
1682 3.4508690116440708e-03 -6.1105984181830603e-03 5.4095190835359618e-03
1683 -5.6213654796993919e-03 -2.8527485245689295e-03 -5.6958097785258354e-03
1684 3.7150663092290672e-03 -4.9660553174034365e-03 -3.4391745438667586e-04
1685 -1.7852216391334632e-03 -6.4815098530142572e-03 -5.8148007383217520e-03
1695 -6.2995312294806842e-03 1.4513531031900833e-03 3.4771596140082701e-03
1696 4.7108440191991133e-03 -6.2489559723158186e-03 2.3351352390919857e-03
1697 -3.4537235949307315e-03 -7.2694985716066892e-03 -2.4842854862289448e-03
1747 0.0000000000000000e+00 0.0000000000000000e+00 0.0000000000000000e+00
1748 0.0000000000000000e+00 0.0000000000000000e+00 0.0000000000000000e+00
1749 0.0000000000000000e+00 0.0000000000000000e+00 0.0000000000000000e+00
1759 0.0000000000000000e+00 0.0000000000000000e+00 0.0000000000000000e+00
1760 0.0000000000000000e+00 0.0000000000000000e+00 0.0000000000000000e+00
1761 0.0000000000000000e+00 0.0000000000000000e+00 0.0000000000000000e+00
1486 -1.0357064228793544e-02 3.0658168117102063e-03 1.6620325951613765e-03
1530 3.0507405064924692e-03 5.2243339629599681e-03 5.1879582556570020e-03
1532 2.5871301267198425e-03 -1.0673123436488808e-03 -4.3545475613487476e-04
1533 3.3817870054759958e-03 -2.9891485595215752e-04 9.4657136296973816e-03
1535 -8.5296232079952006e-04 -1.0385414832459903e-03 6.6019341405855591e-03
1536 -2.5732981880899884e-03 -7.6553549115853381e-03 2.7756941455844923e-04
1537 -5.5360773356241590e-04 3.6407224932811970e-03 2.9218393585616728e-03
1538 1.8958676262222263e-03 3.6166563634986684e-04 -2.7860338929600365e-03
1540 7.6119241363443882e-04 -2.1649145865133843e-03 6.1279745663831244e-04
1542 -2.6460826462668145e-03 2.3844477726261228e-03 8.8398682826427450e-03
1543 -4.7415296297923081e-03 1.7185420541420029e-03 2.2039726695102673e-03
1544 -4.8602602693819733e-03 -4.9515150353488573e-05 3.8803245089465712e-03
1581 1.9205988933295645e-03 6.5110088429760201e-03 1.7959932736066754e-03
1585 4.1654254133617211e-03 -7.6900542898773357e-03 2.1450495997923842e-03
1588 2.2570818756919072e-03 5.4569169357250044e-03 7.6941856691410855e-03
1589 1.0844354035610953e-03 -7.1560673096286633e-04 -5.3855025328326091e-03
1591 2.0794157277351437e-03 -2.4512488418201648e-03 -8.6775753685705889e-03
1592 -5.2848684357568280e-03 3.6658544939658162e-03 7.6049444774880740e-03
1593 -3.3739036849158317e-03 5.6961200450595757e-03 3.1679374976045262e-03
1594 3.7707367283063629e-03 4.0366821892490910e-03 -4.7593565529166102e-03
1596 -1.2125462962353751e-02 3.4152842908954178e-03 4.1867838373692507e-03
1597 8.0236090873451651e-03 -8.4637047203657903e-03 -1.4449276822189912e-02
1598 -4.8382938917653530e-03 -7.1727376468390543e-04 -2.9248821720150092e-03
1635 3.3854767692387930e-03 3.8123242763489118e-03 2.2631749500907419e-03
1698 -7.5843009237387725e-03 -7.4803564362057578e-03 -2.3254841606850829e-03
1699 4.3216825124377375e-03 -6.5514239549241144e-04 -8.6174709049283114e-03
1700 2.9269448439417215e-03 1.2336451521623756e-03 5.3000871540907681e-03
1711 6.1340117695308331e-03 1.2111042415211902e-02 -5.4394132314807483e-03
1712 -5.3380318153475560e-03 -3.3721392779452861e-05 3.6073120699259705e-03
1713 -3.9784169861248976e-04 -6.4226641134503132e-03 -3.2952042422305975e-03
1729 0.0000000000000000e+00 0.0000000000000000e+00 0.0000000000000000e+00
1730 0.0000000000000000e+00 0.0000000000000000e+00 0.0000000000000000e+00
1733 0.0000000000000000e+00 0.0000000000000000e+00 0.0000000000000000e+00
1762 0.0000000000000000e+00 0.0000000000000000e+00 0.0000000000000000e+00
1763 0.0000000000000000e+00 0.0000000000000000e+00 0.0000000000000000e+00
1764 0.0000000000000000e+00 0.0000000000000000e+00 0.0000000000000000e+00
1775 0.0000000000000000e+00 0.0000000000000000e+00 0.0000000000000000e+00
1776 0.0000000000000000e+00 0.0000000000000000e+00 0.0000000000000000e+00
1777 0.0000000000000000e+00 0.0000000000000000e+00 0.0000000000000000e+00
1420 2.6804080626388607e-03 3.0780089294110084e-03 5.6511131524925968e-03
1422 2.0751149526421807e-03 -2.9267591852588986e-03 -3.2589364183622828e-03
1447 -3.8019348629349968e-03 2.8804997494945419e-03 -3.1801220051810336e-03
1448 8.5493664375107332e-04 -6.0417712596993398e-03 -7.7513195931601712e-04
1450 7.2493209411549813e-03 8.5013832598877098e-03 5.6995414307812230e-03
1451 6.5808116610409475e-03 -2.3518100207841420e-03 -2.5527646137492649e-03
1453 7.0646376900546873e-03 2.4939518113338789e-03 -4.8868765113758272e-03
1454 -2.7080769579606047e-03 -5.8367266574829383e-03 3.4854620617124220e-03
1455 4.8336044652142959e-03 3.5456559907008629e-03 1.4056984077469052e-03
1456 7.0632386412224869e-03 -1.2743826397178738e-03 -2.7133351307177030e-03
1458 -2.9303463469658405e-03 -5.0840587149981083e-03 -3.9905674809754909e-04
1461 7.0566641749015809e-04 -1.6393665564663868e-03 2.2579505142559242e-04
1462 6.7008342958062924e-04 -3.7878928409892897e-03 1.3852711398681006e-03
1464 -1.9183425420260774e-04 2.5840800582606020e-03 -8.9200741901737171e-03
1501 1.6608778402736751e-03 -4.8864285032997768e-03 -2.9065199864490030e-03
1503 7.0506031102780869e-03 -5.2083392060954491e-03 -5.3701778615408927e-03
1505 -6.2711285956103787e-03 -4.2281373996864305e-03 -8.9294011832757297e-03
1506 -5.7852766459183073e-03 2.1748725501198871e-03 -4.7454444849965192e-03
1508 -8.1706793402066963e-03 -8.4279456411722430e-03 -8.0787734285247166e-03
1509 1.7267383386114848e-03 -5.2328698536446795e-03 -4.8332687386607159e-03
1511 -8.9916366935473731e-03 6.5425885880169106e-03 2.2247617060171379e-04
1668 9.8546463374154861e-03 -3.7064651607783750e-04 2.9992069681114616e-03
1675 4.4039512772281724e-04 9.1266616685626873e-03 1.1885698247590767e-02
1676 -3.2684509109442337e-03 1.1173026131520312e-04 -4.1479375285855694e-03
1677 1.7635423685915417e-03 -4.9521976946866834e-03 -5.3576070499947413e-03
1678 4.2307758329565041e-03 9.1770897385948652e-03 -4.1006472861429257e-04
1679 -3.1951140845434233e-05 1.1058084272783369e-04 -4.7223353716046423e-03
1689 3.7247674579453504e-03 -6.1623178263741536e-03 3.9233569077451442e-04
1690 3.9648541492326994e-03 -2.4108520845331507e-03 4.0589213857832179e-03
1691 1.7243788480281538e-04 -1.1088970561981446e-02 4.1249904417029739e-03
1741 0.0000000000000000e+00 0.0000000000000000e+00 0.0000000000000000e+00
1742 0.0000000000000000e+00 0.0000000000000000e+00 0.0000000000000000e+00
1743 0.0000000000000000e+00 0.0000000000000000e+00 0.0000000000000000e+00
1753 0.0000000000000000e+00 0.0000000000000000e+00 0.0000000000000000e+00
1754 0.0000000000000000e+00 0.0000000000000000e+00 0.0000000000000000e+00
1755 0.0000000000000000e+00 0.0000000000000000e+00 0.0000000000000000e+00
1756 0.0000000000000000e+00 0.0000000000000000e+00 0.0000000000000000e+00
1757 0.0000000000000000e+00 0.0000000000000000e+00 0.0000000000000000e+00
1769 0.0000000000000000e+00 0.0000000000000000e+00 0.0000000000000000e+00
1512 4.9257331413619793e-03 -4.3772081047609169e-05 -2.6799169875307981e-03
1513 -3.0571883408316521e-03 -2.3746958654978249e-03 -2.6934333422536515e-03
1514 1.1011882251574683e-03 9.1896010110321686e-03 -2.3716452018114433e-03
1516 1.9442800167534570e-03 1.1381635230894270e-03 -3.3211673037195901e-03
1519 7.8453223332720424e-04 3.2529090996903051e-03 4.2415063937445169e-03
1520 6.2939254515147344e-04 -2.2853014669007462e-04 -1.4839024028345117e-03
1522 5.9247498624747704e-03 4.5664505748778447e-03 2.6033900783500254e-03
1565 -9.3054020127496494e-03 -3.1074374892114749e-03 8.5233602978510275e-03
1567 9.0559917893521960e-04 2.0615843485439610e-03 -5.7007623846046735e-03
1569 9.6261703031057439e-04 -3.4287148151330056e-03 2.0703147898266570e-04
1570 3.3273853974243183e-03 -4.3727969477272569e-03 -2.3209252239898607e-03
1572 -8.5239493623271659e-03 3.7440269379883586e-03 -6.6575798949707089e-03
1573 -1.9010806437570684e-03 -3.9608388008814900e-03 -2.6424581168990207e-03
1575 4.4995332649474902e-03 -1.5247357500138715e-03 4.9035712666046227e-03
1576 1.7507138021570529e-03 -3.6510684223213965e-03 -2.2974071161851527e-03
1577 4.4964240881662371e-03 -9.8357565150470998e-04 1.9628037604429022e-03
1692 2.7377792660102348e-03 -9.7770293623282260e-04 -5.3016196495367920e-03
1693 2.9348069933867655e-03 -6.1679404954194965e-03 -7.4081606646816121e-04
1694 6.4628245190880493e-03 8.0919762839264126e-03 1.1375940953818936e-03
1705 8.9699802888174290e-03 3.1921748161098525e-05 6.0083668356407003e-04
1706 1.1217501297938869e-02 -6.2551371451357160e-03 1.3107761391110456e-03
1707 -6.3303758947478998e-04 1.2550829754896221e-03 -6.2340563165233006e-03
1708 -5.5332361822170188e-03 -7.5262691896938834e-03 -7.6309398702779983e-04
1709 3.8703499713545479e-03 3.0626165633010041e-03 -3.4019485393035191e-03
1718 -1.0962041603949122e-02 1.4837911268581747e-03 -1.0891510059530063e-02
1758 0.0000000000000000e+00 0.0000000000000000e+00 0.0000000000000000e+00
1770 0.0000000000000000e+00 0.0000000000000000e+00 0.0000000000000000e+00
1771 0.0000000000000000e+00 0.0000000000000000e+00 0.0000000000000000e+00
1772 0.0000000000000000e+00 0.0000000000000000e+00 0.0000000000000000e+00
1773 0.0000000000000000e+00 0.0000000000000000e+00 0.0000000000000000e+00
1782 0.0000000000000000e+00 0.0000000000000000e+00 0.0000000000000000e+00
1578 -5.7776276825575274e-03 -8.6785805820164489e-03 5.5265847726750812e-03
1580 -1.2345495896563074e-03 -2.3440375566125514e-03 3.2148612775621563e-03
1583 -2.3674310480070017e-03 -3.9124614748297457e-03 -2.0811590547075683e-03
1584 8.6076545262957459e-03 1.1385444078596679e-03 1.3569940731522180e-03
1586 -1.6111676318610050e-02 -8.3196760271463163e-03 2.7348056621493266e-03
1619 -5.2523162123976354e-04 -1.2673103063329072e-03 9.8863205573254835e-05
1621 4.6110479458488021e-03 9.5930904887512065e-03 2.8181650552113412e-03
1623 -1.0959129995743761e-02 1.2447236968494136e-03 1.4682788684044479e-03
1624 -3.5721244402035631e-03 -8.2502697033625088e-04 -8.5151460018463281e-03
1626 -1.5536152824432224e-03 8.4764469616054033e-03 7.3363142365804094e-04
1627 2.5067260092922570e-03 2.0030603296728984e-03 1.5955428850704158e-03
1629 -1.1673194864209599e-03 1.7796104332797773e-03 1.2410396311710932e-03
1630 3.8981500467354238e-04 -3.6967159269407817e-03 -2.2342256079433795e-03
1631 -4.8871808322170623e-03 -1.0833071347336263e-03 3.2895985405008779e-03
1632 -2.2025003884106704e-03 -7.7025486873773183e-03 -1.1578874407945208e-02
1634 4.9937433709947611e-03 3.2323554229158964e-03 7.7461341761550827e-03
1636 -1.8016356188851708e-03 -4.3130750152410856e-04 2.8079870050949618e-03
1657 -5.3415715483408890e-03 1.0658163921629833e-03 1.5527544376314202e-03
1658 -1.3844870614521301e-03 -5.7752061671734233e-03 -2.9441009454205368e-03
1710 -4.0854763886958231e-03 3.6127478855223424e-03 -1.7385979638478704e-03
1719 1.7960267737823217e-03 -4.1899984187614217e-03 -7.3432168198267966e-04
1720 -6.3636446866677226e-03 -3.2495666811925049e-03 -2.9723379393127225e-03
1721 4.5247698445733224e-03 -6.2492952552703268e-03 -7.1842788850941166e-03
1722 7.0810305616412902e-03 5.7724795453439233e-03 6.9528246644769628e-03
1727 6.3603748422905969e-03 -2.9408629517125241e-03 2.5503752158757354e-03
1732 0.0000000000000000e+00 0.0000000000000000e+00 0.0000000000000000e+00
1739 0.0000000000000000e+00 0.0000000000000000e+00 0.0000000000000000e+00
1740 0.0000000000000000e+00 0.0000000000000000e+00 0.0000000000000000e+00
1774 0.0000000000000000e+00 0.0000000000000000e+00 0.0000000000000000e+00
1783 0.0000000000000000e+00 0.0000000000000000e+00 0.0000000000000000e+00
1784 0.0000000000000000e+00 0.0000000000000000e+00 0.0000000000000000e+00
1785 0.0000000000000000e+00 0.0000000000000000e+00 0.0000000000000000e+00
1786 0.0000000000000000e+00 0.0000000000000000e+00 0.0000000000000000e+00
1791 0.0000000000000000e+00 0.0000000000000000e+00 0.0000000000000000e+00
1446 3.2374058979195990e-03 9.1988772379629040e-03 4.6447499041323247e-03
1488 4.3529613175833926e-03 9.8730439303348471e-04 1.5212925023675762e-03
1489 2.7491311395229784e-03 7.5632072819289686e-03 -4.4682175940126190e-04
1490 -5.6141826384416684e-04 5.2897430336448061e-03 3.8795780445965589e-03
1492 -8.7694192551313976e-04 -5.2553924913893322e-04 -6.5824409618605879e-03
1493 -3.7939936052106991e-03 -9.2292377913911466e-03 7.3257837966686232e-03
1495 1.6604096439320340e-04 3.3862278543148783e-03 -8.1987545978940617e-04
1496 -7.6741598143788151e-03 1.8678495160451584e-03 1.9602495089766510e-03
1497 -8.3663800152542357e-04 -1.2397896627179936e-03 -3.1890588353022309e-03
1498 9.1291361349701307e-04 3.3239785241209827e-03 -1.4043116036039674e-02
1500 1.1708112493742091e-03 4.2397273052128077e-03 -4.9201758543584587e-03
1504 3.7725114736524385e-03 -5.5863673244702806e-03 -3.8448243709217488e-03
1545 1.7255811673951935e-03 -4.0442004615071463e-03 5.0141135903867600e-03
1546 -2.6789740387639272e-03 5.7254528752216163e-03 -7.0847491052967863e-04
1548 5.9846317023495750e-03 -8.0503734540139892e-03 3.8782204993738660e-03
1549 -4.7823909845814520e-03 5.6110122925354241e-03 -3.2785586800777424e-03
1551 9.8869528663120820e-03 1.3949064821319078e-03 1.0023924506649795e-03
1552 -1.3487972245815712e-04 -9.3817035416644840e-03 1.7942854390506882e-03
1553 3.1910739792865312e-03 6.6909458442191436e-04 8.0891453741717509e-04
1554 7.9678507932661145e-03 -1.7122691396562319e-03 -5.1078676448765344e-03
1556 -1.5735651915202607e-03 -3.9512369114162778e-03 4.2253710422426394e-03
1557 -5.5285479573791039e-03 5.3399232806615167e-04 8.8411179163378362e-03
1559 -8.7481944575823055e-04 8.6823509894872683e-03 1.7010191085333991e-03
1599 -3.3872208766099923e-03 6.3962482884463616e-03 1.7667289479738827e-03
1686 -5.7259643539180217e-03 -6.2384431130626779e-04 4.8971312488497948e-03
1687 -3.3357549046651390e-03 8.2568391111442988e-03 1.6132293280953195e-03
1688 -2.2417192721513684e-03 7.9742382966933043e-04 -3.7496737931343154e-03
1701 -2.1715920733248869e-03 -5.3269534415331743e-03 -2.6937991703126257e-03
1702 4.8883313939321743e-03 1.7736349977226303e-04 -4.8321908922643457e-04
1703 2.5939935812059564e-03 4.5956867699543397e-03 -7.4938704689623634e-03
1752 0.0000000000000000e+00 0.0000000000000000e+00 0.0000000000000000e+00
1765 0.0000000000000000e+00 0.0000000000000000e+00 0.0000000000000000e+00
1766 0.0000000000000000e+00 0.0000000000000000e+00 0.0000000000000000e+00
1767 0.0000000000000000e+00 0.0000000000000000e+00 0.0000000000000000e+00
1768 0.0000000000000000e+00 0.0000000000000000e+00 0.0000000000000000e+00
1778 0.0000000000000000e+00 0.0000000000000000e+00 0.0000000000000000e+00
1560 -7.4578172503709040e-03 1.1333760444154788e-02 -8.9053846127903676e-03
1561 3.6741865513172800e-04 -5.5641607375212197e-03 1.2454860806618685e-03
1562 -2.8583966844299620e-03 -1.2922077707101401e-03 8.0660269829694003e-04
1564 8.1953165384450292e-03 -4.2838731580378013e-03 5.5581345038314403e-04
1568 -5.3360428841029914e-03 -6.1708024627121208e-03 -8.2858797090245521e-03
1600 -6.1959036039648495e-03 -4.2262256624717564e-03 6.8037690483066981e-04
1602 -2.4700489943016738e-03 1.4729932208853180e-03 -8.4695184295460989e-03
1603 5.2546264605845923e-03 -6.2974553704249316e-03 -5.6980680500140378e-03
1605 4.6185749558665034e-03 5.2217961589198338e-03 -5.4902569637537355e-03
1606 5.6492164333263144e-03 1.2942697306410585e-03 8.8298777052406643e-03
1607 -1.8611951193606413e-03 1.8592642490813916e-03 3.2018083260158380e-03
1608 8.7442398421440776e-03 9.4654314224504224e-05 -1.8208306284699579e-04
1610 1.4318090036566570e-04 5.2445176896543638e-03 -7.8817308977476019e-03
1611 -6.4663960360127615e-03 -9.4334296730511611e-04 -2.8170292340827154e-03
1613 -6.2452529472089048e-03 3.6829650352458933e-03 -2.9612805937105926e-03
1614 5.9853915370009620e-04 5.8708526439505346e-03 -9.2507876504880379e-04
1615 1.7111812177646776e-03 -9.1367004474168507e-04 -6.3233762468061096e-05
1637 3.6251665944256419e-03 3.9070271803987233e-03 -6.7602813959399145e-03
1638 -2.0524915516161608e-03 -8.7104016247172462e-03 4.0825435828314204e-03
1704 4.5063951380059199e-03 -6.9162330590526064e-05 -4.1304261698892316e-03
1714 -4.0714057229440395e-05 -3.5510384158170473e-03 -1.9346667264960613e-03
1715 6.2956424483594647e-03 -6.0159048214121350e-04 5.0843646730190937e-03
1716 2.9788787448258554e-03 -3.4634380750568536e-03 8.0978343262521849e-03
1717 7.2784333162737268e-03 1.3182225508514207e-02 4.9334234485539840e-03
1723 -4.0923702161056045e-03 -1.8051049827408558e-03 2.6907447282079962e-03
1779 0.0000000000000000e+00 0.0000000000000000e+00 0.0000000000000000e+00
1780 0.0000000000000000e+00 0.0000000000000000e+00 0.0000000000000000e+00
1781 0.0000000000000000e+00 0.0000000000000000e+00 0.0000000000000000e+00
1787 0.0000000000000000e+00 0.0000000000000000e+00 0.0000000000000000e+00
1616 -4.9559382880444650e-03 -6.7527407452905200e-04 -7.3931308595802138e-03
1618 2.2937082485443116e-03 1.7238947702624388e-03 -7.0217990132207973e-03
1622 3.8010995080489333e-03 4.1940457604360019e-03 1.2952709064435726e-02
1640 -1.2152794411022536e-03 1.9448695637021745e-03 3.1828924483160155e-03
1641 2.3724274075730286e-03 -4.0311209524581566e-03 -5.6584197855378531e-03
1643 -8.8520623296533141e-03 -3.0301623534557557e-04 4.5300069812119628e-04
1644 -7.2106078238092829e-03 -2.4961108703789297e-03 5.6180998943227735e-03
1645 3.2153613162406391e-03 2.6067233940732480e-03 3.3519696609994930e-05
1646 -1.3094415986386633e-03 -9.6823964695268790e-04 6.2587668882266930e-04
1648 1.9669860511922470e-04 -1.0198151982317952e-04 2.0233432498389359e-03
1649 1.7074289379974950e-03 5.9404956345900928e-03 5.4457076089919751e-03
1651 -5.1090996310492005e-03 3.1783686367992609e-03 3.8577869739203421e-03
1652 -7.8689544381271631e-04 1.4587591529059661e-03 2.2279404035451279e-04
1653 2.7352803053177174e-03 -3.7045475050955152e-03 -2.2233791766211042e-03
1654 1.7893627622944308e-03 3.5883924121811735e-03 8.7840684869481883e-04
1656 1.5007038213538397e-03 4.8059348575011538e-03 -1.4205304809956369e-03
1659 5.4018789359188933e-03 -3.1582603703879330e-03 -3.7753004948579451e-03
1660 4.1903602205124275e-03 8.4495973214520955e-03 -5.1185855828487442e-03
1662 4.3809465383735586e-03 2.5833861253986631e-04 6.6456493851942931e-03
1663 1.5721164289531988e-03 6.4601321886636966e-04 -4.5409219387617479e-03
1664 1.2054018988532280e-03 2.4563518581285641e-03 -5.4156353511100909e-03
1724 4.5365629081610941e-03 5.1875277588375786e-03 -8.6336165674569653e-03
1725 2.9200772684392223e-04 2.6734906814057254e-03 -5.2346354195374062e-03
1726 1.7697969256932206e-03 -5.6777995594653741e-03 3.0790065266042928e-04
1728 -1.1765584605443042e-03 2.7823382956937886e-03 4.2154724391245280e-03
1750 0.0000000000000000e+00 0.0000000000000000e+00 0.0000000000000000e+00
1751 0.0000000000000000e+00 0.0000000000000000e+00 0.0000000000000000e+00
1788 0.0000000000000000e+00 0.0000000000000000e+00 0.0000000000000000e+00
1789 0.0000000000000000e+00 0.0000000000000000e+00 0.0000000000000000e+00
1790 0.0000000000000000e+00 0.0000000000000000e+00 0.0000000000000000e+00
1792 0.0000000000000000e+00 0.0000000000000000e+00 0.0000000000000000e+00
