LAMMPS data file via write_data, version 23 Jun 2022, timestep = 0

720 atoms
3 atom types

0 15.126656667556212 xlo xhi
0 15.126656667556212 ylo yhi
-2.2283669804811876 32.0884845189291 zlo zhi

Masses

1 12.011
2 1.00784
3 16

Atoms # charge/kk

1 1 -1.9635406053464741e-03 2.0810279565152359e-10 3.7816641669515660e+00 -1.0050686373728250e+00 0 0 0
2 1 -1.9632243606119803e-03 1.5126656667486325e+01 1.2605547222418076e+00 -1.0050686371149471e+00 -1 0 0
3 1 1.1143291354653351e-02 1.2605547201442815e+00 1.2605547224515337e+00 -1.6812929702972399e+00 0 0 0
4 1 -1.9644247626803661e-03 2.5211094450955085e+00 1.2605547225373928e+00 -1.0050686391752686e+00 0 0 0
6 1 -1.9632785533102584e-03 3.1342982923741484e-10 6.3027736114484432e+00 -1.0050686373362867e+00 0 0 0
7 1 1.1144846620223187e-02 1.2605547188985924e+00 6.3027736117706930e+00 -1.6812929709795865e+00 0 0 0
8 1 1.1143854473696481e-02 1.2605547187383936e+00 3.7816641669334961e+00 -1.6812929715052476e+00 0 0 0
9 1 -1.9637442249807219e-03 2.5211094450582623e+00 6.3027736113600072e+00 -1.0050686400500279e+00 0 0 0
10 1 -1.9643481988785693e-03 2.5211094452205529e+00 3.7816641670783855e+00 -1.0050686405053719e+00 0 0 0
11 1 1.1143509007995980e-02 3.7816641673646942e+00 3.7816641671676221e+00 -1.6812929756998600e+00 0 0 0
12 1 1.1142791287163511e-02 3.7816641668687283e+00 1.2605547214638690e+00 -1.6812929741280980e+00 0 0 0
13 1 -1.9642007906740524e-03 5.0422188889252002e+00 3.7816641668971780e+00 -1.0050686396449522e+00 0 0 0
14 1 -1.9641576082782652e-03 5.0422188890655786e+00 1.2605547226368439e+00 -1.0050686392683166e+00 0 0 0
15 1 1.1144370887465588e-02 6.3027736129332315e+00 1.2605547215120219e+00 -1.6812929706025059e+00 0 0 0
24 1 1.1144691380256028e-02 3.7816641686762211e+00 6.3027736124548381e+00 -1.6812929730381516e+00 0 0 0
26 1 -1.9636759349203367e-03 5.0422188887308286e+00 6.3027736112378632e+00 -1.0050686378596942e+00 0 0 0
27 1 1.1145885134634059e-02 6.3027736137903787e+00 6.3027736128398129e+00 -1.6812929658574569e+00 0 0 0
28 1 1.1145038092535820e-02 6.3027736133666004e+00 3.7816641680522336e+00 -1.6812929703676427e+00 0 0 0
30 1 -1.9628086159488604e-03 7.5633283339575224e+00 3.7816641668133228e+00 -1.0050686376286659e+00 0 0 0
73 1 2.5574717205107916e-03 5.3919128471952468e-11 2.5211094447223577e+00 4.5044206664969510e-04 0 0 0
74 1 2.7129768256747375e-03 1.5126656667493947e+01 3.7816641674168903e+00 2.6666225426649732e+00 -1 0 0
75 1 2.7122048822459262e-03 3.5237485111444688e-11 1.2605547226359357e+00 2.6666225424752499e+00 0 0 0
76 1 2.7749042350339193e-03 1.2605547218306434e+00 2.5211094447227209e+00 8.7489777872124785e-01 0 0 0
77 1 2.5583584394181604e-03 2.3889751844178352e-10 4.9523565867346228e-10 4.5044166156152723e-04 0 0 0
78 1 3.2856626462011772e-03 1.2605547222648297e+00 1.2605547226258782e+00 1.7823249280797617e+00 0 0 0
79 1 2.5572765687860662e-03 2.5211094443469269e+00 2.5286218028803089e-10 4.5044145884179344e-04 0 0 0
80 1 2.7757139052608992e-03 1.2605547221799076e+00 5.2775815104790556e-10 8.7489777840076965e-01 0 0 0
81 1 2.7125848925143468e-03 2.5211094446605817e+00 1.2605547224502971e+00 2.6666225424718459e+00 0 0 0
82 1 2.7751392317811154e-03 3.7816641670221913e+00 3.4678285372271223e-10 8.7489777863336415e-01 0 0 0
83 1 2.5560896511646032e-03 1.5126656667254604e+01 7.5633283334919632e+00 4.5044158653256936e-04 -1 0 0
85 1 2.7135456773476159e-03 2.4110106133506958e-11 6.3027736114097976e+00 2.6666225427298289e+00 0 0 0
87 1 2.5562759222647379e-03 1.5126656667322266e+01 5.0422188893278150e+00 4.5044146095155855e-04 -1 0 0
88 1 3.2857763663228881e-03 1.2605547220201405e+00 6.3027736115123343e+00 1.7823249290908991e+00 0 0 0
89 1 3.2857632024503188e-03 1.2605547219805617e+00 3.7816641671628304e+00 1.7823249285648157e+00 0 0 0
90 1 2.5557435472692383e-03 2.5211094439812252e+00 5.0422188893415338e+00 4.5043989141831689e-04 0 0 0
91 1 2.7740142110619743e-03 1.2605547216393529e+00 5.0422188893745501e+00 8.7489777862549900e-01 0 0 0
92 1 2.7141793184481916e-03 2.5211094445785927e+00 6.3027736115773054e+00 2.6666225431965729e+00 0 0 0
93 1 2.7135125990709066e-03 2.5211094444798707e+00 3.7816641674107951e+00 2.6666225428436312e+00 0 0 0
94 1 2.7735019700341795e-03 3.7816641669863880e+00 5.0422188894843245e+00 8.7489777847624883e-01 0 0 0
95 1 2.5565835448672193e-03 2.5211094439803063e+00 2.5211094443243911e+00 4.5044091659259862e-04 0 0 0
96 1 3.2859759090658920e-03 3.7816641668664195e+00 3.7816641671161157e+00 1.7823249291260794e+00 0 0 0
97 1 3.2860084119612008e-03 3.7816641670212814e+00 1.2605547222753168e+00 1.7823249286596596e+00 0 0 0
98 1 2.5561817248838316e-03 5.0422188894905657e+00 2.5211094443376636e+00 4.5044043809821502e-04 0 0 0
99 1 2.7744578600096088e-03 3.7816641668432793e+00 2.5211094444754023e+00 8.7489777862248264e-01 0 0 0
100 1 2.7139456176512064e-03 5.0422188893583177e+00 3.7816641673786875e+00 2.6666225430499968e+00 0 0 0
101 1 2.7132612560971064e-03 5.0422188893960627e+00 1.2605547223107822e+00 2.6666225426113117e+00 0 0 0
102 1 2.7741023054800493e-03 6.3027736116250122e+00 2.5211094444425264e+00 8.7489777861194484e-01 0 0 0
103 1 2.5568869923897632e-03 5.0422188895478710e+00 6.0453519608867478e-11 4.5044130190387754e-04 0 0 0
104 1 3.2857844188142905e-03 6.3027736115587043e+00 1.2605547221623028e+00 1.7823249286810201e+00 0 0 0
105 1 2.5569171217934786e-03 7.5633283335327190e+00 1.5126656667541065e+01 4.5044181429480367e-04 0 -1 0
106 1 2.7747902450581583e-03 6.3027736117090614e+00 2.4505879813022353e-10 8.7489777877967112e-01 0 0 0
123 1 3.2860233148035447e-03 3.7816641669909457e+00 6.3027736116368116e+00 1.7823249296962040e+00 0 0 0
124 1 2.5554512930061881e-03 5.0422188898208313e+00 7.5633283335534518e+00 4.5044041350819218e-04 0 0 0
125 1 2.7736157331628088e-03 3.7816641671094073e+00 7.5633283334347201e+00 8.7489777855001383e-01 0 0 0
127 1 2.7144033462625809e-03 5.0422188894057198e+00 6.3027736116881510e+00 2.6666225433659538e+00 0 0 0
129 1 2.5551136694159098e-03 5.0422188897040323e+00 5.0422188896532711e+00 4.5044007864151206e-04 0 0 0
130 1 3.2854875884308497e-03 6.3027736115545325e+00 6.3027736117420208e+00 1.7823249294458694e+00 0 0 0
131 1 3.2857347694365104e-03 6.3027736115296014e+00 3.7816641671829667e+00 1.7823249290337360e+00 0 0 0
132 1 2.5555082198780526e-03 7.5633283333420191e+00 5.0422188897635412e+00 4.5044014925180371e-04 0 0 0
133 1 2.7729784315489812e-03 6.3027736116534854e+00 5.0422188896456026e+00 8.7489777844521344e-01 0 0 0
135 1 2.7140189900844371e-03 7.5633283336926578e+00 3.7816641673719800e+00 2.6666225433155608e+00 0 0 0
169 1 2.5550318529431533e-03 7.5633283334179762e+00 7.5633283335619819e+00 4.5044060873930807e-04 0 0 0
217 1 2.9511044033755395e-03 1.5126656667300164e+01 2.5211094451270224e+00 3.5615112071039672e+00 -1 0 0
220 1 2.6508390716658966e-03 1.2605547221331317e+00 2.5211094450399205e+00 4.4561247607467100e+00 0 0 0
221 1 2.9508455577092830e-03 1.5126656667478828e+01 2.5004827273178975e-11 3.5615112075317943e+00 -1 0 0
223 1 2.9512258529154501e-03 2.5211094447617626e+00 1.5126656667478100e+01 3.5615112072755641e+00 0 -1 0
224 1 2.6510342747573987e-03 1.2605547222556235e+00 1.5126656667153423e+01 4.4561247611600665e+00 0 -1 0
226 1 2.6511202633372343e-03 3.7816641671742346e+00 1.5126656667074622e+01 4.4561247610765111e+00 0 -1 0
227 1 2.9520287599014354e-03 1.6163267886953606e-10 7.5633283332616204e+00 3.5615112067749051e+00 0 0 0
231 1 2.9518473726376469e-03 1.5126656667409835e+01 5.0422188895199413e+00 3.5615112071816628e+00 -1 0 0
234 1 2.9523571511138359e-03 2.5211094446084386e+00 5.0422188897660991e+00 3.5615112071866433e+00 0 0 0
235 1 2.6504816568131322e-03 1.2605547222857612e+00 5.0422188895768372e+00 4.4561247607834247e+00 0 0 0
238 1 2.6503052721070161e-03 3.7816641671022770e+00 5.0422188897741558e+00 4.4561247609433847e+00 0 0 0
239 1 2.9516521992740820e-03 2.5211094445904121e+00 2.5211094450009850e+00 3.5615112068611348e+00 0 0 0
242 1 2.9521009032033889e-03 5.0422188893811901e+00 2.5211094448835301e+00 3.5615112070451307e+00 0 0 0
243 1 2.6509515647712718e-03 3.7816641671475040e+00 2.5211094449732192e+00 4.4561247608226093e+00 0 0 0
246 1 2.6504429789056894e-03 6.3027736117102604e+00 2.5211094449966507e+00 4.4561247611046717e+00 0 0 0
247 1 2.9515758525278739e-03 5.0422188892895070e+00 1.5126656667468117e+01 3.5615112072567312e+00 0 -1 0
249 1 2.9510784709468403e-03 7.5633283334911798e+00 1.2267834175727540e-10 3.5615112070969288e+00 0 0 0
250 1 2.6502740231963045e-03 6.3027736113915669e+00 1.5126656667278308e+01 4.4561247612370236e+00 0 -1 0
268 1 2.9529042608821073e-03 5.0422188894024256e+00 7.5633283334583457e+00 3.5615112074396076e+00 0 0 0
269 1 2.6504941660487856e-03 3.7816641672304740e+00 7.5633283334541286e+00 4.4561247607845322e+00 0 0 0
273 1 2.9525239149313836e-03 5.0422188893513056e+00 5.0422188898485762e+00 3.5615112074055704e+00 0 0 0
276 1 2.9528111243711588e-03 7.5633283339347077e+00 5.0422188897884412e+00 3.5615112077383180e+00 0 0 0
277 1 2.6500828961454862e-03 6.3027736117362059e+00 5.0422188897491740e+00 4.4561247611553094e+00 0 0 0
313 1 2.9528431430218970e-03 7.5633283337245194e+00 7.5633283334125494e+00 3.5615112076073054e+00 0 0 0
16 1 -1.9630102456308037e-03 7.5633283339709063e+00 1.2605547226398046e+00 -1.0050686376042144e+00 0 0 0
29 1 -1.9627572169461384e-03 7.5633283339832573e+00 6.3027736111996662e+00 -1.0050686356970864e+00 0 0 0
31 1 1.1146002871705503e-02 8.8238830537222555e+00 3.7816641680790082e+00 -1.6812929715973026e+00 0 0 0
32 1 1.1145003906355576e-02 8.8238830536891690e+00 1.2605547215983017e+00 -1.6812929711376881e+00 0 0 0
33 1 -1.9629275395473792e-03 1.0084437778423052e+01 3.7816641668527557e+00 -1.0050686394772397e+00 0 0 0
34 1 -1.9633529318586721e-03 1.0084437778560511e+01 1.2605547225995575e+00 -1.0050686391510102e+00 0 0 0
35 1 1.1144241115749572e-02 1.1344992501367905e+01 1.2605547223878222e+00 -1.6812929743444471e+00 0 0 0
36 1 -1.9632997425087896e-03 1.2605547222267912e+01 1.2605547223011933e+00 -1.0050686387544967e+00 0 0 0
48 1 1.1146576996806637e-02 8.8238830532545123e+00 6.3027736128098777e+00 -1.6812929679763273e+00 0 0 0
50 1 -1.9629028615799383e-03 1.0084437778511989e+01 6.3027736112206521e+00 -1.0050686382539735e+00 0 0 0
51 1 1.1145730775803744e-02 1.1344992501756042e+01 6.3027736123945344e+00 -1.6812929715360783e+00 0 0 0
52 1 1.1144995067773280e-02 1.1344992502340268e+01 3.7816641680489962e+00 -1.6812929739669047e+00 0 0 0
53 1 -1.9633560612271994e-03 1.2605547222292698e+01 6.3027736113471713e+00 -1.0050686377024172e+00 0 0 0
54 1 -1.9635122500868359e-03 1.2605547222156037e+01 3.7816641668096804e+00 -1.0050686383605325e+00 0 0 0
55 1 1.1144376104566854e-02 1.3866101947136327e+01 3.7816641677880503e+00 -1.6812929685423061e+00 0 0 0
56 1 1.1144108248374104e-02 1.3866101947665312e+01 1.2605547232891423e+00 -1.6812929699780250e+00 0 0 0
68 1 1.1145194369678859e-02 1.3866101946292812e+01 6.3027736117403705e+00 -1.6812929673583468e+00 0 0 0
107 1 2.7128561776972224e-03 7.5633283336427501e+00 1.2605547224166314e+00 2.6666225426226360e+00 0 0 0
108 1 2.7742328457302607e-03 8.8238830554600849e+00 7.1955437003363444e-11 8.7489777885129827e-01 0 0 0
134 1 2.7144416010922087e-03 7.5633283336092614e+00 6.3027736116841302e+00 2.6666225435320285e+00 0 0 0
136 1 2.7732515812450933e-03 8.8238830553727556e+00 5.0422188896137712e+00 8.7489777780162226e-01 0 0 0
137 1 2.5565222624622827e-03 7.5633283334131969e+00 2.5211094443634008e+00 4.5044059900088625e-04 0 0 0
138 1 3.2860154494010496e-03 8.8238830556776104e+00 3.7816641671097897e+00 1.7823249294380696e+00 0 0 0
139 1 3.2855106255415879e-03 8.8238830556041812e+00 1.2605547221080022e+00 1.7823249289450556e+00 0 0 0
140 1 2.5565994284122684e-03 1.0084437778011560e+01 2.5211094443890940e+00 4.5043917806301617e-04 0 0 0
141 1 2.7740666409359826e-03 8.8238830554294907e+00 2.5211094443708766e+00 8.7489777830167292e-01 0 0 0
142 1 2.7146721440406757e-03 1.0084437778260046e+01 3.7816641673674605e+00 2.6666225439447855e+00 0 0 0
143 1 2.7133279584382708e-03 1.0084437778124840e+01 1.2605547225647347e+00 2.6666225430894785e+00 0 0 0
144 1 2.7747409197494831e-03 1.1344992500989838e+01 2.5211094446042615e+00 8.7489777794768264e-01 0 0 0
145 1 2.5564681608321268e-03 1.0084437777769290e+01 1.5126656667465259e+01 4.5044072788862294e-04 0 -1 0
146 1 3.2862673826136507e-03 1.1344992500621800e+01 1.2605547223193803e+00 1.7823249290886303e+00 0 0 0
147 1 2.5575202649378449e-03 1.2605547223454845e+01 2.2712473334136973e-10 4.5044041841239282e-04 0 0 0
148 1 2.7748042073510309e-03 1.1344992500556344e+01 5.2569111369277585e-11 8.7489777841006255e-01 0 0 0
149 1 2.7133532620274869e-03 1.2605547223031101e+01 1.2605547226444980e+00 2.6666225430816768e+00 0 0 0
150 1 2.7759360185863891e-03 1.3866101945741121e+01 4.0673973790422223e-10 8.7489777810598912e-01 0 0 0
171 1 3.2857951995972630e-03 8.8238830555666858e+00 6.3027736117770550e+00 1.7823249296734356e+00 0 0 0
173 1 2.7723897578172552e-03 8.8238830554083449e+00 7.5633283336376707e+00 8.7489777804146118e-01 0 0 0
175 1 2.7153166112253960e-03 1.0084437778126290e+01 6.3027736115060984e+00 2.6666225439698783e+00 0 0 0
176 1 2.7729855842018843e-03 1.1344992501014612e+01 7.5633283337292188e+00 8.7489777792260648e-01 0 0 0
177 1 2.5556785360487766e-03 1.0084437778086050e+01 5.0422188896600977e+00 4.5043833751836189e-04 0 0 0
178 1 3.2862633646830197e-03 1.1344992500870669e+01 6.3027736116748452e+00 1.7823249296078116e+00 0 0 0
179 1 3.2864553364467383e-03 1.1344992500935209e+01 3.7816641671836591e+00 1.7823249295718484e+00 0 0 0
180 1 2.5558161108915770e-03 1.2605547224011106e+01 5.0422188895359596e+00 4.5043983672950341e-04 0 0 0
181 1 2.7736419970533577e-03 1.1344992501152680e+01 5.0422188895491589e+00 8.7489777760720455e-01 0 0 0
182 1 2.7146441911151654e-03 1.2605547223146583e+01 6.3027736113426016e+00 2.6666225433371085e+00 0 0 0
183 1 2.7140626647754341e-03 1.2605547223161906e+01 3.7816641673802405e+00 2.6666225435006625e+00 0 0 0
184 1 2.7738820005307955e-03 1.3866101945863987e+01 5.0422188894712052e+00 8.7489777840039218e-01 0 0 0
185 1 2.5571470485733490e-03 1.2605547223940949e+01 2.5211094447614384e+00 4.5044016734556040e-04 0 0 0
186 1 3.2859630560758053e-03 1.3866101945679274e+01 3.7816641673035423e+00 1.7823249286062564e+00 0 0 0
187 1 3.2861957745845597e-03 1.3866101945597904e+01 1.2605547227243104e+00 1.7823249282446960e+00 0 0 0
188 1 2.7752236975642722e-03 1.3866101945950419e+01 2.5211094449231992e+00 8.7489777835699289e-01 0 0 0
209 1 3.2857094739347286e-03 1.3866101945665672e+01 6.3027736115153097e+00 1.7823249287749670e+00 0 0 0
252 1 2.6499558444635428e-03 8.8238830559117414e+00 8.7717201623748674e-11 4.4561247611166461e+00 0 0 0
280 1 2.6508044926158319e-03 8.8238830562148820e+00 5.0422188896099955e+00 4.4561247613791064e+00 0 0 0
281 1 2.9518724992560461e-03 7.5633283338650585e+00 2.5211094450047264e+00 3.5615112072994339e+00 0 0 0
284 1 2.9524197914607151e-03 1.0084437778430903e+01 2.5211094452034728e+00 3.5615112077000792e+00 0 0 0
285 1 2.6505365011165339e-03 8.8238830561994668e+00 2.5211094453312781e+00 4.4561247612221173e+00 0 0 0
288 1 2.6509967715410174e-03 1.1344992500601922e+01 2.5211094453912524e+00 4.4561247613246726e+00 0 0 0
289 1 2.9514483981128992e-03 1.0084437778344000e+01 2.1120765213190354e-10 3.5615112071866708e+00 0 0 0
291 1 2.9515659820703380e-03 1.2605547223081443e+01 1.0354105066491462e-10 3.5615112076026323e+00 0 0 0
292 1 2.6505909566956133e-03 1.1344992500798151e+01 1.0579527461869293e-10 4.4561247612906882e+00 0 0 0
294 1 2.6508231288135155e-03 1.3866101945137283e+01 1.5126656667375284e+01 4.4561247614946238e+00 0 -1 0
317 1 2.6505402691526674e-03 8.8238830558658190e+00 7.5633283332614623e+00 4.4561247611461887e+00 0 0 0
320 1 2.6510882457615602e-03 1.1344992500185954e+01 7.5633283329828025e+00 4.4561247610015737e+00 0 0 0
321 1 2.9536153734516851e-03 1.0084437778351139e+01 5.0422188895550679e+00 3.5615112081681248e+00 0 0 0
324 1 2.9528178346189811e-03 1.2605547222791303e+01 5.0422188893690354e+00 3.5615112078304900e+00 0 0 0
325 1 2.6510290539434695e-03 1.1344992500423368e+01 5.0422188892959587e+00 4.4561247614053476e+00 0 0 0
328 1 2.6504850991642638e-03 1.3866101944906204e+01 5.0422188892377324e+00 4.4561247610216892e+00 0 0 0
329 1 2.9521003384300223e-03 1.2605547222878970e+01 2.5211094452082983e+00 3.5615112076886124e+00 0 0 0
332 1 2.6507919399076552e-03 1.3866101944876398e+01 2.5211094451234075e+00 4.4561247611314165e+00 0 0 0
5 1 -1.9628682635195412e-03 2.0139891183315546e-10 8.8238830563074480e+00 -1.0050686373624471e+00 0 0 0
17 1 -1.9631608079019053e-03 1.5126656667389208e+01 1.3866101944964317e+01 -1.0050686377422753e+00 -1 0 0
18 1 -1.9630669855647143e-03 1.5126656667555141e+01 1.1344992500755039e+01 -1.0050686380256486e+00 -1 0 0
19 1 1.1144451549542663e-02 1.2605547208119459e+00 1.1344992500222904e+01 -1.6812929723842454e+00 0 0 0
20 1 1.1145394324905147e-02 1.2605547197351232e+00 8.8238830548231668e+00 -1.6812929710039612e+00 0 0 0
21 1 -1.9632569347498648e-03 2.5211094448947464e+00 1.1344992500547956e+01 -1.0050686390333641e+00 0 0 0
22 1 -1.9628172001042565e-03 2.5211094449642082e+00 8.8238830561828454e+00 -1.0050686392682946e+00 0 0 0
23 1 1.1145652523176413e-02 3.7816641685092232e+00 8.8238830549965090e+00 -1.6812929728100019e+00 0 0 0
25 1 -1.9626293803592363e-03 5.0422188888188382e+00 8.8238830562979356e+00 -1.0050686377338347e+00 0 0 0
37 1 1.1143340731258285e-02 1.2605547213812192e+00 1.3866101946466836e+01 -1.6812929711532618e+00 0 0 0
38 1 -1.9642607610933084e-03 2.5211094448636970e+00 1.3866101944961979e+01 -1.0050686384857503e+00 0 0 0
39 1 1.1142751029175826e-02 3.7816641674878602e+00 1.3866101946059368e+01 -1.6812929728091066e+00 0 0 0
40 1 1.1144430450104064e-02 3.7816641678168939e+00 1.1344992500526390e+01 -1.6812929741510201e+00 0 0 0
41 1 -1.9641364625796747e-03 5.0422188890461621e+00 1.3866101945028232e+01 -1.0050686382494480e+00 0 0 0
42 1 -1.9631322233405121e-03 5.0422188889937525e+00 1.1344992500570550e+01 -1.0050686384993266e+00 0 0 0
43 1 1.1145477538007473e-02 6.3027736129782550e+00 1.1344992500093181e+01 -1.6812929709547466e+00 0 0 0
44 1 1.1146513087242798e-02 6.3027736134694257e+00 8.8238830543636162e+00 -1.6812929674147574e+00 0 0 0
45 1 -1.9628792045692420e-03 7.5633283339468047e+00 1.1344992500605750e+01 -1.0050686375366646e+00 0 0 0
46 1 -1.9625281945186671e-03 7.5633283339722892e+00 8.8238830563502191e+00 -1.0050686362292649e+00 0 0 0
57 1 1.1144181407600753e-02 6.3027736128658711e+00 1.3866101945807722e+01 -1.6812929696340881e+00 0 0 0
84 1 2.7134976965795814e-03 1.2240874082987032e-11 8.8238830554603780e+00 2.6666225425530325e+00 0 0 0
86 1 2.7737952849331985e-03 1.2605547216945916e+00 7.5633283334424544e+00 8.7489777878578734e-01 0 0 0
109 1 2.5579993651266169e-03 1.5126656667550352e+01 1.2605547223119894e+01 4.5044050724644047e-04 -1 0 0
110 1 2.7125922166178948e-03 1.5126656667549236e+01 1.3866101945346360e+01 2.6666225429951385e+00 -1 0 0
111 1 2.7133153141402386e-03 1.5126656667439875e+01 1.1344992500399384e+01 2.6666225430079238e+00 -1 0 0
112 1 2.7758160155374788e-03 1.2605547220534803e+00 1.2605547223169067e+01 8.7489777778912559e-01 0 0 0
113 1 2.5569269005655893e-03 1.5126656667297683e+01 1.0084437777733212e+01 4.5044103859602204e-04 -1 0 0
114 1 3.2863668667151812e-03 1.2605547220421838e+00 1.1344992500306828e+01 1.7823249286173619e+00 0 0 0
115 1 3.2858625054521880e-03 1.2605547220181130e+00 8.8238830552716152e+00 1.7823249290320549e+00 0 0 0
116 1 2.5570624274589759e-03 2.5211094441437956e+00 1.0084437777961901e+01 4.5043961944327723e-04 0 0 0
117 1 2.7747876016411604e-03 1.2605547217593580e+00 1.0084437777653930e+01 8.7489777827033588e-01 0 0 0
118 1 2.7135953746850478e-03 2.5211094446225184e+00 1.1344992500417465e+01 2.6666225435030166e+00 0 0 0
119 1 2.7140878612366922e-03 2.5211094446150919e+00 8.8238830553875758e+00 2.6666225432273079e+00 0 0 0
120 1 2.7745021108103972e-03 3.7816641669793110e+00 1.0084437777725139e+01 8.7489777779865063e-01 0 0 0
121 1 2.5560468646217130e-03 2.5211094441260569e+00 7.5633283336079637e+00 4.5044010514664278e-04 0 0 0
122 1 3.2862427565117482e-03 3.7816641669922419e+00 8.8238830552164966e+00 1.7823249295721393e+00 0 0 0
126 1 2.7144925091624763e-03 5.0422188894146371e+00 8.8238830553660197e+00 2.6666225435074362e+00 0 0 0
128 1 2.7726378262334503e-03 6.3027736117362130e+00 7.5633283334276369e+00 8.7489777853030148e-01 0 0 0
151 1 3.2861806968868452e-03 1.2605547223285012e+00 1.3866101945789220e+01 1.7823249281909042e+00 0 0 0
152 1 2.7127593587445774e-03 2.5211094447667173e+00 1.3866101945425251e+01 2.6666225431005213e+00 0 0 0
153 1 2.5574524740944213e-03 2.5211094443656736e+00 1.2605547223401821e+01 4.5043994731116909e-04 0 0 0
154 1 3.2861293241447146e-03 3.7816641671410522e+00 1.3866101945890948e+01 1.7823249286688678e+00 0 0 0
155 1 3.2863165408219836e-03 3.7816641669875040e+00 1.1344992500532980e+01 1.7823249290115415e+00 0 0 0
156 1 2.5568130732196185e-03 5.0422188895905409e+00 1.2605547223443045e+01 4.5043970642507481e-04 0 0 0
157 1 2.7750705357925468e-03 3.7816641670352440e+00 1.2605547223424109e+01 8.7489777773531829e-01 0 0 0
158 1 2.7131919130067468e-03 5.0422188893778159e+00 1.3866101945478867e+01 2.6666225431187915e+00 0 0 0
159 1 2.7139659897616264e-03 5.0422188893489945e+00 1.1344992500446146e+01 2.6666225436990079e+00 0 0 0
160 1 2.7745274189673440e-03 6.3027736117783570e+00 1.2605547223464075e+01 8.7489777771000032e-01 0 0 0
161 1 2.5564444486710657e-03 5.0422188896500559e+00 1.0084437777842627e+01 4.5043917793694487e-04 0 0 0
162 1 3.2859267467093656e-03 6.3027736116543585e+00 1.1344992500540817e+01 1.7823249287695639e+00 0 0 0
163 1 3.2855091648053766e-03 6.3027736116411583e+00 8.8238830551335816e+00 1.7823249293327739e+00 0 0 0
165 1 2.7734977654395461e-03 6.3027736117770292e+00 1.0084437777665588e+01 8.7489777762771681e-01 0 0 0
166 1 2.7139326441309522e-03 7.5633283337418415e+00 1.1344992500344325e+01 2.6666225433529109e+00 0 0 0
167 1 2.7141837269375039e-03 7.5633283336622936e+00 8.8238830553530896e+00 2.6666225434489390e+00 0 0 0
189 1 3.2859539946443746e-03 6.3027736115968160e+00 1.3866101945906960e+01 1.7823249285296225e+00 0 0 0
230 1 2.6502257725391620e-03 1.2605547226097260e+00 7.5633283332489771e+00 4.4561247605529566e+00 0 0 0
253 1 2.9515096724971289e-03 1.5126656667547103e+01 1.2605547222945640e+01 3.5615112079127611e+00 -1 0 0
256 1 2.6511624289873737e-03 1.2605547223812146e+00 1.2605547223045349e+01 4.4561247615469801e+00 0 0 0
257 1 2.9519508650947021e-03 1.2027024328717907e-10 1.0084437778011333e+01 3.5615112070782691e+00 0 0 0
260 1 2.9523860821702034e-03 2.5211094448674443e+00 1.0084437777868306e+01 3.5615112075478041e+00 0 0 0
261 1 2.6507119169060732e-03 1.2605547225827212e+00 1.0084437778382235e+01 4.4561247609032293e+00 0 0 0
264 1 2.6512156879213264e-03 3.7816641672499762e+00 1.0084437778263773e+01 4.4561247611859782e+00 0 0 0
265 1 2.9525546604346415e-03 2.5211094448422933e+00 7.5633283333782275e+00 3.5615112071219794e+00 0 0 0
272 1 2.6502257275301546e-03 6.3027736116495863e+00 7.5633283335127857e+00 4.4561247609952161e+00 0 0 0
297 1 2.9517623155728046e-03 2.5211094448049209e+00 1.2605547222955060e+01 3.5615112080268179e+00 0 0 0
300 1 2.9520944474454337e-03 5.0422188892043573e+00 1.2605547222992335e+01 3.5615112080817735e+00 0 0 0
301 1 2.6511960028126925e-03 3.7816641671485365e+00 1.2605547222906914e+01 4.4561247615986526e+00 0 0 0
304 1 2.6507917263494246e-03 6.3027736112527402e+00 1.2605547222824823e+01 4.4561247617116484e+00 0 0 0
305 1 2.9529988227166150e-03 5.0422188893471409e+00 1.0084437777795877e+01 3.5615112079042950e+00 0 0 0
309 1 2.6511024944625350e-03 6.3027736114847466e+00 1.0084437778085093e+01 4.4561247614192130e+00 0 0 0
47 1 1.1146419248980820e-02 8.8238830534694994e+00 8.8238830545013744e+00 -1.6812929693581968e+00 0 0 0
49 1 -1.9632239419083968e-03 1.0084437778535966e+01 8.8238830562205628e+00 -1.0050686385391194e+00 0 0 0
58 1 -1.9633108927763713e-03 7.5633283339711301e+00 1.3866101945059830e+01 -1.0050686369809883e+00 0 0 0
59 1 1.1144313569551353e-02 8.8238830536054813e+00 1.3866101945643145e+01 -1.6812929701670634e+00 0 0 0
60 1 1.1145155612735295e-02 8.8238830538535211e+00 1.1344992500036875e+01 -1.6812929720068435e+00 0 0 0
61 1 -1.9642732566216596e-03 1.0084437778677005e+01 1.3866101945150010e+01 -1.0050686386173946e+00 0 0 0
62 1 -1.9641683689308573e-03 1.0084437778563503e+01 1.1344992500625075e+01 -1.0050686392278763e+00 0 0 0
63 1 1.1143875743577333e-02 1.1344992500655119e+01 1.1344992499662734e+01 -1.6812929748766337e+00 0 0 0
64 1 1.1145511787540811e-02 1.1344992501240615e+01 8.8238830545521765e+00 -1.6812929725621932e+00 0 0 0
65 1 -1.9642310573176275e-03 1.2605547222492792e+01 1.1344992500796909e+01 -1.0050686391825441e+00 0 0 0
66 1 -1.9633760892396345e-03 1.2605547222397803e+01 8.8238830562929049e+00 -1.0050686381375105e+00 0 0 0
67 1 1.1145347243195318e-02 1.3866101946244715e+01 8.8238830542410707e+00 -1.6812929688125573e+00 0 0 0
69 1 1.1143340516774219e-02 1.1344992500198257e+01 1.3866101945622345e+01 -1.6812929742295106e+00 0 0 0
70 1 -1.9639984680281976e-03 1.2605547222499565e+01 1.3866101945120761e+01 -1.0050686391421302e+00 0 0 0
71 1 1.1143797740514315e-02 1.3866101947129984e+01 1.3866101946194430e+01 -1.6812929720404548e+00 0 0 0
72 1 1.1144218317715924e-02 1.3866101946552901e+01 1.1344992499415582e+01 -1.6812929720576535e+00 0 0 0
164 1 2.5556914327130279e-03 7.5633283336590793e+00 1.0084437777807965e+01 4.5043943436435440e-04 0 0 0
168 1 2.7727801843733697e-03 8.8238830557268813e+00 1.0084437777870670e+01 8.7489777779868616e-01 0 0 0
170 1 3.2853445636118754e-03 8.8238830557268155e+00 8.8238830554100645e+00 1.7823249294606622e+00 0 0 0
172 1 2.5549718542754985e-03 1.0084437778036927e+01 7.5633283337275676e+00 4.5043898000098948e-04 0 0 0
174 1 2.7148422385852968e-03 1.0084437778129296e+01 8.8238830554898495e+00 2.6666225434568145e+00 0 0 0
190 1 2.7130269996246559e-03 7.5633283336388955e+00 1.3866101945498503e+01 2.6666225427430716e+00 0 0 0
191 1 2.5565634146608794e-03 7.5633283337026480e+00 1.2605547223408776e+01 4.5044018983225026e-04 0 0 0
192 1 3.2855479131701777e-03 8.8238830557489294e+00 1.3866101945703621e+01 1.7823249286128546e+00 0 0 0
193 1 3.2856026699020053e-03 8.8238830559824919e+00 1.1344992500560124e+01 1.7823249288932954e+00 0 0 0
194 1 2.5555254489401861e-03 1.0084437777971493e+01 1.2605547223217458e+01 4.5043992713301545e-04 0 0 0
195 1 2.7738086147243140e-03 8.8238830557218488e+00 1.2605547223325589e+01 8.7489777810812230e-01 0 0 0
196 1 2.7131164304887807e-03 1.0084437778185338e+01 1.3866101945366243e+01 2.6666225428742552e+00 0 0 0
197 1 2.7139863179887216e-03 1.0084437778323519e+01 1.1344992500374296e+01 2.6666225432164188e+00 0 0 0
198 1 2.7737631180022992e-03 1.1344992500613484e+01 1.2605547223000697e+01 8.7489777838349025e-01 0 0 0
199 1 2.5549501445818073e-03 1.0084437778164720e+01 1.0084437777987304e+01 4.5043902020864624e-04 0 0 0
200 1 3.2856721913467890e-03 1.1344992500748752e+01 1.1344992500450909e+01 1.7823249292069738e+00 0 0 0
201 1 3.2859473043986309e-03 1.1344992500786041e+01 8.8238830556355925e+00 1.7823249293759089e+00 0 0 0
202 1 2.5555679137311735e-03 1.2605547223531415e+01 1.0084437777793255e+01 4.5044018312752972e-04 0 0 0
203 1 2.7730440142207276e-03 1.1344992500908985e+01 1.0084437777954680e+01 8.7489777823686588e-01 0 0 0
204 1 2.7137400259315330e-03 1.2605547222969957e+01 1.1344992500458037e+01 2.6666225430674637e+00 0 0 0
205 1 2.7145607101176114e-03 1.2605547223056984e+01 8.8238830555756014e+00 2.6666225428410675e+00 0 0 0
206 1 2.7740461725259272e-03 1.3866101945517045e+01 1.0084437777678394e+01 8.7489777853773887e-01 0 0 0
207 1 2.5554339801860835e-03 1.2605547223790317e+01 7.5633283336029953e+00 4.5044026645596914e-04 0 0 0
208 1 3.2857311443705993e-03 1.3866101945504244e+01 8.8238830554141892e+00 1.7823249287080347e+00 0 0 0
210 1 2.7734132906144606e-03 1.3866101945705447e+01 7.5633283335268491e+00 8.7489777864747154e-01 0 0 0
211 1 3.2858005323539710e-03 1.1344992500520023e+01 1.3866101945404299e+01 1.7823249289555188e+00 0 0 0
212 1 2.7131148153491302e-03 1.2605547222928763e+01 1.3866101945267728e+01 2.6666225431446149e+00 0 0 0
213 1 2.5563225104019279e-03 1.2605547223266045e+01 1.2605547222969763e+01 4.5044000389835091e-04 0 0 0
214 1 3.2862571719666275e-03 1.3866101945333364e+01 1.3866101945505910e+01 1.7823249283944154e+00 0 0 0
215 1 3.2860453421342970e-03 1.3866101945253313e+01 1.1344992500205477e+01 1.7823249286891596e+00 0 0 0
216 1 2.7752263144989824e-03 1.3866101945466234e+01 1.2605547222884166e+01 8.7489777803930591e-01 0 0 0
308 1 2.9528357405939798e-03 7.5633283335776786e+00 1.0084437777645228e+01 3.5615112077886137e+00 0 0 0
312 1 2.6506595742890084e-03 8.8238830557747061e+00 1.0084437777858541e+01 4.4561247613057597e+00 0 0 0
316 1 2.9537320764004660e-03 1.0084437777992107e+01 7.5633283332715440e+00 3.5615112076669395e+00 0 0 0
335 1 2.9520105985132673e-03 7.5633283334139954e+00 1.2605547222916954e+01 3.5615112077171158e+00 0 0 0
338 1 2.9519592814718112e-03 1.0084437778360932e+01 1.2605547222859215e+01 3.5615112074173485e+00 0 0 0
339 1 2.6503435832402763e-03 8.8238830558360952e+00 1.2605547222741531e+01 4.4561247614333190e+00 0 0 0
342 1 2.6503275193283013e-03 1.1344992500811392e+01 1.2605547222960109e+01 4.4561247614023749e+00 0 0 0
343 1 2.9530475216386718e-03 1.0084437778088780e+01 1.0084437777790022e+01 3.5615112074295219e+00 0 0 0
346 1 2.9527754632507749e-03 1.2605547222889218e+01 1.0084437778083707e+01 3.5615112070756725e+00 0 0 0
347 1 2.6507931694050445e-03 1.1344992500377804e+01 1.0084437778154500e+01 4.4561247610324894e+00 0 0 0
350 1 2.6507312454153403e-03 1.3866101945198617e+01 1.0084437778499513e+01 4.4561247608631973e+00 0 0 0
351 1 2.9532668116348053e-03 1.2605547222767564e+01 7.5633283332007277e+00 3.5615112071522215e+00 0 0 0
354 1 2.6505054391980703e-03 1.3866101945127053e+01 7.5633283330288847e+00 4.4561247606190202e+00 0 0 0
357 1 2.9517910537310665e-03 1.2605547223115378e+01 1.2605547222925196e+01 3.5615112076679210e+00 0 0 0
360 1 2.6507409421617570e-03 1.3866101945238590e+01 1.2605547223181805e+01 4.4561247616290300e+00 0 0 0
218 1 3.0827126773135065e-03 1.5126656667081624e+01 3.7816641676977429e+00 6.2403909147097245e+00 -1 0 0
219 1 3.0834113445038997e-03 1.5126656666984399e+01 1.2605547221768978e+00 6.2403909148279695e+00 -1 0 0
222 1 1.8652910584595322e-03 1.2605547221270694e+00 1.2605547222610329e+00 5.3480862914508496e+00 0 0 0
225 1 3.0832098137472414e-03 2.5211094448368354e+00 1.2605547223241638e+00 6.2403909148597378e+00 0 0 0
229 1 3.0816101585783833e-03 1.5126656667436139e+01 6.3027736111461135e+00 6.2403909149698933e+00 -1 0 0
232 1 1.8629531810268030e-03 1.2605547223927076e+00 6.3027736113660300e+00 5.3480862914647247e+00 0 0 0
233 1 1.8641497170647180e-03 1.2605547221825746e+00 3.7816641674300318e+00 5.3480862914714900e+00 0 0 0
236 1 3.0808883199607996e-03 2.5211094449992402e+00 6.3027736113479076e+00 6.2403909150385619e+00 0 0 0
237 1 3.0818079720531695e-03 2.5211094448992619e+00 3.7816641679280067e+00 6.2403909150771000e+00 0 0 0
240 1 1.8633737183607452e-03 3.7816641672083304e+00 3.7816641674694216e+00 5.3480862916890768e+00 0 0 0
241 1 1.8648651733296335e-03 3.7816641672597355e+00 1.2605547222511158e+00 5.3480862915631144e+00 0 0 0
244 1 3.0813611177025750e-03 5.0422188897729256e+00 3.7816641677316447e+00 6.2403909156546229e+00 0 0 0
245 1 3.0824963331783136e-03 5.0422188898590123e+00 1.2605547224221720e+00 6.2403909155009671e+00 0 0 0
248 1 1.8638827425742578e-03 6.3027736116675905e+00 1.2605547223608911e+00 5.3480862919349237e+00 0 0 0
267 1 1.8623795653843710e-03 3.7816641671959701e+00 6.3027736115243291e+00 5.3480862915724403e+00 0 0 0
271 1 3.0807720309988106e-03 5.0422188896231672e+00 6.3027736113776518e+00 6.2403909152848831e+00 0 0 0
274 1 1.8622343302611771e-03 6.3027736117131878e+00 6.3027736115474164e+00 5.3480862917561325e+00 0 0 0
275 1 1.8630951904202416e-03 6.3027736117643176e+00 3.7816641673991627e+00 5.3480862919709526e+00 0 0 0
279 1 3.0821893017594143e-03 7.5633283339617119e+00 3.7816641675788638e+00 6.2403909155845243e+00 0 0 0
361 1 5.1501903432628676e-03 1.5126656666806497e+01 2.5211094452065801e+00 7.1355060364892173e+00 -1 0 0
362 1 3.9438161747372257e-03 1.5126656667513926e+01 3.7816641667887283e+00 9.8015923682849628e+00 -1 0 0
363 1 3.9436995343229480e-03 1.5126656667318395e+01 1.2605547218237849e+00 9.8015923680105921e+00 -1 0 0
364 1 2.6493078258882550e-03 1.2605547222765789e+00 2.5211094448268074e+00 8.0243061202178172e+00 0 0 0
365 1 5.1496250866752144e-03 1.5126656666460871e+01 1.5126656666415901e+01 7.1355060366026386e+00 -1 -1 0
366 1 -4.1625686711893872e-03 1.2605547224633966e+00 1.2605547226483342e+00 8.9145986864137061e+00 0 0 0
367 1 5.1498747168235593e-03 2.5211094449226414e+00 1.5126656666692297e+01 7.1355060365777225e+00 0 -1 0
368 1 2.6490304130469284e-03 1.2605547219021369e+00 1.5126656667184717e+01 8.0243061202973625e+00 0 -1 0
369 1 3.9440990988332172e-03 2.5211094447516000e+00 1.2605547220508555e+00 9.8015923677733223e+00 0 0 0
370 1 2.6492481522025677e-03 3.7816641675397760e+00 1.5126656667543440e+01 8.0243061201505395e+00 0 -1 0
371 1 5.1498946172043834e-03 1.5126656667437091e+01 7.5633283329121399e+00 7.1355060374346158e+00 -1 0 0
373 1 3.9437200152154786e-03 1.5126656667457464e+01 6.3027736119151827e+00 9.8015923674276806e+00 -1 0 0
375 1 5.1500020031746141e-03 1.5126656667304070e+01 5.0422188897382094e+00 7.1355060364742977e+00 -1 0 0
376 1 -4.1614299998432667e-03 1.2605547221825208e+00 6.3027736113478454e+00 8.9145986881804333e+00 0 0 0
377 1 -4.1620334711985427e-03 1.2605547220921247e+00 3.7816641665183095e+00 8.9145986875863166e+00 0 0 0
378 1 5.1490386310368173e-03 2.5211094454139293e+00 5.0422188900288720e+00 7.1355060370686898e+00 0 0 0
379 1 2.6499087701114406e-03 1.2605547224645421e+00 5.0422188895356976e+00 8.0243061195500083e+00 0 0 0
380 1 3.9443683829378682e-03 2.5211094446302988e+00 6.3027736117916238e+00 9.8015923663295226e+00 0 0 0
381 1 3.9440188371776879e-03 2.5211094448543965e+00 3.7816641667243416e+00 9.8015923668683644e+00 0 0 0
382 1 2.6497623242034045e-03 3.7816641674060785e+00 5.0422188893906998e+00 8.0243061194477736e+00 0 0 0
383 1 5.1494483573261817e-03 2.5211094454038814e+00 2.5211094456424958e+00 7.1355060372395309e+00 0 0 0
384 1 -4.1619731511941919e-03 3.7816641664171593e+00 3.7816641666311233e+00 8.9145986883450803e+00 0 0 0
385 1 -4.1622367995262062e-03 3.7816641663615469e+00 1.2605547221712423e+00 8.9145986869362179e+00 0 0 0
386 1 5.1495282095260636e-03 5.0422188905891998e+00 2.5211094454746004e+00 7.1355060377960164e+00 0 0 0
387 1 2.6492327343141941e-03 3.7816641676837017e+00 2.5211094449980598e+00 8.0243061201985473e+00 0 0 0
388 1 3.9440200026442870e-03 5.0422188895096980e+00 3.7816641665453012e+00 9.8015923657212376e+00 0 0 0
389 1 3.9439782488735042e-03 5.0422188897232845e+00 1.2605547222112341e+00 9.8015923666721445e+00 0 0 0
390 1 2.6501872921758621e-03 6.3027736117892488e+00 2.5211094447474101e+00 8.0243061198454786e+00 0 0 0
391 1 5.1495011892132014e-03 5.0422188905520855e+00 1.5126656667139200e+01 7.1355060369254639e+00 0 -1 0
392 1 -4.1621932803364969e-03 6.3027736112962165e+00 1.2605547221962712e+00 8.9145986880317416e+00 0 0 0
393 1 5.1496867762447331e-03 7.5633283336660098e+00 1.5126656667446300e+01 7.1355060377154302e+00 0 -1 0
394 1 2.6492512166610316e-03 6.3027736118957494e+00 2.1214779452496539e-10 8.0243061199059582e+00 0 0 0
411 1 -4.1611603140028382e-03 3.7816641668021735e+00 6.3027736116559794e+00 8.9145986889470787e+00 0 0 0
412 1 5.1502214802085743e-03 5.0422188898795248e+00 7.5633283329721515e+00 7.1355060367691410e+00 0 0 0
413 1 2.6507936757780150e-03 3.7816641672426230e+00 7.5633283333926897e+00 8.0243061195448444e+00 0 0 0
415 1 3.9439628427169401e-03 5.0422188892380841e+00 6.3027736116202391e+00 9.8015923660099702e+00 0 0 0
417 1 5.1493807610322271e-03 5.0422188899680682e+00 5.0422188896837765e+00 7.1355060372714707e+00 0 0 0
418 1 -4.1610106904678510e-03 6.3027736119402631e+00 6.3027736117905846e+00 8.9145986894858673e+00 0 0 0
419 1 -4.1613528387235621e-03 6.3027736117201165e+00 3.7816641671807378e+00 8.9145986891376126e+00 0 0 0
420 1 5.1507947348131420e-03 7.5633283334845105e+00 5.0422188894462936e+00 7.1355060365396588e+00 0 0 0
421 1 2.6510612863900841e-03 6.3027736114933157e+00 5.0422188890993223e+00 8.0243061190146125e+00 0 0 0
423 1 3.9435797669560768e-03 7.5633283334560613e+00 3.7816641663261281e+00 9.8015923668788467e+00 0 0 0
457 1 5.1507988704689181e-03 7.5633283336798520e+00 7.5633283332389674e+00 7.1355060363160909e+00 0 0 0
505 1 2.0178665311422549e-02 1.5126656667383422e+01 2.5211094405120322e+00 1.0691378457508653e+01 -1 0 0
509 1 2.0178976674539006e-02 3.7388458702613513e-10 1.5126656666807826e+01 1.0691378454264969e+01 0 -1 0
511 1 2.0179575748030563e-02 2.5211094433072443e+00 1.5126656666974334e+01 1.0691378454377476e+01 0 -1 0
515 1 2.0178276631839350e-02 1.5126656666182019e+01 7.5633283356590679e+00 1.0691378458656814e+01 -1 0 0
519 1 2.0178456684192641e-02 1.5126656666128671e+01 5.0422188891184403e+00 1.0691378462660213e+01 -1 0 0
522 1 2.0179089644700932e-02 2.5211094422476195e+00 5.0422188882219912e+00 1.0691378458715155e+01 0 0 0
527 1 2.0179077634101972e-02 2.5211094429548000e+00 2.5211094400221925e+00 1.0691378454331998e+01 0 0 0
530 1 2.0179085390968847e-02 5.0422188894143556e+00 2.5211094399380403e+00 1.0691378454111236e+01 0 0 0
535 1 2.0179169966792899e-02 5.0422188887669543e+00 9.5645678541863026e-11 1.0691378457423321e+01 0 0 0
537 1 2.0178399331995549e-02 7.5633283332072425e+00 6.4251125247817674e-10 1.0691378459883039e+01 0 0 0
556 1 2.0178294153972078e-02 5.0422188892814557e+00 7.5633283363651982e+00 1.0691378457109852e+01 0 0 0
561 1 2.0178723883448758e-02 5.0422188895539248e+00 5.0422188875843492e+00 1.0691378458142934e+01 0 0 0
564 1 2.0177911815108033e-02 7.5633283340592206e+00 5.0422188873121536e+00 1.0691378465282323e+01 0 0 0
601 1 2.0176977954545153e-02 7.5633283339710706e+00 7.5633283363027966e+00 1.0691378464563222e+01 0 0 0
251 1 3.0823435423469720e-03 7.5633283337252575e+00 1.2605547226004539e+00 6.2403909159297895e+00 0 0 0
278 1 3.0815302303719744e-03 7.5633283338955213e+00 6.3027736113855184e+00 6.2403909151591987e+00 0 0 0
282 1 1.8635867423380675e-03 8.8238830561386496e+00 3.7816641674480000e+00 5.3480862918265712e+00 0 0 0
283 1 1.8637259506380953e-03 8.8238830559728161e+00 1.2605547226406946e+00 5.3480862919747780e+00 0 0 0
286 1 3.0823616796188868e-03 1.0084437778257776e+01 3.7816641676514142e+00 6.2403909148827408e+00 0 0 0
287 1 3.0826417116902060e-03 1.0084437778268928e+01 1.2605547227230736e+00 6.2403909155647277e+00 0 0 0
290 1 1.8643799586030596e-03 1.1344992500650655e+01 1.2605547226435994e+00 5.3480862917631926e+00 0 0 0
293 1 3.0829963736197946e-03 1.2605547222772341e+01 1.2605547223974500e+00 6.2403909151040455e+00 0 0 0
315 1 1.8627835358798652e-03 8.8238830560267907e+00 6.3027736113989068e+00 5.3480862916717813e+00 0 0 0
319 1 3.0815748701131379e-03 1.0084437778053049e+01 6.3027736112193207e+00 6.2403909148374979e+00 0 0 0
322 1 1.8630835841676793e-03 1.1344992500339417e+01 6.3027736111377157e+00 5.3480862915843854e+00 0 0 0
323 1 1.8638170479660355e-03 1.1344992500498437e+01 3.7816641673877069e+00 5.3480862915702838e+00 0 0 0
326 1 3.0815377294800368e-03 1.2605547222439670e+01 6.3027736110096582e+00 6.2403909148944878e+00 0 0 0
327 1 3.0824378875964130e-03 1.2605547222473525e+01 3.7816641675739384e+00 6.2403909145854781e+00 0 0 0
330 1 1.8641028909509138e-03 1.3866101944876471e+01 3.7816641672995104e+00 5.3480862914969638e+00 0 0 0
331 1 1.8649633493276483e-03 1.3866101944990811e+01 1.2605547223737863e+00 5.3480862916110521e+00 0 0 0
353 1 1.8631087541897458e-03 1.3866101945000617e+01 6.3027736111278401e+00 5.3480862915609348e+00 0 0 0
395 1 3.9434271440431969e-03 7.5633283337021302e+00 1.2605547221193096e+00 9.8015923663507625e+00 0 0 0
396 1 2.6499339146575369e-03 8.8238830558254264e+00 3.7575575224041073e-11 8.0243061200363801e+00 0 0 0
422 1 3.9429644999455192e-03 7.5633283335171591e+00 6.3027736116402524e+00 9.8015923677657231e+00 0 0 0
424 1 2.6514866994104716e-03 8.8238830557065970e+00 5.0422188891083133e+00 8.0243061185707756e+00 0 0 0
425 1 5.1504917962616218e-03 7.5633283336020805e+00 2.5211094452797069e+00 7.1355060376671897e+00 0 0 0
426 1 -4.1612052171857905e-03 8.8238830566690023e+00 3.7816641673864573e+00 8.9145986889931645e+00 0 0 0
427 1 -4.1617426798449880e-03 8.8238830564634618e+00 1.2605547225888489e+00 8.9145986880195789e+00 0 0 0
428 1 5.1506765277329015e-03 1.0084437777716476e+01 2.5211094454188965e+00 7.1355060368005603e+00 0 0 0
429 1 2.6508589508949009e-03 8.8238830556306631e+00 2.5211094445324389e+00 8.0243061195393004e+00 0 0 0
430 1 3.9436227241005104e-03 1.0084437778088715e+01 3.7816641664155299e+00 9.8015923683276220e+00 0 0 0
431 1 3.9440879439748737e-03 1.0084437778070708e+01 1.2605547218507294e+00 9.8015923669124358e+00 0 0 0
432 1 2.6506453694421762e-03 1.1344992500379368e+01 2.5211094444835753e+00 8.0243061194761136e+00 0 0 0
433 1 5.1499416111381868e-03 1.0084437778099344e+01 1.5126656667270160e+01 7.1355060379455972e+00 0 -1 0
434 1 -4.1614693804258108e-03 1.1344992500685555e+01 1.2605547230070369e+00 8.9145986876279366e+00 0 0 0
435 1 5.1495069324893885e-03 1.2605547222745782e+01 1.5126656666686580e+01 7.1355060371803667e+00 0 -1 0
436 1 2.6497885610638231e-03 1.1344992500647264e+01 1.5126656667185530e+01 8.0243061201137351e+00 0 -1 0
437 1 3.9442400737815615e-03 1.2605547222880608e+01 1.2605547217155639e+00 9.8015923674709278e+00 0 0 0
438 1 2.6488883839412510e-03 1.3866101944858261e+01 1.5126656667001523e+01 8.0243061201300598e+00 0 -1 0
459 1 -4.1613459599357848e-03 8.8238830563969959e+00 6.3027736114466935e+00 8.9145986893217071e+00 0 0 0
461 1 2.6512403987413737e-03 8.8238830558833623e+00 7.5633283337733266e+00 8.0243061187883118e+00 0 0 0
463 1 3.9429382813879138e-03 1.0084437778416895e+01 6.3027736118899673e+00 9.8015923686284641e+00 0 0 0
464 1 2.6507157958214254e-03 1.1344992500475149e+01 7.5633283338741668e+00 8.0243061193103564e+00 0 0 0
465 1 5.1505766183797116e-03 1.0084437777840112e+01 5.0422188894674465e+00 7.1355060356193860e+00 0 0 0
466 1 -4.1616595283170870e-03 1.1344992500322535e+01 6.3027736111597461e+00 8.9145986887306563e+00 0 0 0
467 1 -4.1614067162772843e-03 1.1344992500633039e+01 3.7816641670981985e+00 8.9145986884830997e+00 0 0 0
468 1 5.1501254387054185e-03 1.2605547222436048e+01 5.0422188894142508e+00 7.1355060357568405e+00 0 0 0
469 1 2.6507407935308651e-03 1.1344992500487404e+01 5.0422188892848130e+00 8.0243061186843310e+00 0 0 0
470 1 3.9432876999835557e-03 1.2605547223186836e+01 6.3027736119934747e+00 9.8015923679708976e+00 0 0 0
471 1 3.9438603513319917e-03 1.2605547223023891e+01 3.7816641666990680e+00 9.8015923685865278e+00 0 0 0
472 1 2.6504626758668335e-03 1.3866101945110621e+01 5.0422188894207407e+00 8.0243061192303689e+00 0 0 0
473 1 5.1504550182965448e-03 1.2605547222328596e+01 2.5211094451778817e+00 7.1355060361790574e+00 0 0 0
474 1 -4.1616137155907939e-03 1.3866101945137137e+01 3.7816641667796094e+00 8.9145986878687786e+00 0 0 0
475 1 -4.1622511597344172e-03 1.3866101945398439e+01 1.2605547230915433e+00 8.9145986871175662e+00 0 0 0
476 1 2.6500498340119626e-03 1.3866101944908994e+01 2.5211094445273119e+00 8.0243061198015457e+00 0 0 0
497 1 -4.1615936391493922e-03 1.3866101945024122e+01 6.3027736111955477e+00 8.9145986881281658e+00 0 0 0
569 1 2.0178396100282110e-02 7.5633283336708637e+00 2.5211094397349378e+00 1.0691378457820838e+01 0 0 0
572 1 2.0178697873458121e-02 1.0084437778314662e+01 2.5211094399630039e+00 1.0691378459204184e+01 0 0 0
577 1 2.0179190795491301e-02 1.0084437778415603e+01 1.5126656667202003e+01 1.0691378456990622e+01 0 -1 0
579 1 2.0179363008946731e-02 1.2605547224819606e+01 1.5126656666488604e+01 1.0691378454417457e+01 0 -1 0
609 1 2.0178128019508135e-02 1.0084437779429912e+01 5.0422188882044052e+00 1.0691378467713946e+01 0 0 0
612 1 2.0178306928134247e-02 1.2605547225027406e+01 5.0422188893729363e+00 1.0691378464519953e+01 0 0 0
617 1 2.0178975273540570e-02 1.2605547224708651e+01 2.5211094406558012e+00 1.0691378458670892e+01 0 0 0
228 1 3.0818682034687139e-03 5.3875530198288333e-12 8.8238830557153971e+00 6.2403909153926680e+00 0 0 0
254 1 3.0830814131485506e-03 1.5126656667121349e+01 1.3866101944810419e+01 6.2403909149153973e+00 -1 0 0
255 1 3.0826398554877434e-03 1.5126656667343907e+01 1.1344992501122055e+01 6.2403909152197601e+00 -1 0 0
258 1 1.8646253439680443e-03 1.2605547223639619e+00 1.1344992500818023e+01 5.3480862916376397e+00 0 0 0
259 1 1.8633153394346867e-03 1.2605547225117708e+00 8.8238830557986869e+00 5.3480862914450613e+00 0 0 0
262 1 3.0829261525648554e-03 2.5211094449316840e+00 1.1344992500772999e+01 6.2403909146428829e+00 0 0 0
263 1 3.0817738755906628e-03 2.5211094451138290e+00 8.8238830555758785e+00 6.2403909149956132e+00 0 0 0
266 1 1.8634779805628207e-03 3.7816641672934463e+00 8.8238830558046946e+00 5.3480862914540532e+00 0 0 0
270 1 3.0820479854806937e-03 5.0422188897258184e+00 8.8238830556273893e+00 6.2403909150323607e+00 0 0 0
295 1 1.8654052701588860e-03 1.2605547221895170e+00 1.3866101944994835e+01 5.3480862916365925e+00 0 0 0
296 1 3.0834427564360336e-03 2.5211094447547135e+00 1.3866101944719679e+01 6.2403909144685903e+00 0 0 0
298 1 1.8649815549678483e-03 3.7816641671988012e+00 1.3866101944949531e+01 5.3480862915812972e+00 0 0 0
299 1 1.8645885395662881e-03 3.7816641672448634e+00 1.1344992500669644e+01 5.3480862915888769e+00 0 0 0
302 1 3.0825142782441332e-03 5.0422188896156293e+00 1.3866101944864525e+01 6.2403909149028287e+00 0 0 0
303 1 3.0826553470390018e-03 5.0422188896322089e+00 1.1344992500645285e+01 6.2403909148039372e+00 0 0 0
306 1 1.8641382653917669e-03 6.3027736115219541e+00 1.1344992500536868e+01 5.3480862918950152e+00 0 0 0
307 1 1.8632646046301037e-03 6.3027736116824249e+00 8.8238830557884835e+00 5.3480862916799827e+00 0 0 0
310 1 3.0822451646577817e-03 7.5633283335655781e+00 1.1344992500459202e+01 6.2403909154762651e+00 0 0 0
311 1 3.0819077714311013e-03 7.5633283337691308e+00 8.8238830556450818e+00 6.2403909152679038e+00 0 0 0
333 1 1.8638950839006724e-03 6.3027736114560273e+00 1.3866101945035931e+01 5.3480862919351271e+00 0 0 0
372 1 3.9440937139239539e-03 1.5126656667299425e+01 8.8238830561604367e+00 9.8015923668212181e+00 -1 0 0
374 1 2.6504317176358205e-03 1.2605547223935560e+00 7.5633283335437920e+00 8.0243061199273082e+00 0 0 0
397 1 5.1497192576564739e-03 1.5126656666531725e+01 1.2605547223215529e+01 7.1355060367638163e+00 -1 0 0
398 1 3.9442171311599127e-03 1.5126656667089810e+01 1.3866101945274263e+01 9.8015923677851138e+00 -1 0 0
399 1 3.9447072569271970e-03 1.5126656667127303e+01 1.1344992500706255e+01 9.8015923674526242e+00 -1 0 0
400 1 2.6498646129897723e-03 1.2605547218211990e+00 1.2605547222963720e+01 8.0243061199070258e+00 0 0 0
401 1 5.1501779660024834e-03 1.5126656667010323e+01 1.0084437778958362e+01 7.1355060376108810e+00 -1 0 0
402 1 -4.1610218191579715e-03 1.2605547227550749e+00 1.1344992500449230e+01 8.9145986873121021e+00 0 0 0
403 1 -4.1610034138470477e-03 1.2605547224279519e+00 8.8238830561892847e+00 8.9145986873512033e+00 0 0 0
404 1 5.1502950209419930e-03 2.5211094450479563e+00 1.0084437778391210e+01 7.1355060367880014e+00 0 0 0
405 1 2.6506657400736690e-03 1.2605547221245796e+00 1.0084437778391925e+01 8.0243061202048072e+00 0 0 0
406 1 3.9449593878243460e-03 2.5211094444135673e+00 1.1344992500602741e+01 9.8015923679679311e+00 0 0 0
407 1 3.9446170133048781e-03 2.5211094444932329e+00 8.8238830561409838e+00 9.8015923665087197e+00 0 0 0
408 1 2.6507838897448831e-03 3.7816641672451867e+00 1.0084437778178296e+01 8.0243061197215333e+00 0 0 0
409 1 5.1495862793425858e-03 2.5211094452922631e+00 7.5633283328552006e+00 7.1355060371343377e+00 0 0 0
410 1 -4.1608273592803413e-03 3.7816641669780653e+00 8.8238830564094215e+00 8.9145986879196126e+00 0 0 0
414 1 3.9437608738330564e-03 5.0422188892283648e+00 8.8238830560927273e+00 9.8015923668658171e+00 0 0 0
416 1 2.6514725154561498e-03 6.3027736115765487e+00 7.5633283334725299e+00 8.0243061189883971e+00 0 0 0
439 1 -4.1619834599991024e-03 1.2605547228809491e+00 1.3866101945515593e+01 8.9145986869686471e+00 0 0 0
440 1 3.9447907850738506e-03 2.5211094444478164e+00 1.3866101945358110e+01 9.8015923686943012e+00 0 0 0
441 1 5.1501732002478019e-03 2.5211094446884919e+00 1.2605547222836583e+01 7.1355060360605522e+00 0 0 0
442 1 -4.1619472289198675e-03 3.7816641668008315e+00 1.3866101945182676e+01 8.9145986871760972e+00 0 0 0
443 1 -4.1613502457656061e-03 3.7816641670323183e+00 1.1344992500618201e+01 8.9145986875574792e+00 0 0 0
444 1 5.1497135974658496e-03 5.0422188901385869e+00 1.2605547222887376e+01 7.1355060359092253e+00 0 0 0
445 1 2.6497675900547628e-03 3.7816641672647258e+00 1.2605547222943510e+01 8.0243061195763499e+00 0 0 0
446 1 3.9438711606988378e-03 5.0422188895189928e+00 1.3866101945585433e+01 9.8015923686920452e+00 0 0 0
447 1 3.9437115396960517e-03 5.0422188892956550e+00 1.1344992500613788e+01 9.8015923685962054e+00 0 0 0
448 1 2.6494475797351506e-03 6.3027736118204407e+00 1.2605547223114259e+01 8.0243061192543124e+00 0 0 0
449 1 5.1505811939624906e-03 5.0422188900871392e+00 1.0084437778289583e+01 7.1355060362773974e+00 0 0 0
450 1 -4.1622527036338387e-03 6.3027736114469706e+00 1.1344992500458520e+01 8.9145986884438457e+00 0 0 0
451 1 -4.1614369202598363e-03 6.3027736116667814e+00 8.8238830562354948e+00 8.9145986886492512e+00 0 0 0
453 1 2.6507946410228777e-03 6.3027736117972051e+00 1.0084437778244865e+01 8.0243061191676723e+00 0 0 0
454 1 3.9426125594850779e-03 7.5633283340340292e+00 1.1344992500685757e+01 9.8015923687303061e+00 0 0 0
455 1 3.9422560301388123e-03 7.5633283338472062e+00 8.8238830562096631e+00 9.8015923677545000e+00 0 0 0
477 1 -4.1626674963020568e-03 6.3027736112965904e+00 1.3866101944807093e+01 8.9145986881747508e+00 0 0 0
541 1 2.0179480033382869e-02 3.1535980297482089e-10 1.2605547225162857e+01 1.0691378457676374e+01 0 0 0
545 1 2.0178988855230617e-02 1.5126656667378205e+01 1.0084437779186620e+01 1.0691378456915169e+01 -1 0 0
548 1 2.0179337001962762e-02 2.5211094436999071e+00 1.0084437779916685e+01 1.0691378453944889e+01 0 0 0
553 1 2.0179069001818647e-02 2.5211094425028149e+00 7.5633283364195671e+00 1.0691378455546264e+01 0 0 0
585 1 2.0179854966627001e-02 2.5211094437973292e+00 1.2605547224891996e+01 1.0691378457160607e+01 0 0 0
588 1 2.0178914017647966e-02 5.0422188882235295e+00 1.2605547225030294e+01 1.0691378462887842e+01 0 0 0
593 1 2.0178400299123798e-02 5.0422188885983452e+00 1.0084437779876977e+01 1.0691378458541942e+01 0 0 0
314 1 1.8628448221150080e-03 8.8238830558333738e+00 8.8238830556483965e+00 5.3480862917826748e+00 0 0 0
318 1 3.0814240225033301e-03 1.0084437777824990e+01 8.8238830556118444e+00 6.2403909155208703e+00 0 0 0
334 1 3.0820215043522634e-03 7.5633283334555355e+00 1.3866101944999540e+01 6.2403909157128137e+00 0 0 0
336 1 1.8634142215772269e-03 8.8238830558429218e+00 1.3866101945126971e+01 5.3480862921521872e+00 0 0 0
337 1 1.8633364260841135e-03 8.8238830558153563e+00 1.1344992500405651e+01 5.3480862921148900e+00 0 0 0
340 1 3.0818650920155111e-03 1.0084437778375445e+01 1.3866101944960112e+01 6.2403909159072759e+00 0 0 0
341 1 3.0814339546175332e-03 1.0084437778136255e+01 1.1344992500502830e+01 6.2403909159086117e+00 0 0 0
344 1 1.8631121460861381e-03 1.1344992500559385e+01 1.1344992500663968e+01 5.3480862920773156e+00 0 0 0
345 1 1.8631112603316742e-03 1.1344992500251024e+01 8.8238830556744112e+00 5.3480862917871894e+00 0 0 0
348 1 3.0815579005305607e-03 1.2605547222837105e+01 1.1344992501038044e+01 6.2403909158130517e+00 0 0 0
349 1 3.0816579714745703e-03 1.2605547222451396e+01 8.8238830557336829e+00 6.2403909156823891e+00 0 0 0
352 1 1.8633678429754688e-03 1.3866101945096528e+01 8.8238830558085031e+00 5.3480862916754734e+00 0 0 0
355 1 1.8636480215800202e-03 1.1344992500799878e+01 1.3866101945161093e+01 5.3480862920674008e+00 0 0 0
356 1 3.0819970498753664e-03 1.2605547223124098e+01 1.3866101944915808e+01 6.2403909155438821e+00 0 0 0
358 1 1.8645519940117617e-03 1.3866101945181455e+01 1.3866101945115377e+01 5.3480862919056600e+00 0 0 0
359 1 1.8639495485106127e-03 1.3866101945163019e+01 1.1344992500943516e+01 5.3480862919062293e+00 0 0 0
452 1 5.1505564238220084e-03 7.5633283339441251e+00 1.0084437778220014e+01 7.1355060366073042e+00 0 0 0
456 1 2.6504929459130440e-03 8.8238830560870127e+00 1.0084437778410420e+01 8.0243061193027412e+00 0 0 0
458 1 -4.1620382461453409e-03 8.8238830559459842e+00 8.8238830557679258e+00 8.9145986887316280e+00 0 0 0
460 1 5.1502987800804388e-03 1.0084437777795763e+01 7.5633283332096202e+00 7.1355060364505487e+00 0 0 0
462 1 3.9425464357926970e-03 1.0084437778584713e+01 8.8238830564367614e+00 9.8015923671523986e+00 0 0 0
478 1 3.9431678995770110e-03 7.5633283339500652e+00 1.3866101945687623e+01 9.8015923682141946e+00 0 0 0
479 1 5.1497477801767241e-03 7.5633283338127058e+00 1.2605547222815444e+01 7.1355060368790530e+00 0 0 0
480 1 -4.1620927941730008e-03 8.8238830558983743e+00 1.3866101945068875e+01 8.9145986882551700e+00 0 0 0
481 1 -4.1622473613590859e-03 8.8238830556529653e+00 1.1344992500409843e+01 8.9145986886385042e+00 0 0 0
482 1 5.1493863282276444e-03 1.0084437778442124e+01 1.2605547222705706e+01 7.1355060379531317e+00 0 0 0
483 1 2.6498146622174969e-03 8.8238830561050090e+00 1.2605547223028447e+01 8.0243061195823433e+00 0 0 0
484 1 3.9441255536605963e-03 1.0084437778503695e+01 1.3866101945371032e+01 9.8015923671848721e+00 0 0 0
485 1 3.9432685475977985e-03 1.0084437778689562e+01 1.1344992500704635e+01 9.8015923671234191e+00 0 0 0
486 1 2.6493919712585468e-03 1.1344992500803539e+01 1.2605547222976485e+01 8.0243061199508485e+00 0 0 0
487 1 5.1498432003397876e-03 1.0084437778014976e+01 1.0084437778374918e+01 7.1355060376394484e+00 0 0 0
488 1 -4.1619117046203082e-03 1.1344992500243137e+01 1.1344992500278591e+01 8.9145986883715427e+00 0 0 0
489 1 -4.1617510953332560e-03 1.1344992500350525e+01 8.8238830555479719e+00 8.9145986881664747e+00 0 0 0
490 1 5.1497505624622528e-03 1.2605547222342242e+01 1.0084437779011660e+01 7.1355060381324238e+00 0 0 0
491 1 2.6502237307728729e-03 1.1344992500523476e+01 1.0084437778642091e+01 8.0243061199391814e+00 0 0 0
492 1 3.9441153010131673e-03 1.2605547222886683e+01 1.1344992500736209e+01 9.8015923664738658e+00 0 0 0
493 1 3.9435273487152126e-03 1.2605547222993835e+01 8.8238830563392803e+00 9.8015923665762372e+00 0 0 0
494 1 2.6504064000239277e-03 1.3866101944891208e+01 1.0084437778690141e+01 8.0243061202873527e+00 0 0 0
495 1 5.1500289274298873e-03 1.2605547222362285e+01 7.5633283329997454e+00 7.1355060372038803e+00 0 0 0
496 1 -4.1613264045517080e-03 1.3866101945299320e+01 8.8238830557954824e+00 8.9145986875156726e+00 0 0 0
498 1 2.6505858498917854e-03 1.3866101945097393e+01 7.5633283337244261e+00 8.0243061198928558e+00 0 0 0
499 1 -4.1618825328826716e-03 1.1344992500267599e+01 1.3866101945577030e+01 8.9145986880805772e+00 0 0 0
500 1 3.9442556754023276e-03 1.2605547222936400e+01 1.3866101945185029e+01 9.8015923667533169e+00 0 0 0
501 1 5.1488985192345788e-03 1.2605547222833103e+01 1.2605547223156600e+01 7.1355060376864046e+00 0 0 0
502 1 -4.1624936593195831e-03 1.3866101945524257e+01 1.3866101945648117e+01 8.9145986877927257e+00 0 0 0
503 1 -4.1615894502020963e-03 1.3866101945538139e+01 1.1344992500158275e+01 8.9145986879314965e+00 0 0 0
504 1 2.6491212177899041e-03 1.3866101944853691e+01 1.2605547223082509e+01 8.0243061199534171e+00 0 0 0
596 1 2.0177123894806588e-02 7.5633283335339314e+00 1.0084437779602338e+01 1.0691378465275818e+01 0 0 0
604 1 2.0177466824352307e-02 1.0084437779649296e+01 7.5633283367185520e+00 1.0691378464224773e+01 0 0 0
623 1 2.0178061160526905e-02 7.5633283331584344e+00 1.2605547225295838e+01 1.0691378468057392e+01 0 0 0
626 1 2.0178837145038299e-02 1.0084437779017836e+01 1.2605547224652190e+01 1.0691378461842726e+01 0 0 0
631 1 2.0177682299569812e-02 1.0084437779136431e+01 1.0084437779706661e+01 1.0691378460566700e+01 0 0 0
634 1 2.0178610166851827e-02 1.2605547224099958e+01 1.0084437779251372e+01 1.0691378456803113e+01 0 0 0
639 1 2.0177990043400439e-02 1.2605547224860114e+01 7.5633283360204899e+00 1.0691378459882477e+01 0 0 0
645 1 2.0179315309889256e-02 1.2605547224378061e+01 1.2605547224657627e+01 1.0691378457188206e+01 0 0 0
506 1 -8.9115152347790633e-02 3.6874656992243484e-09 3.7816641660871406e+00 1.3411492218741023e+01 0 0 0
507 1 -8.9115681512327183e-02 1.5126656662469644e+01 1.2605547302913374e+00 1.3411492236379418e+01 -1 0 0
508 1 -1.0078416701076467e-02 1.2605547234906231e+00 2.5211094473590254e+00 1.1588706524712668e+01 0 0 0
510 1 3.1143700856896459e-03 1.2605547217357762e+00 1.2605547212021360e+00 1.2508561625983054e+01 0 0 0
512 1 -1.0078384427089250e-02 1.2605547226657010e+00 4.1464980634956013e-10 1.1588706519203770e+01 0 0 0
513 1 -8.9115737172846987e-02 2.5211094593700252e+00 1.2605547365103087e+00 1.3411492239938003e+01 0 0 0
514 1 -1.0077812708337328e-02 3.7816641683056154e+00 1.1868151473521607e-09 1.1588706522254265e+01 0 0 0
517 1 -8.9115345584808991e-02 9.5974920419783965e-09 6.3027736107747359e+00 1.3411492206980954e+01 0 0 0
520 1 3.1152203319294372e-03 1.2605547207511594e+00 6.3027736111778996e+00 1.2508561635750315e+01 0 0 0
521 1 3.1149337486037765e-03 1.2605547209433283e+00 3.7816641652200622e+00 1.2508561634529380e+01 0 0 0
523 1 -1.0078179107222250e-02 1.2605547243592217e+00 5.0422188899372058e+00 1.1588706537129813e+01 0 0 0
524 1 -8.9115469598644165e-02 2.5211094717823754e+00 6.3027736112505801e+00 1.3411492212847429e+01 0 0 0
525 1 -8.9115667376373553e-02 2.5211094690973819e+00 3.7816641763655148e+00 1.3411492218643593e+01 0 0 0
526 1 -1.0077798256610981e-02 3.7816641683629406e+00 5.0422188899898597e+00 1.1588706546121534e+01 0 0 0
528 1 3.1151865345258349e-03 3.7816641649626774e+00 3.7816641649531726e+00 1.2508561643287152e+01 0 0 0
529 1 3.1148957258411141e-03 3.7816641650527156e+00 1.2605547205706096e+00 1.2508561630866005e+01 0 0 0
531 1 -1.0077873908187604e-02 3.7816641684556096e+00 2.5211094480578677e+00 1.1588706533599664e+01 0 0 0
532 1 -8.9115623115459786e-02 5.0422188872926030e+00 3.7816641787950318e+00 1.3411492221940412e+01 0 0 0
533 1 -8.9115627984537996e-02 5.0422188898614486e+00 1.2605547434903321e+00 1.3411492237428666e+01 0 0 0
534 1 -1.0077938674253243e-02 6.3027736117335786e+00 2.5211094475167406e+00 1.1588706536213904e+01 0 0 0
536 1 3.1152048783379240e-03 6.3027736103747243e+00 1.2605547207470233e+00 1.2508561629567536e+01 0 0 0
538 1 -1.0078150364214685e-02 6.3027736123809008e+00 1.1031292326427213e-09 1.1588706528624790e+01 0 0 0
555 1 3.1155687427029044e-03 3.7816641652679044e+00 6.3027736116301156e+00 1.2508561642231466e+01 0 0 0
557 1 -1.0077846720518403e-02 3.7816641680876621e+00 7.5633283316881741e+00 1.1588706536527226e+01 0 0 0
559 1 -8.9115352856573377e-02 5.0422188830749226e+00 6.3027736086690229e+00 1.3411492220920740e+01 0 0 0
562 1 3.1158805006847113e-03 6.3027736112893127e+00 6.3027736117823920e+00 1.2508561627909371e+01 0 0 0
563 1 3.1156457415662032e-03 6.3027736110312080e+00 3.7816641654088596e+00 1.2508561635010418e+01 0 0 0
565 1 -1.0078116687874039e-02 6.3027736112677628e+00 5.0422188896145235e+00 1.1588706541201457e+01 0 0 0
567 1 -8.9114994942879347e-02 7.5633283267672677e+00 3.7816641731960510e+00 1.3411492221725398e+01 0 0 0
649 1 2.9476957311984808e-01 1.5434992964596233e-08 2.5211094433792010e+00 1.4310789926777389e+01 0 0 0
650 1 2.9476906286613558e-01 8.3197697133533805e-09 1.5126656652389489e+01 1.4310789913656263e+01 0 -1 0
651 1 2.9476920730932665e-01 2.5211094103855318e+00 1.5126656653071807e+01 1.4310789923743499e+01 0 -1 0
652 1 2.9476833053892426e-01 1.5126656654896536e+01 7.5633283189785683e+00 1.4310789927772598e+01 -1 0 0
653 1 2.9476870062934019e-01 1.5126656666119327e+01 5.0422189101019796e+00 1.4310789931406449e+01 -1 0 0
654 1 2.9476804690645503e-01 2.5211093622392586e+00 5.0422188865937461e+00 1.4310789995397196e+01 0 0 0
655 1 2.9476890480506085e-01 2.5211093893796117e+00 2.5211094166956602e+00 1.4310789964646347e+01 0 0 0
656 1 2.9476817136891015e-01 5.0422188905937579e+00 2.5211093975856742e+00 1.4310789971430708e+01 0 0 0
657 1 2.9476859079957707e-01 5.0422189067320993e+00 1.5126656629880276e+01 1.4310789918079749e+01 0 -1 0
658 1 2.9476803336906354e-01 7.5633283255571104e+00 1.5126656618495877e+01 1.4310789898795504e+01 0 -1 0
663 1 2.9476782662259615e-01 5.0422188963929369e+00 7.5633283445323718e+00 1.4310789959986046e+01 0 0 0
664 1 2.9476743452070620e-01 5.0422188906103358e+00 5.0422188829171999e+00 1.4310789991725287e+01 0 0 0
665 1 2.9476783544060242e-01 7.5633283401720659e+00 5.0422188920397168e+00 1.4310789918236354e+01 0 0 0
674 1 2.9476847575514209e-01 7.5633283411496777e+00 7.5633283438064476e+00 1.4310789894722747e+01 0 0 0
687 3 -2.5750885411062097e-01 1.2605547460918296e+00 7.5427182448886347e-09 1.5071039587340108e+01 0 0 0
690 3 -2.5751077860901772e-01 1.2605547699619695e+00 5.0422188820526133e+00 1.5071039536803129e+01 0 0 0
691 3 -2.5750921757961059e-01 1.2605547487157767e+00 2.5211094473485263e+00 1.5071039566582229e+01 0 0 0
692 3 -2.5751055439117732e-01 3.7816641924907635e+00 2.5211094660828777e+00 1.5071039556447989e+01 0 0 0
693 3 -2.5750963942276578e-01 3.7816641733484264e+00 1.2762115813207746e-08 1.5071039595576826e+01 0 0 0
694 3 -2.5751081873494908e-01 6.3027735946339023e+00 2.7965305058037881e-08 1.5071039591007338e+01 0 0 0
699 3 -2.5751194885656903e-01 3.7816642060265164e+00 7.5633283395235340e+00 1.5071039555478052e+01 0 0 0
700 3 -2.5751203156312219e-01 3.7816642063314969e+00 5.0422188968311721e+00 1.5071039526597684e+01 0 0 0
701 3 -2.5751258984249975e-01 6.3027735987662803e+00 5.0422188968458386e+00 1.5071039547861684e+01 0 0 0
702 3 -2.5751150266432832e-01 6.3027736030682613e+00 2.5211094749604896e+00 1.5071039563643676e+01 0 0 0
710 3 -2.5751224630942582e-01 6.3027735940970500e+00 7.5633283305317933e+00 1.5071039580847367e+01 0 0 0
539 1 -8.9115534915123293e-02 7.5633283350700262e+00 1.2605547413968967e+00 1.3411492230837029e+01 0 0 0
540 1 -1.0078083655104524e-02 8.8238830564795467e+00 4.8730646623704418e-10 1.1588706530146975e+01 0 0 0
566 1 -8.9114308986484245e-02 7.5633283251837371e+00 6.3027736088173949e+00 1.3411492220796802e+01 0 0 0
568 1 -1.0077876089630398e-02 8.8238830554842487e+00 5.0422188895276472e+00 1.1588706532273845e+01 0 0 0
570 1 3.1160786899809348e-03 8.8238830563866095e+00 3.7816641658602586e+00 1.2508561623583008e+01 0 0 0
571 1 3.1152365904385205e-03 8.8238830558101977e+00 1.2605547214276349e+00 1.2508561625539317e+01 0 0 0
573 1 -1.0078018556920596e-02 8.8238830559745054e+00 2.5211094466221953e+00 1.1588706530108976e+01 0 0 0
574 1 -8.9114852695153943e-02 1.0084437776575513e+01 3.7816641679635179e+00 1.3411492237065417e+01 0 0 0
575 1 -8.9115795786797611e-02 1.0084437782780393e+01 1.2605547361523997e+00 1.3411492241748347e+01 0 0 0
576 1 -1.0077810593342514e-02 1.1344992499221039e+01 2.5211094460541186e+00 1.1588706526974077e+01 0 0 0
578 1 3.1150908420068263e-03 1.1344992502334808e+01 1.2605547218677982e+00 1.2508561628504577e+01 0 0 0
580 1 -1.0077778212162616e-02 1.1344992499398590e+01 1.7824731327353568e-10 1.1588706530498722e+01 0 0 0
581 1 -8.9115832594664768e-02 1.2605547206895213e+01 1.2605547320271639e+00 1.3411492244781101e+01 0 0 0
582 1 -1.0078416419650892e-02 1.3866101943438311e+01 2.1829656819149518e-11 1.1588706525927821e+01 0 0 0
603 1 3.1168116503799215e-03 8.8238830563126722e+00 6.3027736114278374e+00 1.2508561618191997e+01 0 0 0
605 1 -1.0078251458754489e-02 8.8238830557392340e+00 7.5633283326846792e+00 1.1588706527030201e+01 0 0 0
607 1 -8.9113861299748881e-02 1.0084437774882671e+01 6.3027736111711734e+00 1.3411492234997114e+01 0 0 0
608 1 -1.0077876619313825e-02 1.1344992498972092e+01 7.5633283333793280e+00 1.1588706528019870e+01 0 0 0
610 1 3.1166253722297930e-03 1.1344992502404605e+01 6.3027736110581287e+00 1.2508561621900570e+01 0 0 0
611 1 3.1159618294494900e-03 1.1344992502470678e+01 3.7816641660828409e+00 1.2508561624611495e+01 0 0 0
613 1 -1.0077735728979744e-02 1.1344992498818247e+01 5.0422188893863398e+00 1.1588706528676308e+01 0 0 0
614 1 -8.9114781282979325e-02 1.2605547204369156e+01 6.3027736105469829e+00 1.3411492229255002e+01 0 0 0
615 1 -8.9114965525938117e-02 1.2605547205470183e+01 3.7816641632844736e+00 1.3411492237377951e+01 0 0 0
616 1 -1.0078356999055774e-02 1.3866101944376052e+01 5.0422188894206039e+00 1.1588706528612940e+01 0 0 0
618 1 3.1152763658950076e-03 1.3866101946873959e+01 3.7816641658982642e+00 1.2508561627281942e+01 0 0 0
619 1 3.1145338192027582e-03 1.3866101947360420e+01 1.2605547218187347e+00 1.2508561627651186e+01 0 0 0
620 1 -1.0078273036303754e-02 1.3866101943793238e+01 2.5211094462497727e+00 1.1588706524192625e+01 0 0 0
641 1 3.1153456711148411e-03 1.3866101946642695e+01 6.3027736109604522e+00 1.2508561625138473e+01 0 0 0
666 1 2.9476796709797404e-01 7.5633283281608330e+00 2.5211094075458429e+00 1.4310789925683059e+01 0 0 0
667 1 2.9476785328955885e-01 1.0084437761528966e+01 2.5211094247244232e+00 1.4310789928759558e+01 0 0 0
668 1 2.9476756074151522e-01 1.0084437752506878e+01 1.5126656620963034e+01 1.4310789927244866e+01 0 -1 0
669 1 2.9476797423723877e-01 1.2605547265389138e+01 1.5126656631664792e+01 1.4310789936439706e+01 0 -1 0
676 1 2.9476807998222782e-01 1.0084437778384551e+01 5.0422188989589172e+00 1.4310789914125625e+01 0 0 0
677 1 2.9476833289275506e-01 1.2605547298921289e+01 5.0422189133440476e+00 1.4310789923625046e+01 0 0 0
678 1 2.9476872633048018e-01 1.2605547283792438e+01 2.5211094414468493e+00 1.4310789936637615e+01 0 0 0
685 3 -2.5750954024453021e-01 1.3866101895493657e+01 2.5211094441606678e+00 1.5071039588873751e+01 -1 0 0
686 3 -2.5750986043378404e-01 1.3866101913162534e+01 2.2093149903532105e-08 1.5071039579432533e+01 -1 0 0
688 3 -2.5751149858568523e-01 1.3866101895639439e+01 7.5633283387410017e+00 1.5071039573121443e+01 -1 0 0
689 3 -2.5751090746965877e-01 1.3866101891208551e+01 5.0422188705869697e+00 1.5071039576710406e+01 -1 0 0
703 3 -2.5751194431036545e-01 8.8238830802391668e+00 2.5211094700974561e+00 1.5071039587243908e+01 0 0 0
704 3 -2.5751161066328371e-01 8.8238830817131877e+00 3.6158882592106380e-08 1.5071039589065419e+01 0 0 0
705 3 -2.5751143774045354e-01 1.1344992493718729e+01 3.5506471884037860e-08 1.5071039585726137e+01 0 0 0
712 3 -2.5751248016144096e-01 8.8238830706827986e+00 5.0422188903015162e+00 1.5071039586081699e+01 0 0 0
713 3 -2.5751205073138028e-01 1.1344992465717747e+01 5.0422188788209805e+00 1.5071039604724042e+01 0 0 0
714 3 -2.5751131880321454e-01 1.1344992482661103e+01 2.5211094580321087e+00 1.5071039602338985e+01 0 0 0
516 1 -8.9115375980570441e-02 4.9048375633787202e-09 8.8238830603351985e+00 1.3411492216518688e+01 0 0 0
518 1 -1.0078245206567051e-02 1.2605547239849313e+00 7.5633283327010172e+00 1.1588706533336884e+01 0 0 0
542 1 -8.9116443150602229e-02 1.5126656662561134e+01 1.3866101941800908e+01 1.3411492230108353e+01 -1 0 0
543 1 -8.9115944169665479e-02 1.5126656666642365e+01 1.1344992493379319e+01 1.3411492222007695e+01 -1 0 0
544 1 -1.0078069017643484e-02 1.2605547222204141e+00 1.2605547221274625e+01 1.1588706527684945e+01 0 0 0
546 1 3.1145914414931011e-03 1.2605547222996210e+00 1.1344992502065253e+01 1.2508561633065838e+01 0 0 0
547 1 3.1150948249284347e-03 1.2605547215343118e+00 8.8238830566610797e+00 1.2508561632059424e+01 0 0 0
549 1 -1.0078166870407662e-02 1.2605547226710136e+00 1.0084437777204077e+01 1.1588706529399699e+01 0 0 0
550 1 -8.9115819584779654e-02 2.5211094520839064e+00 1.1344992486684157e+01 1.3411492243057451e+01 0 0 0
551 1 -8.9115347843170670e-02 2.5211094629396924e+00 8.8238830516819924e+00 1.3411492232774025e+01 0 0 0
552 1 -1.0077924849601514e-02 3.7816641678320142e+00 1.0084437776379108e+01 1.1588706524848970e+01 0 0 0
554 1 3.1155926383726715e-03 3.7816641656888930e+00 8.8238830574532301e+00 1.2508561630651077e+01 0 0 0
558 1 -8.9114900269381847e-02 5.0422188821237857e+00 8.8238830442857594e+00 1.3411492240860097e+01 0 0 0
560 1 -1.0078511876855465e-02 6.3027736114882398e+00 7.5633283318885987e+00 1.1588706530469207e+01 0 0 0
583 1 3.1141529679754418e-03 1.2605547223088942e+00 1.3866101946342235e+01 1.2508561628213473e+01 0 0 0
584 1 -8.9116011558554267e-02 2.5211094511996994e+00 1.3866101940176078e+01 1.3411492244425242e+01 0 0 0
586 1 3.1147773401137497e-03 3.7816641655513550e+00 1.3866101945816794e+01 1.2508561625229692e+01 0 0 0
587 1 3.1150926083057637e-03 3.7816641658823476e+00 1.1344992502244548e+01 1.2508561626066399e+01 0 0 0
589 1 -1.0077816012599102e-02 3.7816641679572349e+00 1.2605547221588605e+01 1.1588706523098223e+01 0 0 0
590 1 -8.9115764505602366e-02 5.0422188856033108e+00 1.3866101945143399e+01 1.3411492239322321e+01 0 0 0
591 1 -8.9115306503770059e-02 5.0422188820830129e+00 1.1344992482284963e+01 1.3411492243773436e+01 0 0 0
592 1 -1.0078201079939435e-02 6.3027736126214631e+00 1.2605547221929307e+01 1.1588706527962058e+01 0 0 0
594 1 3.1156529379271899e-03 6.3027736103556338e+00 1.1344992501915787e+01 1.2508561620243492e+01 0 0 0
595 1 3.1160549196069124e-03 6.3027736108764936e+00 8.8238830572409039e+00 1.2508561619377399e+01 0 0 0
597 1 -1.0078384276600382e-02 6.3027736121947004e+00 1.0084437776838101e+01 1.1588706524819468e+01 0 0 0
598 1 -8.9114729339997811e-02 7.5633283365894410e+00 1.1344992484229714e+01 1.3411492227554577e+01 0 0 0
599 1 -8.9113914734500310e-02 7.5633283313866482e+00 8.8238830463334441e+00 1.3411492234012883e+01 0 0 0
621 1 3.1150370521459648e-03 6.3027736101119807e+00 1.3866101945573412e+01 1.2508561623337297e+01 0 0 0
659 1 2.9476849048396669e-01 1.5126656654571565e+01 1.2605547238971468e+01 1.4310789929576066e+01 -1 0 0
660 1 2.9476863050956098e-01 1.5126656650463849e+01 1.0084437772626014e+01 1.4310789939062618e+01 -1 0 0
661 1 2.9476848689506618e-01 2.5211093815046932e+00 1.0084437795453111e+01 1.4310789954327030e+01 0 0 0
662 1 2.9476812673590191e-01 2.5211093571398586e+00 7.5633283285401767e+00 1.4310789979560289e+01 0 0 0
670 1 2.9476870904657038e-01 2.5211094076112701e+00 1.2605547256092279e+01 1.4310789929260967e+01 0 0 0
671 1 2.9476836057402855e-01 5.0422189222527107e+00 1.2605547259208697e+01 1.4310789901505235e+01 0 0 0
672 1 2.9476833381541523e-01 5.0422189118958558e+00 1.0084437822322574e+01 1.4310789923118657e+01 0 0 0
697 3 -2.5751034271594753e-01 1.2605547766661118e+00 1.0084437777959057e+01 1.5071039565716097e+01 0 0 0
698 3 -2.5751111770755541e-01 1.2605547824465582e+00 7.5633283456078075e+00 1.5071039545752029e+01 0 0 0
706 3 -2.5750964033725426e-01 1.2605547615569721e+00 1.2605547208379809e+01 1.5071039577524127e+01 0 0 0
707 3 -2.5751024140205647e-01 3.7816641678547875e+00 1.2605547195730180e+01 1.5071039605780809e+01 0 0 0
708 3 -2.5751107309477728e-01 3.7816641866932330e+00 1.0084437757960746e+01 1.5071039595534039e+01 0 0 0
709 3 -2.5751146154452681e-01 6.3027735851056139e+00 1.0084437742742658e+01 1.5071039609798641e+01 0 0 0
715 3 -2.5751112143700444e-01 6.3027735813400048e+00 1.2605547195844542e+01 1.5071039604174269e+01 0 0 0
600 1 -1.0078399466491392e-02 8.8238830563024919e+00 1.0084437777540874e+01 1.1588706528579394e+01 0 0 0
602 1 3.1166710716698373e-03 8.8238830556640764e+00 8.8238830565655419e+00 1.2508561617887283e+01 0 0 0
606 1 -8.9113874587494896e-02 1.0084437780525613e+01 8.8238830513718955e+00 1.3411492241044312e+01 0 0 0
622 1 -8.9115664023864102e-02 7.5633283386891410e+00 1.3866101948695004e+01 1.3411492223450100e+01 0 0 0
624 1 3.1151504621534385e-03 8.8238830552880110e+00 1.3866101945797514e+01 1.2508561626040754e+01 0 0 0
625 1 3.1158523801761337e-03 8.8238830552157843e+00 1.1344992501589770e+01 1.2508561623775369e+01 0 0 0
627 1 -1.0078088667332825e-02 8.8238830565525568e+00 1.2605547222027838e+01 1.1588706533860508e+01 0 0 0
628 1 -8.9116105364584239e-02 1.0084437786946237e+01 1.3866101948888749e+01 1.3411492227335160e+01 0 0 0
629 1 -8.9115175310711656e-02 1.0084437786384770e+01 1.1344992487120855e+01 1.3411492228699476e+01 0 0 0
630 1 -1.0077824387389425e-02 1.1344992499603336e+01 1.2605547221901221e+01 1.1588706538065209e+01 0 0 0
632 1 3.1154185692228277e-03 1.1344992501789990e+01 1.1344992501519323e+01 1.2508561634043945e+01 0 0 0
633 1 3.1163872869282797e-03 1.1344992502034348e+01 8.8238830560117272e+00 1.2508561626887431e+01 0 0 0
635 1 -1.0077998493313166e-02 1.1344992499579567e+01 1.0084437777991340e+01 1.1588706533883750e+01 0 0 0
636 1 -8.9115877050844561e-02 1.2605547212663256e+01 1.1344992491870940e+01 1.3411492223868368e+01 0 0 0
637 1 -8.9114888539086362e-02 1.2605547207009895e+01 8.8238830579770919e+00 1.3411492231636469e+01 0 0 0
638 1 -1.0078225927732411e-02 1.3866101944088912e+01 1.0084437778113541e+01 1.1588706534677970e+01 0 0 0
640 1 3.1152728280325402e-03 1.3866101946870440e+01 8.8238830558949584e+00 1.2508561629789046e+01 0 0 0
642 1 -1.0078535880071706e-02 1.3866101944396384e+01 7.5633283335962185e+00 1.1588706528270697e+01 0 0 0
643 1 3.1147855161270384e-03 1.1344992502024427e+01 1.3866101946128838e+01 1.2508561632953526e+01 0 0 0
644 1 -8.9116636989699849e-02 1.2605547211447258e+01 1.3866101946961949e+01 1.3411492228890024e+01 0 0 0
646 1 3.1140477106727346e-03 1.3866101947384028e+01 1.3866101946430229e+01 1.2508561633236628e+01 0 0 0
647 1 3.1147175254537546e-03 1.3866101947125303e+01 1.1344992501666050e+01 1.2508561637515220e+01 0 0 0
648 1 -1.0078190120054774e-02 1.3866101943713714e+01 1.2605547221488658e+01 1.1588706536756641e+01 0 0 0
673 1 2.9476869331067068e-01 7.5633283407286109e+00 1.0084437824584647e+01 1.4310789885021221e+01 0 0 0
675 1 2.9476858967600306e-01 1.0084437783826045e+01 7.5633283347154912e+00 1.4310789913977398e+01 0 0 0
679 1 2.9476811931121499e-01 7.5633283371471496e+00 1.2605547249974212e+01 1.4310789881644817e+01 0 0 0
680 1 2.9476754616419409e-01 1.0084437758291999e+01 1.2605547241887711e+01 1.4310789925730212e+01 0 0 0
681 1 2.9476834770101540e-01 1.0084437772756829e+01 1.0084437815197145e+01 1.4310789927098332e+01 0 0 0
682 1 2.9476813168660537e-01 1.2605547279096877e+01 1.0084437790108877e+01 1.4310789949931429e+01 0 0 0
683 1 2.9476814415959701e-01 1.2605547303041762e+01 7.5633283258801232e+00 1.4310789927454620e+01 0 0 0
684 1 2.9476756907838092e-01 1.2605547256572004e+01 1.2605547234002017e+01 1.4310789945903885e+01 0 0 0
695 3 -2.5751064242777988e-01 1.3866101928030295e+01 1.2605547218434284e+01 1.5071039555826360e+01 -1 0 0
696 3 -2.5751091382634966e-01 1.3866101914791795e+01 1.0084437774874436e+01 1.5071039561679465e+01 -1 0 0
711 3 -2.5751203196207145e-01 8.8238830665566823e+00 7.5633283280770875e+00 1.5071039607679042e+01 0 0 0
716 3 -2.5751178818250575e-01 8.8238830723389530e+00 1.2605547203162084e+01 1.5071039589222085e+01 0 0 0
717 3 -2.5751167400207592e-01 8.8238830667382100e+00 1.0084437741093550e+01 1.5071039609000183e+01 0 0 0
718 3 -2.5751185646917313e-01 1.1344992472673692e+01 1.0084437753226887e+01 1.5071039590697010e+01 0 0 0
719 3 -2.5751211522866618e-01 1.1344992457902576e+01 7.5633283302016734e+00 1.5071039609677623e+01 0 0 0
720 3 -2.5751191015696517e-01 1.1344992491547597e+01 1.2605547213102406e+01 1.5071039569129068e+01 0 0 0

Velocities

1 0.0000000000000000e+00 0.0000000000000000e+00 0.0000000000000000e+00
2 0.0000000000000000e+00 0.0000000000000000e+00 0.0000000000000000e+00
3 0.0000000000000000e+00 0.0000000000000000e+00 0.0000000000000000e+00
4 0.0000000000000000e+00 0.0000000000000000e+00 0.0000000000000000e+00
6 0.0000000000000000e+00 0.0000000000000000e+00 0.0000000000000000e+00
7 0.0000000000000000e+00 0.0000000000000000e+00 0.0000000000000000e+00
8 0.0000000000000000e+00 0.0000000000000000e+00 0.0000000000000000e+00
9 0.0000000000000000e+00 0.0000000000000000e+00 0.0000000000000000e+00
10 0.0000000000000000e+00 0.0000000000000000e+00 0.0000000000000000e+00
11 0.0000000000000000e+00 0.0000000000000000e+00 0.0000000000000000e+00
12 0.0000000000000000e+00 0.0000000000000000e+00 0.0000000000000000e+00
13 0.0000000000000000e+00 0.0000000000000000e+00 0.0000000000000000e+00
14 0.0000000000000000e+00 0.0000000000000000e+00 0.0000000000000000e+00
15 0.0000000000000000e+00 0.0000000000000000e+00 0.0000000000000000e+00
24 0.0000000000000000e+00 0.0000000000000000e+00 0.0000000000000000e+00
26 0.0000000000000000e+00 0.0000000000000000e+00 0.0000000000000000e+00
27 0.0000000000000000e+00 0.0000000000000000e+00 0.0000000000000000e+00
28 0.0000000000000000e+00 0.0000000000000000e+00 0.0000000000000000e+00
30 0.0000000000000000e+00 0.0000000000000000e+00 0.0000000000000000e+00
73 0.0000000000000000e+00 0.0000000000000000e+00 0.0000000000000000e+00
74 0.0000000000000000e+00 0.0000000000000000e+00 0.0000000000000000e+00
75 0.0000000000000000e+00 0.0000000000000000e+00 0.0000000000000000e+00
76 0.0000000000000000e+00 0.0000000000000000e+00 0.0000000000000000e+00
77 0.0000000000000000e+00 0.0000000000000000e+00 0.0000000000000000e+00
78 0.0000000000000000e+00 0.0000000000000000e+00 0.0000000000000000e+00
79 0.0000000000000000e+00 0.0000000000000000e+00 0.0000000000000000e+00
80 0.0000000000000000e+00 0.0000000000000000e+00 0.0000000000000000e+00
81 0.0000000000000000e+00 0.0000000000000000e+00 0.0000000000000000e+00
82 0.0000000000000000e+00 0.0000000000000000e+00 0.0000000000000000e+00
83 0.0000000000000000e+00 0.0000000000000000e+00 0.0000000000000000e+00
85 0.0000000000000000e+00 0.0000000000000000e+00 0.0000000000000000e+00
87 0.0000000000000000e+00 0.0000000000000000e+00 0.0000000000000000e+00
88 0.0000000000000000e+00 0.0000000000000000e+00 0.0000000000000000e+00
89 0.0000000000000000e+00 0.0000000000000000e+00 0.0000000000000000e+00
90 0.0000000000000000e+00 0.0000000000000000e+00 0.0000000000000000e+00
91 0.0000000000000000e+00 0.0000000000000000e+00 0.0000000000000000e+00
92 0.0000000000000000e+00 0.0000000000000000e+00 0.0000000000000000e+00
93 0.0000000000000000e+00 0.0000000000000000e+00 0.0000000000000000e+00
94 0.0000000000000000e+00 0.0000000000000000e+00 0.0000000000000000e+00
95 0.0000000000000000e+00 0.0000000000000000e+00 0.0000000000000000e+00
96 0.0000000000000000e+00 0.0000000000000000e+00 0.0000000000000000e+00
97 0.0000000000000000e+00 0.0000000000000000e+00 0.0000000000000000e+00
98 0.0000000000000000e+00 0.0000000000000000e+00 0.0000000000000000e+00
99 0.0000000000000000e+00 0.0000000000000000e+00 0.0000000000000000e+00
100 0.0000000000000000e+00 0.0000000000000000e+00 0.0000000000000000e+00
101 0.0000000000000000e+00 0.0000000000000000e+00 0.0000000000000000e+00
102 0.0000000000000000e+00 0.0000000000000000e+00 0.0000000000000000e+00
103 0.0000000000000000e+00 0.0000000000000000e+00 0.0000000000000000e+00
104 0.0000000000000000e+00 0.0000000000000000e+00 0.0000000000000000e+00
105 0.0000000000000000e+00 0.0000000000000000e+00 0.0000000000000000e+00
106 0.0000000000000000e+00 0.0000000000000000e+00 0.0000000000000000e+00
123 0.0000000000000000e+00 0.0000000000000000e+00 0.0000000000000000e+00
124 0.0000000000000000e+00 0.0000000000000000e+00 0.0000000000000000e+00
125 0.0000000000000000e+00 0.0000000000000000e+00 0.0000000000000000e+00
127 0.0000000000000000e+00 0.0000000000000000e+00 0.0000000000000000e+00
129 0.0000000000000000e+00 0.0000000000000000e+00 0.0000000000000000e+00
130 0.0000000000000000e+00 0.0000000000000000e+00 0.0000000000000000e+00
131 0.0000000000000000e+00 0.0000000000000000e+00 0.0000000000000000e+00
132 0.0000000000000000e+00 0.0000000000000000e+00 0.0000000000000000e+00
133 0.0000000000000000e+00 0.0000000000000000e+00 0.0000000000000000e+00
135 0.0000000000000000e+00 0.0000000000000000e+00 0.0000000000000000e+00
169 0.0000000000000000e+00 0.0000000000000000e+00 0.0000000000000000e+00
217 0.0000000000000000e+00 0.0000000000000000e+00 0.0000000000000000e+00
220 0.0000000000000000e+00 0.0000000000000000e+00 0.0000000000000000e+00
221 0.0000000000000000e+00 0.0000000000000000e+00 0.0000000000000000e+00
223 0.0000000000000000e+00 0.0000000000000000e+00 0.0000000000000000e+00
224 0.0000000000000000e+00 0.0000000000000000e+00 0.0000000000000000e+00
226 0.0000000000000000e+00 0.0000000000000000e+00 0.0000000000000000e+00
227 0.0000000000000000e+00 0.0000000000000000e+00 0.0000000000000000e+00
231 0.0000000000000000e+00 0.0000000000000000e+00 0.0000000000000000e+00
234 0.0000000000000000e+00 0.0000000000000000e+00 0.0000000000000000e+00
235 0.0000000000000000e+00 0.0000000000000000e+00 0.0000000000000000e+00
238 0.0000000000000000e+00 0.0000000000000000e+00 0.0000000000000000e+00
239 0.0000000000000000e+00 0.0000000000000000e+00 0.0000000000000000e+00
242 0.0000000000000000e+00 0.0000000000000000e+00 0.0000000000000000e+00
243 0.0000000000000000e+00 0.0000000000000000e+00 0.0000000000000000e+00
246 0.0000000000000000e+00 0.0000000000000000e+00 0.0000000000000000e+00
247 0.0000000000000000e+00 0.0000000000000000e+00 0.0000000000000000e+00
249 0.0000000000000000e+00 0.0000000000000000e+00 0.0000000000000000e+00
250 0.0000000000000000e+00 0.0000000000000000e+00 0.0000000000000000e+00
268 0.0000000000000000e+00 0.0000000000000000e+00 0.0000000000000000e+00
269 0.0000000000000000e+00 0.0000000000000000e+00 0.0000000000000000e+00
273 0.0000000000000000e+00 0.0000000000000000e+00 0.0000000000000000e+00
276 0.0000000000000000e+00 0.0000000000000000e+00 0.0000000000000000e+00
277 0.0000000000000000e+00 0.0000000000000000e+00 0.0000000000000000e+00
313 0.0000000000000000e+00 0.0000000000000000e+00 0.0000000000000000e+00
16 0.0000000000000000e+00 0.0000000000000000e+00 0.0000000000000000e+00
29 0.0000000000000000e+00 0.0000000000000000e+00 0.0000000000000000e+00
31 0.0000000000000000e+00 0.0000000000000000e+00 0.0000000000000000e+00
32 0.0000000000000000e+00 0.0000000000000000e+00 0.0000000000000000e+00
33 0.0000000000000000e+00 0.0000000000000000e+00 0.0000000000000000e+00
34 0.0000000000000000e+00 0.0000000000000000e+00 0.0000000000000000e+00
35 0.0000000000000000e+00 0.0000000000000000e+00 0.0000000000000000e+00
36 0.0000000000000000e+00 0.0000000000000000e+00 0.0000000000000000e+00
48 0.0000000000000000e+00 0.0000000000000000e+00 0.0000000000000000e+00
50 0.0000000000000000e+00 0.0000000000000000e+00 0.0000000000000000e+00
51 0.0000000000000000e+00 0.0000000000000000e+00 0.0000000000000000e+00
52 0.0000000000000000e+00 0.0000000000000000e+00 0.0000000000000000e+00
53 0.0000000000000000e+00 0.0000000000000000e+00 0.0000000000000000e+00
54 0.0000000000000000e+00 0.0000000000000000e+00 0.0000000000000000e+00
55 0.0000000000000000e+00 0.0000000000000000e+00 0.0000000000000000e+00
56 0.0000000000000000e+00 0.0000000000000000e+00 0.0000000000000000e+00
68 0.0000000000000000e+00 0.0000000000000000e+00 0.0000000000000000e+00
107 0.0000000000000000e+00 0.0000000000000000e+00 0.0000000000000000e+00
108 0.0000000000000000e+00 0.0000000000000000e+00 0.0000000000000000e+00
134 0.0000000000000000e+00 0.0000000000000000e+00 0.0000000000000000e+00
136 0.0000000000000000e+00 0.0000000000000000e+00 0.0000000000000000e+00
137 0.0000000000000000e+00 0.0000000000000000e+00 0.0000000000000000e+00
138 0.0000000000000000e+00 0.0000000000000000e+00 0.0000000000000000e+00
139 0.0000000000000000e+00 0.0000000000000000e+00 0.0000000000000000e+00
140 0.0000000000000000e+00 0.0000000000000000e+00 0.0000000000000000e+00
141 0.0000000000000000e+00 0.0000000000000000e+00 0.0000000000000000e+00
142 0.0000000000000000e+00 0.0000000000000000e+00 0.0000000000000000e+00
143 0.0000000000000000e+00 0.0000000000000000e+00 0.0000000000000000e+00
144 0.0000000000000000e+00 0.0000000000000000e+00 0.0000000000000000e+00
145 0.0000000000000000e+00 0.0000000000000000e+00 0.0000000000000000e+00
146 0.0000000000000000e+00 0.0000000000000000e+00 0.0000000000000000e+00
147 0.0000000000000000e+00 0.0000000000000000e+00 0.0000000000000000e+00
148 0.0000000000000000e+00 0.0000000000000000e+00 0.0000000000000000e+00
149 0.0000000000000000e+00 0.0000000000000000e+00 0.0000000000000000e+00
150 0.0000000000000000e+00 0.0000000000000000e+00 0.0000000000000000e+00
171 0.0000000000000000e+00 0.0000000000000000e+00 0.0000000000000000e+00
173 0.0000000000000000e+00 0.0000000000000000e+00 0.0000000000000000e+00
175 0.0000000000000000e+00 0.0000000000000000e+00 0.0000000000000000e+00
176 0.0000000000000000e+00 0.0000000000000000e+00 0.0000000000000000e+00
177 0.0000000000000000e+00 0.0000000000000000e+00 0.0000000000000000e+00
178 0.0000000000000000e+00 0.0000000000000000e+00 0.0000000000000000e+00
179 0.0000000000000000e+00 0.0000000000000000e+00 0.0000000000000000e+00
180 0.0000000000000000e+00 0.0000000000000000e+00 0.0000000000000000e+00
181 0.0000000000000000e+00 0.0000000000000000e+00 0.0000000000000000e+00
182 0.0000000000000000e+00 0.0000000000000000e+00 0.0000000000000000e+00
183 0.0000000000000000e+00 0.0000000000000000e+00 0.0000000000000000e+00
184 0.0000000000000000e+00 0.0000000000000000e+00 0.0000000000000000e+00
185 0.0000000000000000e+00 0.0000000000000000e+00 0.0000000000000000e+00
186 0.0000000000000000e+00 0.0000000000000000e+00 0.0000000000000000e+00
187 0.0000000000000000e+00 0.0000000000000000e+00 0.0000000000000000e+00
188 0.0000000000000000e+00 0.0000000000000000e+00 0.0000000000000000e+00
209 0.0000000000000000e+00 0.0000000000000000e+00 0.0000000000000000e+00
252 0.0000000000000000e+00 0.0000000000000000e+00 0.0000000000000000e+00
280 0.0000000000000000e+00 0.0000000000000000e+00 0.0000000000000000e+00
281 0.0000000000000000e+00 0.0000000000000000e+00 0.0000000000000000e+00
284 0.0000000000000000e+00 0.0000000000000000e+00 0.0000000000000000e+00
285 0.0000000000000000e+00 0.0000000000000000e+00 0.0000000000000000e+00
288 0.0000000000000000e+00 0.0000000000000000e+00 0.0000000000000000e+00
289 0.0000000000000000e+00 0.0000000000000000e+00 0.0000000000000000e+00
291 0.0000000000000000e+00 0.0000000000000000e+00 0.0000000000000000e+00
292 0.0000000000000000e+00 0.0000000000000000e+00 0.0000000000000000e+00
294 0.0000000000000000e+00 0.0000000000000000e+00 0.0000000000000000e+00
317 0.0000000000000000e+00 0.0000000000000000e+00 0.0000000000000000e+00
320 0.0000000000000000e+00 0.0000000000000000e+00 0.0000000000000000e+00
321 0.0000000000000000e+00 0.0000000000000000e+00 0.0000000000000000e+00
324 0.0000000000000000e+00 0.0000000000000000e+00 0.0000000000000000e+00
325 0.0000000000000000e+00 0.0000000000000000e+00 0.0000000000000000e+00
328 0.0000000000000000e+00 0.0000000000000000e+00 0.0000000000000000e+00
329 0.0000000000000000e+00 0.0000000000000000e+00 0.0000000000000000e+00
332 0.0000000000000000e+00 0.0000000000000000e+00 0.0000000000000000e+00
5 0.0000000000000000e+00 0.0000000000000000e+00 0.0000000000000000e+00
17 0.0000000000000000e+00 0.0000000000000000e+00 0.0000000000000000e+00
18 0.0000000000000000e+00 0.0000000000000000e+00 0.0000000000000000e+00
19 0.0000000000000000e+00 0.0000000000000000e+00 0.0000000000000000e+00
20 0.0000000000000000e+00 0.0000000000000000e+00 0.0000000000000000e+00
21 0.0000000000000000e+00 0.0000000000000000e+00 0.0000000000000000e+00
22 0.0000000000000000e+00 0.0000000000000000e+00 0.0000000000000000e+00
23 0.0000000000000000e+00 0.0000000000000000e+00 0.0000000000000000e+00
25 0.0000000000000000e+00 0.0000000000000000e+00 0.0000000000000000e+00
37 0.0000000000000000e+00 0.0000000000000000e+00 0.0000000000000000e+00
38 0.0000000000000000e+00 0.0000000000000000e+00 0.0000000000000000e+00
39 0.0000000000000000e+00 0.0000000000000000e+00 0.0000000000000000e+00
40 0.0000000000000000e+00 0.0000000000000000e+00 0.0000000000000000e+00
41 0.0000000000000000e+00 0.0000000000000000e+00 0.0000000000000000e+00
42 0.0000000000000000e+00 0.0000000000000000e+00 0.0000000000000000e+00
43 0.0000000000000000e+00 0.0000000000000000e+00 0.0000000000000000e+00
44 0.0000000000000000e+00 0.0000000000000000e+00 0.0000000000000000e+00
45 0.0000000000000000e+00 0.0000000000000000e+00 0.0000000000000000e+00
46 0.0000000000000000e+00 0.0000000000000000e+00 0.0000000000000000e+00
57 0.0000000000000000e+00 0.0000000000000000e+00 0.0000000000000000e+00
84 0.0000000000000000e+00 0.0000000000000000e+00 0.0000000000000000e+00
86 0.0000000000000000e+00 0.0000000000000000e+00 0.0000000000000000e+00
109 0.0000000000000000e+00 0.0000000000000000e+00 0.0000000000000000e+00
110 0.0000000000000000e+00 0.0000000000000000e+00 0.0000000000000000e+00
111 0.0000000000000000e+00 0.0000000000000000e+00 0.0000000000000000e+00
112 0.0000000000000000e+00 0.0000000000000000e+00 0.0000000000000000e+00
113 0.0000000000000000e+00 0.0000000000000000e+00 0.0000000000000000e+00
114 0.0000000000000000e+00 0.0000000000000000e+00 0.0000000000000000e+00
115 0.0000000000000000e+00 0.0000000000000000e+00 0.0000000000000000e+00
116 0.0000000000000000e+00 0.0000000000000000e+00 0.0000000000000000e+00
117 0.0000000000000000e+00 0.0000000000000000e+00 0.0000000000000000e+00
118 0.0000000000000000e+00 0.0000000000000000e+00 0.0000000000000000e+00
119 0.0000000000000000e+00 0.0000000000000000e+00 0.0000000000000000e+00
120 0.0000000000000000e+00 0.0000000000000000e+00 0.0000000000000000e+00
121 0.0000000000000000e+00 0.0000000000000000e+00 0.0000000000000000e+00
122 0.0000000000000000e+00 0.0000000000000000e+00 0.0000000000000000e+00
126 0.0000000000000000e+00 0.0000000000000000e+00 0.0000000000000000e+00
128 0.0000000000000000e+00 0.0000000000000000e+00 0.0000000000000000e+00
151 0.0000000000000000e+00 0.0000000000000000e+00 0.0000000000000000e+00
152 0.0000000000000000e+00 0.0000000000000000e+00 0.0000000000000000e+00
153 0.0000000000000000e+00 0.0000000000000000e+00 0.0000000000000000e+00
154 0.0000000000000000e+00 0.0000000000000000e+00 0.0000000000000000e+00
155 0.0000000000000000e+00 0.0000000000000000e+00 0.0000000000000000e+00
156 0.0000000000000000e+00 0.0000000000000000e+00 0.0000000000000000e+00
157 0.0000000000000000e+00 0.0000000000000000e+00 0.0000000000000000e+00
158 0.0000000000000000e+00 0.0000000000000000e+00 0.0000000000000000e+00
159 0.0000000000000000e+00 0.0000000000000000e+00 0.0000000000000000e+00
160 0.0000000000000000e+00 0.0000000000000000e+00 0.0000000000000000e+00
161 0.0000000000000000e+00 0.0000000000000000e+00 0.0000000000000000e+00
162 0.0000000000000000e+00 0.0000000000000000e+00 0.0000000000000000e+00
163 0.0000000000000000e+00 0.0000000000000000e+00 0.0000000000000000e+00
165 0.0000000000000000e+00 0.0000000000000000e+00 0.0000000000000000e+00
166 0.0000000000000000e+00 0.0000000000000000e+00 0.0000000000000000e+00
167 0.0000000000000000e+00 0.0000000000000000e+00 0.0000000000000000e+00
189 0.0000000000000000e+00 0.0000000000000000e+00 0.0000000000000000e+00
230 0.0000000000000000e+00 0.0000000000000000e+00 0.0000000000000000e+00
253 0.0000000000000000e+00 0.0000000000000000e+00 0.0000000000000000e+00
256 0.0000000000000000e+00 0.0000000000000000e+00 0.0000000000000000e+00
257 0.0000000000000000e+00 0.0000000000000000e+00 0.0000000000000000e+00
260 0.0000000000000000e+00 0.0000000000000000e+00 0.0000000000000000e+00
261 0.0000000000000000e+00 0.0000000000000000e+00 0.0000000000000000e+00
264 0.0000000000000000e+00 0.0000000000000000e+00 0.0000000000000000e+00
265 0.0000000000000000e+00 0.0000000000000000e+00 0.0000000000000000e+00
272 0.0000000000000000e+00 0.0000000000000000e+00 0.0000000000000000e+00
297 0.0000000000000000e+00 0.0000000000000000e+00 0.0000000000000000e+00
300 0.0000000000000000e+00 0.0000000000000000e+00 0.0000000000000000e+00
301 0.0000000000000000e+00 0.0000000000000000e+00 0.0000000000000000e+00
304 0.0000000000000000e+00 0.0000000000000000e+00 0.0000000000000000e+00
305 0.0000000000000000e+00 0.0000000000000000e+00 0.0000000000000000e+00
309 0.0000000000000000e+00 0.0000000000000000e+00 0.0000000000000000e+00
47 0.0000000000000000e+00 0.0000000000000000e+00 0.0000000000000000e+00
49 0.0000000000000000e+00 0.0000000000000000e+00 0.0000000000000000e+00
58 0.0000000000000000e+00 0.0000000000000000e+00 0.0000000000000000e+00
59 0.0000000000000000e+00 0.0000000000000000e+00 0.0000000000000000e+00
60 0.0000000000000000e+00 0.0000000000000000e+00 0.0000000000000000e+00
61 0.0000000000000000e+00 0.0000000000000000e+00 0.0000000000000000e+00
62 0.0000000000000000e+00 0.0000000000000000e+00 0.0000000000000000e+00
63 0.0000000000000000e+00 0.0000000000000000e+00 0.0000000000000000e+00
64 0.0000000000000000e+00 0.0000000000000000e+00 0.0000000000000000e+00
65 0.0000000000000000e+00 0.0000000000000000e+00 0.0000000000000000e+00
66 0.0000000000000000e+00 0.0000000000000000e+00 0.0000000000000000e+00
67 0.0000000000000000e+00 0.0000000000000000e+00 0.0000000000000000e+00
69 0.0000000000000000e+00 0.0000000000000000e+00 0.0000000000000000e+00
70 0.0000000000000000e+00 0.0000000000000000e+00 0.0000000000000000e+00
71 0.0000000000000000e+00 0.0000000000000000e+00 0.0000000000000000e+00
72 0.0000000000000000e+00 0.0000000000000000e+00 0.0000000000000000e+00
164 0.0000000000000000e+00 0.0000000000000000e+00 0.0000000000000000e+00
168 0.0000000000000000e+00 0.0000000000000000e+00 0.0000000000000000e+00
170 0.0000000000000000e+00 0.0000000000000000e+00 0.0000000000000000e+00
172 0.0000000000000000e+00 0.0000000000000000e+00 0.0000000000000000e+00
174 0.0000000000000000e+00 0.0000000000000000e+00 0.0000000000000000e+00
190 0.0000000000000000e+00 0.0000000000000000e+00 0.0000000000000000e+00
191 0.0000000000000000e+00 0.0000000000000000e+00 0.0000000000000000e+00
192 0.0000000000000000e+00 0.0000000000000000e+00 0.0000000000000000e+00
193 0.0000000000000000e+00 0.0000000000000000e+00 0.0000000000000000e+00
194 0.0000000000000000e+00 0.0000000000000000e+00 0.0000000000000000e+00
195 0.0000000000000000e+00 0.0000000000000000e+00 0.0000000000000000e+00
196 0.0000000000000000e+00 0.0000000000000000e+00 0.0000000000000000e+00
197 0.0000000000000000e+00 0.0000000000000000e+00 0.0000000000000000e+00
198 0.0000000000000000e+00 0.0000000000000000e+00 0.0000000000000000e+00
199 0.0000000000000000e+00 0.0000000000000000e+00 0.0000000000000000e+00
200 0.0000000000000000e+00 0.0000000000000000e+00 0.0000000000000000e+00
201 0.0000000000000000e+00 0.0000000000000000e+00 0.0000000000000000e+00
202 0.0000000000000000e+00 0.0000000000000000e+00 0.0000000000000000e+00
203 0.0000000000000000e+00 0.0000000000000000e+00 0.0000000000000000e+00
204 0.0000000000000000e+00 0.0000000000000000e+00 0.0000000000000000e+00
205 0.0000000000000000e+00 0.0000000000000000e+00 0.0000000000000000e+00
206 0.0000000000000000e+00 0.0000000000000000e+00 0.0000000000000000e+00
207 0.0000000000000000e+00 0.0000000000000000e+00 0.0000000000000000e+00
208 0.0000000000000000e+00 0.0000000000000000e+00 0.0000000000000000e+00
210 0.0000000000000000e+00 0.0000000000000000e+00 0.0000000000000000e+00
211 0.0000000000000000e+00 0.0000000000000000e+00 0.0000000000000000e+00
212 0.0000000000000000e+00 0.0000000000000000e+00 0.0000000000000000e+00
213 0.0000000000000000e+00 0.0000000000000000e+00 0.0000000000000000e+00
214 0.0000000000000000e+00 0.0000000000000000e+00 0.0000000000000000e+00
215 0.0000000000000000e+00 0.0000000000000000e+00 0.0000000000000000e+00
216 0.0000000000000000e+00 0.0000000000000000e+00 0.0000000000000000e+00
308 0.0000000000000000e+00 0.0000000000000000e+00 0.0000000000000000e+00
312 0.0000000000000000e+00 0.0000000000000000e+00 0.0000000000000000e+00
316 0.0000000000000000e+00 0.0000000000000000e+00 0.0000000000000000e+00
335 0.0000000000000000e+00 0.0000000000000000e+00 0.0000000000000000e+00
338 0.0000000000000000e+00 0.0000000000000000e+00 0.0000000000000000e+00
339 0.0000000000000000e+00 0.0000000000000000e+00 0.0000000000000000e+00
342 0.0000000000000000e+00 0.0000000000000000e+00 0.0000000000000000e+00
343 0.0000000000000000e+00 0.0000000000000000e+00 0.0000000000000000e+00
346 0.0000000000000000e+00 0.0000000000000000e+00 0.0000000000000000e+00
347 0.0000000000000000e+00 0.0000000000000000e+00 0.0000000000000000e+00
350 0.0000000000000000e+00 0.0000000000000000e+00 0.0000000000000000e+00
351 0.0000000000000000e+00 0.0000000000000000e+00 0.0000000000000000e+00
354 0.0000000000000000e+00 0.0000000000000000e+00 0.0000000000000000e+00
357 0.0000000000000000e+00 0.0000000000000000e+00 0.0000000000000000e+00
360 0.0000000000000000e+00 0.0000000000000000e+00 0.0000000000000000e+00
218 0.0000000000000000e+00 0.0000000000000000e+00 0.0000000000000000e+00
219 0.0000000000000000e+00 0.0000000000000000e+00 0.0000000000000000e+00
222 0.0000000000000000e+00 0.0000000000000000e+00 0.0000000000000000e+00
225 0.0000000000000000e+00 0.0000000000000000e+00 0.0000000000000000e+00
229 0.0000000000000000e+00 0.0000000000000000e+00 0.0000000000000000e+00
232 0.0000000000000000e+00 0.0000000000000000e+00 0.0000000000000000e+00
233 0.0000000000000000e+00 0.0000000000000000e+00 0.0000000000000000e+00
236 0.0000000000000000e+00 0.0000000000000000e+00 0.0000000000000000e+00
237 0.0000000000000000e+00 0.0000000000000000e+00 0.0000000000000000e+00
240 0.0000000000000000e+00 0.0000000000000000e+00 0.0000000000000000e+00
241 0.0000000000000000e+00 0.0000000000000000e+00 0.0000000000000000e+00
244 0.0000000000000000e+00 0.0000000000000000e+00 0.0000000000000000e+00
245 0.0000000000000000e+00 0.0000000000000000e+00 0.0000000000000000e+00
248 0.0000000000000000e+00 0.0000000000000000e+00 0.0000000000000000e+00
267 0.0000000000000000e+00 0.0000000000000000e+00 0.0000000000000000e+00
271 0.0000000000000000e+00 0.0000000000000000e+00 0.0000000000000000e+00
274 0.0000000000000000e+00 0.0000000000000000e+00 0.0000000000000000e+00
275 0.0000000000000000e+00 0.0000000000000000e+00 0.0000000000000000e+00
279 0.0000000000000000e+00 0.0000000000000000e+00 0.0000000000000000e+00
361 0.0000000000000000e+00 0.0000000000000000e+00 0.0000000000000000e+00
362 0.0000000000000000e+00 0.0000000000000000e+00 0.0000000000000000e+00
363 0.0000000000000000e+00 0.0000000000000000e+00 0.0000000000000000e+00
364 0.0000000000000000e+00 0.0000000000000000e+00 0.0000000000000000e+00
365 0.0000000000000000e+00 0.0000000000000000e+00 0.0000000000000000e+00
366 0.0000000000000000e+00 0.0000000000000000e+00 0.0000000000000000e+00
367 0.0000000000000000e+00 0.0000000000000000e+00 0.0000000000000000e+00
368 0.0000000000000000e+00 0.0000000000000000e+00 0.0000000000000000e+00
369 0.0000000000000000e+00 0.0000000000000000e+00 0.0000000000000000e+00
370 0.0000000000000000e+00 0.0000000000000000e+00 0.0000000000000000e+00
371 0.0000000000000000e+00 0.0000000000000000e+00 0.0000000000000000e+00
373 0.0000000000000000e+00 0.0000000000000000e+00 0.0000000000000000e+00
375 0.0000000000000000e+00 0.0000000000000000e+00 0.0000000000000000e+00
376 0.0000000000000000e+00 0.0000000000000000e+00 0.0000000000000000e+00
377 0.0000000000000000e+00 0.0000000000000000e+00 0.0000000000000000e+00
378 0.0000000000000000e+00 0.0000000000000000e+00 0.0000000000000000e+00
379 0.0000000000000000e+00 0.0000000000000000e+00 0.0000000000000000e+00
380 0.0000000000000000e+00 0.0000000000000000e+00 0.0000000000000000e+00
381 0.0000000000000000e+00 0.0000000000000000e+00 0.0000000000000000e+00
382 0.0000000000000000e+00 0.0000000000000000e+00 0.0000000000000000e+00
383 0.0000000000000000e+00 0.0000000000000000e+00 0.0000000000000000e+00
384 0.0000000000000000e+00 0.0000000000000000e+00 0.0000000000000000e+00
385 0.0000000000000000e+00 0.0000000000000000e+00 0.0000000000000000e+00
386 0.0000000000000000e+00 0.0000000000000000e+00 0.0000000000000000e+00
387 0.0000000000000000e+00 0.0000000000000000e+00 0.0000000000000000e+00
388 0.0000000000000000e+00 0.0000000000000000e+00 0.0000000000000000e+00
389 0.0000000000000000e+00 0.0000000000000000e+00 0.0000000000000000e+00
390 0.0000000000000000e+00 0.0000000000000000e+00 0.0000000000000000e+00
391 0.0000000000000000e+00 0.0000000000000000e+00 0.0000000000000000e+00
392 0.0000000000000000e+00 0.0000000000000000e+00 0.0000000000000000e+00
393 0.0000000000000000e+00 0.0000000000000000e+00 0.0000000000000000e+00
394 0.0000000000000000e+00 0.0000000000000000e+00 0.0000000000000000e+00
411 0.0000000000000000e+00 0.0000000000000000e+00 0.0000000000000000e+00
412 0.0000000000000000e+00 0.0000000000000000e+00 0.0000000000000000e+00
413 0.0000000000000000e+00 0.0000000000000000e+00 0.0000000000000000e+00
415 0.0000000000000000e+00 0.0000000000000000e+00 0.0000000000000000e+00
417 0.0000000000000000e+00 0.0000000000000000e+00 0.0000000000000000e+00
418 0.0000000000000000e+00 0.0000000000000000e+00 0.0000000000000000e+00
419 0.0000000000000000e+00 0.0000000000000000e+00 0.0000000000000000e+00
420 0.0000000000000000e+00 0.0000000000000000e+00 0.0000000000000000e+00
421 0.0000000000000000e+00 0.0000000000000000e+00 0.0000000000000000e+00
423 0.0000000000000000e+00 0.0000000000000000e+00 0.0000000000000000e+00
457 0.0000000000000000e+00 0.0000000000000000e+00 0.0000000000000000e+00
505 0.0000000000000000e+00 0.0000000000000000e+00 0.0000000000000000e+00
509 0.0000000000000000e+00 0.0000000000000000e+00 0.0000000000000000e+00
511 0.0000000000000000e+00 0.0000000000000000e+00 0.0000000000000000e+00
515 0.0000000000000000e+00 0.0000000000000000e+00 0.0000000000000000e+00
519 0.0000000000000000e+00 0.0000000000000000e+00 0.0000000000000000e+00
522 0.0000000000000000e+00 0.0000000000000000e+00 0.0000000000000000e+00
527 0.0000000000000000e+00 0.0000000000000000e+00 0.0000000000000000e+00
530 0.0000000000000000e+00 0.0000000000000000e+00 0.0000000000000000e+00
535 0.0000000000000000e+00 0.0000000000000000e+00 0.0000000000000000e+00
537 0.0000000000000000e+00 0.0000000000000000e+00 0.0000000000000000e+00
556 0.0000000000000000e+00 0.0000000000000000e+00 0.0000000000000000e+00
561 0.0000000000000000e+00 0.0000000000000000e+00 0.0000000000000000e+00
564 0.0000000000000000e+00 0.0000000000000000e+00 0.0000000000000000e+00
601 0.0000000000000000e+00 0.0000000000000000e+00 0.0000000000000000e+00
251 0.0000000000000000e+00 0.0000000000000000e+00 0.0000000000000000e+00
278 0.0000000000000000e+00 0.0000000000000000e+00 0.0000000000000000e+00
282 0.0000000000000000e+00 0.0000000000000000e+00 0.0000000000000000e+00
283 0.0000000000000000e+00 0.0000000000000000e+00 0.0000000000000000e+00
286 0.0000000000000000e+00 0.0000000000000000e+00 0.0000000000000000e+00
287 0.0000000000000000e+00 0.0000000000000000e+00 0.0000000000000000e+00
290 0.0000000000000000e+00 0.0000000000000000e+00 0.0000000000000000e+00
293 0.0000000000000000e+00 0.0000000000000000e+00 0.0000000000000000e+00
315 0.0000000000000000e+00 0.0000000000000000e+00 0.0000000000000000e+00
319 0.0000000000000000e+00 0.0000000000000000e+00 0.0000000000000000e+00
322 0.0000000000000000e+00 0.0000000000000000e+00 0.0000000000000000e+00
323 0.0000000000000000e+00 0.0000000000000000e+00 0.0000000000000000e+00
326 0.0000000000000000e+00 0.0000000000000000e+00 0.0000000000000000e+00
327 0.0000000000000000e+00 0.0000000000000000e+00 0.0000000000000000e+00
330 0.0000000000000000e+00 0.0000000000000000e+00 0.0000000000000000e+00
331 0.0000000000000000e+00 0.0000000000000000e+00 0.0000000000000000e+00
353 0.0000000000000000e+00 0.0000000000000000e+00 0.0000000000000000e+00
395 0.0000000000000000e+00 0.0000000000000000e+00 0.0000000000000000e+00
396 0.0000000000000000e+00 0.0000000000000000e+00 0.0000000000000000e+00
422 0.0000000000000000e+00 0.0000000000000000e+00 0.0000000000000000e+00
424 0.0000000000000000e+00 0.0000000000000000e+00 0.0000000000000000e+00
425 0.0000000000000000e+00 0.0000000000000000e+00 0.0000000000000000e+00
426 0.0000000000000000e+00 0.0000000000000000e+00 0.0000000000000000e+00
427 0.0000000000000000e+00 0.0000000000000000e+00 0.0000000000000000e+00
428 0.0000000000000000e+00 0.0000000000000000e+00 0.0000000000000000e+00
429 0.0000000000000000e+00 0.0000000000000000e+00 0.0000000000000000e+00
430 0.0000000000000000e+00 0.0000000000000000e+00 0.0000000000000000e+00
431 0.0000000000000000e+00 0.0000000000000000e+00 0.0000000000000000e+00
432 0.0000000000000000e+00 0.0000000000000000e+00 0.0000000000000000e+00
433 0.0000000000000000e+00 0.0000000000000000e+00 0.0000000000000000e+00
434 0.0000000000000000e+00 0.0000000000000000e+00 0.0000000000000000e+00
435 0.0000000000000000e+00 0.0000000000000000e+00 0.0000000000000000e+00
436 0.0000000000000000e+00 0.0000000000000000e+00 0.0000000000000000e+00
437 0.0000000000000000e+00 0.0000000000000000e+00 0.0000000000000000e+00
438 0.0000000000000000e+00 0.0000000000000000e+00 0.0000000000000000e+00
459 0.0000000000000000e+00 0.0000000000000000e+00 0.0000000000000000e+00
461 0.0000000000000000e+00 0.0000000000000000e+00 0.0000000000000000e+00
463 0.0000000000000000e+00 0.0000000000000000e+00 0.0000000000000000e+00
464 0.0000000000000000e+00 0.0000000000000000e+00 0.0000000000000000e+00
465 0.0000000000000000e+00 0.0000000000000000e+00 0.0000000000000000e+00
466 0.0000000000000000e+00 0.0000000000000000e+00 0.0000000000000000e+00
467 0.0000000000000000e+00 0.0000000000000000e+00 0.0000000000000000e+00
468 0.0000000000000000e+00 0.0000000000000000e+00 0.0000000000000000e+00
469 0.0000000000000000e+00 0.0000000000000000e+00 0.0000000000000000e+00
470 0.0000000000000000e+00 0.0000000000000000e+00 0.0000000000000000e+00
471 0.0000000000000000e+00 0.0000000000000000e+00 0.0000000000000000e+00
472 0.0000000000000000e+00 0.0000000000000000e+00 0.0000000000000000e+00
473 0.0000000000000000e+00 0.0000000000000000e+00 0.0000000000000000e+00
474 0.0000000000000000e+00 0.0000000000000000e+00 0.0000000000000000e+00
475 0.0000000000000000e+00 0.0000000000000000e+00 0.0000000000000000e+00
476 0.0000000000000000e+00 0.0000000000000000e+00 0.0000000000000000e+00
497 0.0000000000000000e+00 0.0000000000000000e+00 0.0000000000000000e+00
569 0.0000000000000000e+00 0.0000000000000000e+00 0.0000000000000000e+00
572 0.0000000000000000e+00 0.0000000000000000e+00 0.0000000000000000e+00
577 0.0000000000000000e+00 0.0000000000000000e+00 0.0000000000000000e+00
579 0.0000000000000000e+00 0.0000000000000000e+00 0.0000000000000000e+00
609 0.0000000000000000e+00 0.0000000000000000e+00 0.0000000000000000e+00
612 0.0000000000000000e+00 0.0000000000000000e+00 0.0000000000000000e+00
617 0.0000000000000000e+00 0.0000000000000000e+00 0.0000000000000000e+00
228 0.0000000000000000e+00 0.0000000000000000e+00 0.0000000000000000e+00
254 0.0000000000000000e+00 0.0000000000000000e+00 0.0000000000000000e+00
255 0.0000000000000000e+00 0.0000000000000000e+00 0.0000000000000000e+00
258 0.0000000000000000e+00 0.0000000000000000e+00 0.0000000000000000e+00
259 0.0000000000000000e+00 0.0000000000000000e+00 0.0000000000000000e+00
262 0.0000000000000000e+00 0.0000000000000000e+00 0.0000000000000000e+00
263 0.0000000000000000e+00 0.0000000000000000e+00 0.0000000000000000e+00
266 0.0000000000000000e+00 0.0000000000000000e+00 0.0000000000000000e+00
270 0.0000000000000000e+00 0.0000000000000000e+00 0.0000000000000000e+00
295 0.0000000000000000e+00 0.0000000000000000e+00 0.0000000000000000e+00
296 0.0000000000000000e+00 0.0000000000000000e+00 0.0000000000000000e+00
298 0.0000000000000000e+00 0.0000000000000000e+00 0.0000000000000000e+00
299 0.0000000000000000e+00 0.0000000000000000e+00 0.0000000000000000e+00
302 0.0000000000000000e+00 0.0000000000000000e+00 0.0000000000000000e+00
303 0.0000000000000000e+00 0.0000000000000000e+00 0.0000000000000000e+00
306 0.0000000000000000e+00 0.0000000000000000e+00 0.0000000000000000e+00
307 0.0000000000000000e+00 0.0000000000000000e+00 0.0000000000000000e+00
310 0.0000000000000000e+00 0.0000000000000000e+00 0.0000000000000000e+00
311 0.0000000000000000e+00 0.0000000000000000e+00 0.0000000000000000e+00
333 0.0000000000000000e+00 0.0000000000000000e+00 0.0000000000000000e+00
372 0.0000000000000000e+00 0.0000000000000000e+00 0.0000000000000000e+00
374 0.0000000000000000e+00 0.0000000000000000e+00 0.0000000000000000e+00
397 0.0000000000000000e+00 0.0000000000000000e+00 0.0000000000000000e+00
398 0.0000000000000000e+00 0.0000000000000000e+00 0.0000000000000000e+00
399 0.0000000000000000e+00 0.0000000000000000e+00 0.0000000000000000e+00
400 0.0000000000000000e+00 0.0000000000000000e+00 0.0000000000000000e+00
401 0.0000000000000000e+00 0.0000000000000000e+00 0.0000000000000000e+00
402 0.0000000000000000e+00 0.0000000000000000e+00 0.0000000000000000e+00
403 0.0000000000000000e+00 0.0000000000000000e+00 0.0000000000000000e+00
404 0.0000000000000000e+00 0.0000000000000000e+00 0.0000000000000000e+00
405 0.0000000000000000e+00 0.0000000000000000e+00 0.0000000000000000e+00
406 0.0000000000000000e+00 0.0000000000000000e+00 0.0000000000000000e+00
407 0.0000000000000000e+00 0.0000000000000000e+00 0.0000000000000000e+00
408 0.0000000000000000e+00 0.0000000000000000e+00 0.0000000000000000e+00
409 0.0000000000000000e+00 0.0000000000000000e+00 0.0000000000000000e+00
410 0.0000000000000000e+00 0.0000000000000000e+00 0.0000000000000000e+00
414 0.0000000000000000e+00 0.0000000000000000e+00 0.0000000000000000e+00
416 0.0000000000000000e+00 0.0000000000000000e+00 0.0000000000000000e+00
439 0.0000000000000000e+00 0.0000000000000000e+00 0.0000000000000000e+00
440 0.0000000000000000e+00 0.0000000000000000e+00 0.0000000000000000e+00
441 0.0000000000000000e+00 0.0000000000000000e+00 0.0000000000000000e+00
442 0.0000000000000000e+00 0.0000000000000000e+00 0.0000000000000000e+00
443 0.0000000000000000e+00 0.0000000000000000e+00 0.0000000000000000e+00
444 0.0000000000000000e+00 0.0000000000000000e+00 0.0000000000000000e+00
445 0.0000000000000000e+00 0.0000000000000000e+00 0.0000000000000000e+00
446 0.0000000000000000e+00 0.0000000000000000e+00 0.0000000000000000e+00
447 0.0000000000000000e+00 0.0000000000000000e+00 0.0000000000000000e+00
448 0.0000000000000000e+00 0.0000000000000000e+00 0.0000000000000000e+00
449 0.0000000000000000e+00 0.0000000000000000e+00 0.0000000000000000e+00
450 0.0000000000000000e+00 0.0000000000000000e+00 0.0000000000000000e+00
451 0.0000000000000000e+00 0.0000000000000000e+00 0.0000000000000000e+00
453 0.0000000000000000e+00 0.0000000000000000e+00 0.0000000000000000e+00
454 0.0000000000000000e+00 0.0000000000000000e+00 0.0000000000000000e+00
455 0.0000000000000000e+00 0.0000000000000000e+00 0.0000000000000000e+00
477 0.0000000000000000e+00 0.0000000000000000e+00 0.0000000000000000e+00
541 0.0000000000000000e+00 0.0000000000000000e+00 0.0000000000000000e+00
545 0.0000000000000000e+00 0.0000000000000000e+00 0.0000000000000000e+00
548 0.0000000000000000e+00 0.0000000000000000e+00 0.0000000000000000e+00
553 0.0000000000000000e+00 0.0000000000000000e+00 0.0000000000000000e+00
585 0.0000000000000000e+00 0.0000000000000000e+00 0.0000000000000000e+00
588 0.0000000000000000e+00 0.0000000000000000e+00 0.0000000000000000e+00
593 0.0000000000000000e+00 0.0000000000000000e+00 0.0000000000000000e+00
314 0.0000000000000000e+00 0.0000000000000000e+00 0.0000000000000000e+00
318 0.0000000000000000e+00 0.0000000000000000e+00 0.0000000000000000e+00
334 0.0000000000000000e+00 0.0000000000000000e+00 0.0000000000000000e+00
336 0.0000000000000000e+00 0.0000000000000000e+00 0.0000000000000000e+00
337 0.0000000000000000e+00 0.0000000000000000e+00 0.0000000000000000e+00
340 0.0000000000000000e+00 0.0000000000000000e+00 0.0000000000000000e+00
341 0.0000000000000000e+00 0.0000000000000000e+00 0.0000000000000000e+00
344 0.0000000000000000e+00 0.0000000000000000e+00 0.0000000000000000e+00
345 0.0000000000000000e+00 0.0000000000000000e+00 0.0000000000000000e+00
348 0.0000000000000000e+00 0.0000000000000000e+00 0.0000000000000000e+00
349 0.0000000000000000e+00 0.0000000000000000e+00 0.0000000000000000e+00
352 0.0000000000000000e+00 0.0000000000000000e+00 0.0000000000000000e+00
355 0.0000000000000000e+00 0.0000000000000000e+00 0.0000000000000000e+00
356 0.0000000000000000e+00 0.0000000000000000e+00 0.0000000000000000e+00
358 0.0000000000000000e+00 0.0000000000000000e+00 0.0000000000000000e+00
359 0.0000000000000000e+00 0.0000000000000000e+00 0.0000000000000000e+00
452 0.0000000000000000e+00 0.0000000000000000e+00 0.0000000000000000e+00
456 0.0000000000000000e+00 0.0000000000000000e+00 0.0000000000000000e+00
458 0.0000000000000000e+00 0.0000000000000000e+00 0.0000000000000000e+00
460 0.0000000000000000e+00 0.0000000000000000e+00 0.0000000000000000e+00
462 0.0000000000000000e+00 0.0000000000000000e+00 0.0000000000000000e+00
478 0.0000000000000000e+00 0.0000000000000000e+00 0.0000000000000000e+00
479 0.0000000000000000e+00 0.0000000000000000e+00 0.0000000000000000e+00
480 0.0000000000000000e+00 0.0000000000000000e+00 0.0000000000000000e+00
481 0.0000000000000000e+00 0.0000000000000000e+00 0.0000000000000000e+00
482 0.0000000000000000e+00 0.0000000000000000e+00 0.0000000000000000e+00
483 0.0000000000000000e+00 0.0000000000000000e+00 0.0000000000000000e+00
484 0.0000000000000000e+00 0.0000000000000000e+00 0.0000000000000000e+00
485 0.0000000000000000e+00 0.0000000000000000e+00 0.0000000000000000e+00
486 0.0000000000000000e+00 0.0000000000000000e+00 0.0000000000000000e+00
487 0.0000000000000000e+00 0.0000000000000000e+00 0.0000000000000000e+00
488 0.0000000000000000e+00 0.0000000000000000e+00 0.0000000000000000e+00
489 0.0000000000000000e+00 0.0000000000000000e+00 0.0000000000000000e+00
490 0.0000000000000000e+00 0.0000000000000000e+00 0.0000000000000000e+00
491 0.0000000000000000e+00 0.0000000000000000e+00 0.0000000000000000e+00
492 0.0000000000000000e+00 0.0000000000000000e+00 0.0000000000000000e+00
493 0.0000000000000000e+00 0.0000000000000000e+00 0.0000000000000000e+00
494 0.0000000000000000e+00 0.0000000000000000e+00 0.0000000000000000e+00
495 0.0000000000000000e+00 0.0000000000000000e+00 0.0000000000000000e+00
496 0.0000000000000000e+00 0.0000000000000000e+00 0.0000000000000000e+00
498 0.0000000000000000e+00 0.0000000000000000e+00 0.0000000000000000e+00
499 0.0000000000000000e+00 0.0000000000000000e+00 0.0000000000000000e+00
500 0.0000000000000000e+00 0.0000000000000000e+00 0.0000000000000000e+00
501 0.0000000000000000e+00 0.0000000000000000e+00 0.0000000000000000e+00
502 0.0000000000000000e+00 0.0000000000000000e+00 0.0000000000000000e+00
503 0.0000000000000000e+00 0.0000000000000000e+00 0.0000000000000000e+00
504 0.0000000000000000e+00 0.0000000000000000e+00 0.0000000000000000e+00
596 0.0000000000000000e+00 0.0000000000000000e+00 0.0000000000000000e+00
604 0.0000000000000000e+00 0.0000000000000000e+00 0.0000000000000000e+00
623 0.0000000000000000e+00 0.0000000000000000e+00 0.0000000000000000e+00
626 0.0000000000000000e+00 0.0000000000000000e+00 0.0000000000000000e+00
631 0.0000000000000000e+00 0.0000000000000000e+00 0.0000000000000000e+00
634 0.0000000000000000e+00 0.0000000000000000e+00 0.0000000000000000e+00
639 0.0000000000000000e+00 0.0000000000000000e+00 0.0000000000000000e+00
645 0.0000000000000000e+00 0.0000000000000000e+00 0.0000000000000000e+00
506 0.0000000000000000e+00 0.0000000000000000e+00 0.0000000000000000e+00
507 0.0000000000000000e+00 0.0000000000000000e+00 0.0000000000000000e+00
508 0.0000000000000000e+00 0.0000000000000000e+00 0.0000000000000000e+00
510 0.0000000000000000e+00 0.0000000000000000e+00 0.0000000000000000e+00
512 0.0000000000000000e+00 0.0000000000000000e+00 0.0000000000000000e+00
513 0.0000000000000000e+00 0.0000000000000000e+00 0.0000000000000000e+00
514 0.0000000000000000e+00 0.0000000000000000e+00 0.0000000000000000e+00
517 0.0000000000000000e+00 0.0000000000000000e+00 0.0000000000000000e+00
520 0.0000000000000000e+00 0.0000000000000000e+00 0.0000000000000000e+00
521 0.0000000000000000e+00 0.0000000000000000e+00 0.0000000000000000e+00
523 0.0000000000000000e+00 0.0000000000000000e+00 0.0000000000000000e+00
524 0.0000000000000000e+00 0.0000000000000000e+00 0.0000000000000000e+00
525 0.0000000000000000e+00 0.0000000000000000e+00 0.0000000000000000e+00
526 0.0000000000000000e+00 0.0000000000000000e+00 0.0000000000000000e+00
528 0.0000000000000000e+00 0.0000000000000000e+00 0.0000000000000000e+00
529 0.0000000000000000e+00 0.0000000000000000e+00 0.0000000000000000e+00
531 0.0000000000000000e+00 0.0000000000000000e+00 0.0000000000000000e+00
532 0.0000000000000000e+00 0.0000000000000000e+00 0.0000000000000000e+00
533 0.0000000000000000e+00 0.0000000000000000e+00 0.0000000000000000e+00
534 0.0000000000000000e+00 0.0000000000000000e+00 0.0000000000000000e+00
536 0.0000000000000000e+00 0.0000000000000000e+00 0.0000000000000000e+00
538 0.0000000000000000e+00 0.0000000000000000e+00 0.0000000000000000e+00
555 0.0000000000000000e+00 0.0000000000000000e+00 0.0000000000000000e+00
557 0.0000000000000000e+00 0.0000000000000000e+00 0.0000000000000000e+00
559 0.0000000000000000e+00 0.0000000000000000e+00 0.0000000000000000e+00
562 0.0000000000000000e+00 0.0000000000000000e+00 0.0000000000000000e+00
563 0.0000000000000000e+00 0.0000000000000000e+00 0.0000000000000000e+00
565 0.0000000000000000e+00 0.0000000000000000e+00 0.0000000000000000e+00
567 0.0000000000000000e+00 0.0000000000000000e+00 0.0000000000000000e+00
649 0.0000000000000000e+00 0.0000000000000000e+00 0.0000000000000000e+00
650 0.0000000000000000e+00 0.0000000000000000e+00 0.0000000000000000e+00
651 0.0000000000000000e+00 0.0000000000000000e+00 0.0000000000000000e+00
652 0.0000000000000000e+00 0.0000000000000000e+00 0.0000000000000000e+00
653 0.0000000000000000e+00 0.0000000000000000e+00 0.0000000000000000e+00
654 0.0000000000000000e+00 0.0000000000000000e+00 0.0000000000000000e+00
655 0.0000000000000000e+00 0.0000000000000000e+00 0.0000000000000000e+00
656 0.0000000000000000e+00 0.0000000000000000e+00 0.0000000000000000e+00
657 0.0000000000000000e+00 0.0000000000000000e+00 0.0000000000000000e+00
658 0.0000000000000000e+00 0.0000000000000000e+00 0.0000000000000000e+00
663 0.0000000000000000e+00 0.0000000000000000e+00 0.0000000000000000e+00
664 0.0000000000000000e+00 0.0000000000000000e+00 0.0000000000000000e+00
665 0.0000000000000000e+00 0.0000000000000000e+00 0.0000000000000000e+00
674 0.0000000000000000e+00 0.0000000000000000e+00 0.0000000000000000e+00
687 0.0000000000000000e+00 0.0000000000000000e+00 0.0000000000000000e+00
690 0.0000000000000000e+00 0.0000000000000000e+00 0.0000000000000000e+00
691 0.0000000000000000e+00 0.0000000000000000e+00 0.0000000000000000e+00
692 0.0000000000000000e+00 0.0000000000000000e+00 0.0000000000000000e+00
693 0.0000000000000000e+00 0.0000000000000000e+00 0.0000000000000000e+00
694 0.0000000000000000e+00 0.0000000000000000e+00 0.0000000000000000e+00
699 0.0000000000000000e+00 0.0000000000000000e+00 0.0000000000000000e+00
700 0.0000000000000000e+00 0.0000000000000000e+00 0.0000000000000000e+00
701 0.0000000000000000e+00 0.0000000000000000e+00 0.0000000000000000e+00
702 0.0000000000000000e+00 0.0000000000000000e+00 0.0000000000000000e+00
710 0.0000000000000000e+00 0.0000000000000000e+00 0.0000000000000000e+00
539 0.0000000000000000e+00 0.0000000000000000e+00 0.0000000000000000e+00
540 0.0000000000000000e+00 0.0000000000000000e+00 0.0000000000000000e+00
566 0.0000000000000000e+00 0.0000000000000000e+00 0.0000000000000000e+00
568 0.0000000000000000e+00 0.0000000000000000e+00 0.0000000000000000e+00
570 0.0000000000000000e+00 0.0000000000000000e+00 0.0000000000000000e+00
571 0.0000000000000000e+00 0.0000000000000000e+00 0.0000000000000000e+00
573 0.0000000000000000e+00 0.0000000000000000e+00 0.0000000000000000e+00
574 0.0000000000000000e+00 0.0000000000000000e+00 0.0000000000000000e+00
575 0.0000000000000000e+00 0.0000000000000000e+00 0.0000000000000000e+00
576 0.0000000000000000e+00 0.0000000000000000e+00 0.0000000000000000e+00
578 0.0000000000000000e+00 0.0000000000000000e+00 0.0000000000000000e+00
580 0.0000000000000000e+00 0.0000000000000000e+00 0.0000000000000000e+00
581 0.0000000000000000e+00 0.0000000000000000e+00 0.0000000000000000e+00
582 0.0000000000000000e+00 0.0000000000000000e+00 0.0000000000000000e+00
603 0.0000000000000000e+00 0.0000000000000000e+00 0.0000000000000000e+00
605 0.0000000000000000e+00 0.0000000000000000e+00 0.0000000000000000e+00
607 0.0000000000000000e+00 0.0000000000000000e+00 0.0000000000000000e+00
608 0.0000000000000000e+00 0.0000000000000000e+00 0.0000000000000000e+00
610 0.0000000000000000e+00 0.0000000000000000e+00 0.0000000000000000e+00
611 0.0000000000000000e+00 0.0000000000000000e+00 0.0000000000000000e+00
613 0.0000000000000000e+00 0.0000000000000000e+00 0.0000000000000000e+00
614 0.0000000000000000e+00 0.0000000000000000e+00 0.0000000000000000e+00
615 0.0000000000000000e+00 0.0000000000000000e+00 0.0000000000000000e+00
616 0.0000000000000000e+00 0.0000000000000000e+00 0.0000000000000000e+00
618 0.0000000000000000e+00 0.0000000000000000e+00 0.0000000000000000e+00
619 0.0000000000000000e+00 0.0000000000000000e+00 0.0000000000000000e+00
620 0.0000000000000000e+00 0.0000000000000000e+00 0.0000000000000000e+00
641 0.0000000000000000e+00 0.0000000000000000e+00 0.0000000000000000e+00
666 0.0000000000000000e+00 0.0000000000000000e+00 0.0000000000000000e+00
667 0.0000000000000000e+00 0.0000000000000000e+00 0.0000000000000000e+00
668 0.0000000000000000e+00 0.0000000000000000e+00 0.0000000000000000e+00
669 0.0000000000000000e+00 0.0000000000000000e+00 0.0000000000000000e+00
676 0.0000000000000000e+00 0.0000000000000000e+00 0.0000000000000000e+00
677 0.0000000000000000e+00 0.0000000000000000e+00 0.0000000000000000e+00
678 0.0000000000000000e+00 0.0000000000000000e+00 0.0000000000000000e+00
685 0.0000000000000000e+00 0.0000000000000000e+00 0.0000000000000000e+00
686 0.0000000000000000e+00 0.0000000000000000e+00 0.0000000000000000e+00
688 0.0000000000000000e+00 0.0000000000000000e+00 0.0000000000000000e+00
689 0.0000000000000000e+00 0.0000000000000000e+00 0.0000000000000000e+00
703 0.0000000000000000e+00 0.0000000000000000e+00 0.0000000000000000e+00
704 0.0000000000000000e+00 0.0000000000000000e+00 0.0000000000000000e+00
705 0.0000000000000000e+00 0.0000000000000000e+00 0.0000000000000000e+00
712 0.0000000000000000e+00 0.0000000000000000e+00 0.0000000000000000e+00
713 0.0000000000000000e+00 0.0000000000000000e+00 0.0000000000000000e+00
714 0.0000000000000000e+00 0.0000000000000000e+00 0.0000000000000000e+00
516 0.0000000000000000e+00 0.0000000000000000e+00 0.0000000000000000e+00
518 0.0000000000000000e+00 0.0000000000000000e+00 0.0000000000000000e+00
542 0.0000000000000000e+00 0.0000000000000000e+00 0.0000000000000000e+00
543 0.0000000000000000e+00 0.0000000000000000e+00 0.0000000000000000e+00
544 0.0000000000000000e+00 0.0000000000000000e+00 0.0000000000000000e+00
546 0.0000000000000000e+00 0.0000000000000000e+00 0.0000000000000000e+00
547 0.0000000000000000e+00 0.0000000000000000e+00 0.0000000000000000e+00
549 0.0000000000000000e+00 0.0000000000000000e+00 0.0000000000000000e+00
550 0.0000000000000000e+00 0.0000000000000000e+00 0.0000000000000000e+00
551 0.0000000000000000e+00 0.0000000000000000e+00 0.0000000000000000e+00
552 0.0000000000000000e+00 0.0000000000000000e+00 0.0000000000000000e+00
554 0.0000000000000000e+00 0.0000000000000000e+00 0.0000000000000000e+00
558 0.0000000000000000e+00 0.0000000000000000e+00 0.0000000000000000e+00
560 0.0000000000000000e+00 0.0000000000000000e+00 0.0000000000000000e+00
583 0.0000000000000000e+00 0.0000000000000000e+00 0.0000000000000000e+00
584 0.0000000000000000e+00 0.0000000000000000e+00 0.0000000000000000e+00
586 0.0000000000000000e+00 0.0000000000000000e+00 0.0000000000000000e+00
587 0.0000000000000000e+00 0.0000000000000000e+00 0.0000000000000000e+00
589 0.0000000000000000e+00 0.0000000000000000e+00 0.0000000000000000e+00
590 0.0000000000000000e+00 0.0000000000000000e+00 0.0000000000000000e+00
591 0.0000000000000000e+00 0.0000000000000000e+00 0.0000000000000000e+00
592 0.0000000000000000e+00 0.0000000000000000e+00 0.0000000000000000e+00
594 0.0000000000000000e+00 0.0000000000000000e+00 0.0000000000000000e+00
595 0.0000000000000000e+00 0.0000000000000000e+00 0.0000000000000000e+00
597 0.0000000000000000e+00 0.0000000000000000e+00 0.0000000000000000e+00
598 0.0000000000000000e+00 0.0000000000000000e+00 0.0000000000000000e+00
599 0.0000000000000000e+00 0.0000000000000000e+00 0.0000000000000000e+00
621 0.0000000000000000e+00 0.0000000000000000e+00 0.0000000000000000e+00
659 0.0000000000000000e+00 0.0000000000000000e+00 0.0000000000000000e+00
660 0.0000000000000000e+00 0.0000000000000000e+00 0.0000000000000000e+00
661 0.0000000000000000e+00 0.0000000000000000e+00 0.0000000000000000e+00
662 0.0000000000000000e+00 0.0000000000000000e+00 0.0000000000000000e+00
670 0.0000000000000000e+00 0.0000000000000000e+00 0.0000000000000000e+00
671 0.0000000000000000e+00 0.0000000000000000e+00 0.0000000000000000e+00
672 0.0000000000000000e+00 0.0000000000000000e+00 0.0000000000000000e+00
697 0.0000000000000000e+00 0.0000000000000000e+00 0.0000000000000000e+00
698 0.0000000000000000e+00 0.0000000000000000e+00 0.0000000000000000e+00
706 0.0000000000000000e+00 0.0000000000000000e+00 0.0000000000000000e+00
707 0.0000000000000000e+00 0.0000000000000000e+00 0.0000000000000000e+00
708 0.0000000000000000e+00 0.0000000000000000e+00 0.0000000000000000e+00
709 0.0000000000000000e+00 0.0000000000000000e+00 0.0000000000000000e+00
715 0.0000000000000000e+00 0.0000000000000000e+00 0.0000000000000000e+00
600 0.0000000000000000e+00 0.0000000000000000e+00 0.0000000000000000e+00
602 0.0000000000000000e+00 0.0000000000000000e+00 0.0000000000000000e+00
606 0.0000000000000000e+00 0.0000000000000000e+00 0.0000000000000000e+00
622 0.0000000000000000e+00 0.0000000000000000e+00 0.0000000000000000e+00
624 0.0000000000000000e+00 0.0000000000000000e+00 0.0000000000000000e+00
625 0.0000000000000000e+00 0.0000000000000000e+00 0.0000000000000000e+00
627 0.0000000000000000e+00 0.0000000000000000e+00 0.0000000000000000e+00
628 0.0000000000000000e+00 0.0000000000000000e+00 0.0000000000000000e+00
629 0.0000000000000000e+00 0.0000000000000000e+00 0.0000000000000000e+00
630 0.0000000000000000e+00 0.0000000000000000e+00 0.0000000000000000e+00
632 0.0000000000000000e+00 0.0000000000000000e+00 0.0000000000000000e+00
633 0.0000000000000000e+00 0.0000000000000000e+00 0.0000000000000000e+00
635 0.0000000000000000e+00 0.0000000000000000e+00 0.0000000000000000e+00
636 0.0000000000000000e+00 0.0000000000000000e+00 0.0000000000000000e+00
637 0.0000000000000000e+00 0.0000000000000000e+00 0.0000000000000000e+00
638 0.0000000000000000e+00 0.0000000000000000e+00 0.0000000000000000e+00
640 0.0000000000000000e+00 0.0000000000000000e+00 0.0000000000000000e+00
642 0.0000000000000000e+00 0.0000000000000000e+00 0.0000000000000000e+00
643 0.0000000000000000e+00 0.0000000000000000e+00 0.0000000000000000e+00
644 0.0000000000000000e+00 0.0000000000000000e+00 0.0000000000000000e+00
646 0.0000000000000000e+00 0.0000000000000000e+00 0.0000000000000000e+00
647 0.0000000000000000e+00 0.0000000000000000e+00 0.0000000000000000e+00
648 0.0000000000000000e+00 0.0000000000000000e+00 0.0000000000000000e+00
673 0.0000000000000000e+00 0.0000000000000000e+00 0.0000000000000000e+00
675 0.0000000000000000e+00 0.0000000000000000e+00 0.0000000000000000e+00
679 0.0000000000000000e+00 0.0000000000000000e+00 0.0000000000000000e+00
680 0.0000000000000000e+00 0.0000000000000000e+00 0.0000000000000000e+00
681 0.0000000000000000e+00 0.0000000000000000e+00 0.0000000000000000e+00
682 0.0000000000000000e+00 0.0000000000000000e+00 0.0000000000000000e+00
683 0.0000000000000000e+00 0.0000000000000000e+00 0.0000000000000000e+00
684 0.0000000000000000e+00 0.0000000000000000e+00 0.0000000000000000e+00
695 0.0000000000000000e+00 0.0000000000000000e+00 0.0000000000000000e+00
696 0.0000000000000000e+00 0.0000000000000000e+00 0.0000000000000000e+00
711 0.0000000000000000e+00 0.0000000000000000e+00 0.0000000000000000e+00
716 0.0000000000000000e+00 0.0000000000000000e+00 0.0000000000000000e+00
717 0.0000000000000000e+00 0.0000000000000000e+00 0.0000000000000000e+00
718 0.0000000000000000e+00 0.0000000000000000e+00 0.0000000000000000e+00
719 0.0000000000000000e+00 0.0000000000000000e+00 0.0000000000000000e+00
720 0.0000000000000000e+00 0.0000000000000000e+00 0.0000000000000000e+00
