ITEM: TIMESTEP
0
ITEM: NUMBER OF ATOMS
1890
ITEM: BOX BOUNDS pp pp mm
0.0000000000000000e+00 2.1833448247381568e+01
0.0000000000000000e+00 2.2689985001334318e+01
-3.8596448281022617e+00 4.9403453799708949e+01
ITEM: ATOMS id type x y z vx vy vz
1 1 5.05086 22.6499 17.3501 0.00609643 0.0105301 0.000987514
2 1 21.2295 22.6566 16.4747 0.00218007 0.00211182 -0.00359767
3 1 1.3884 1.29708 17.2556 -0.00195271 -0.000663277 0.00250904
4 1 19.6501 21.4294 -3.35997 0 0 0
5 1 21.7819 22.6797 15.0046 0.00315411 0.00408608 0.00341416
6 1 19.6501 21.4294 -2.03624 0 0 0
7 1 5.17415 4.95565 17.2757 0.001081 0.00439536 -0.00463402
8 1 21.201 5.10435 16.5685 -0.00293701 -0.00532897 -0.00480185
9 1 1.45022 6.26155 17.4569 -0.00541223 0.00174792 0.00320291
10 1 1.42831 3.77953 17.3362 -0.000331348 0.000335601 -0.000617879
11 1 21.7513 5.01892 15.0777 -0.00123257 -0.00746658 -0.00347841
12 1 9.46409 2.50489 17.2998 0.00464364 -0.00291597 -0.000800883
13 1 17.4668 17.6478 -3.35991 0 0 0
14 1 19.6501 16.3872 -3.35997 0 0 0
15 1 19.6501 18.9083 -3.35997 0 0 0
16 1 17.4667 17.6478 -2.03619 0 0 0
17 1 19.6501 16.3872 -2.03624 0 0 0
18 1 19.6501 18.9083 -2.03624 0 0 0
19 1 3.74571 2.48055 16.5956 -0.00321415 0.00494825 -0.00557294
20 1 20.3779 17.6478 -1.46262 0 0 0
21 1 5.8278 3.6865 17.2218 0.00842794 0.000477399 -0.00505581
22 1 20.3471 17.6502 0.0899414 -0.00251627 0.000442933 0.00138431
23 1 13.1001 20.1689 -3.35991 0 0 0
24 1 15.2834 18.9083 -3.35997 0 0 0
25 1 15.2834 21.4294 -3.35997 0 0 0
26 1 13.1001 20.1689 -2.03619 0 0 0
27 1 15.2834 18.9083 -2.03624 0 0 0
28 1 15.2834 21.4294 -2.03624 0 0 0
29 1 17.4668 20.1689 -3.35991 0 0 0
30 1 16.0112 20.1689 -1.46262 0 0 0
31 1 18.1946 18.9083 -1.46257 0 0 0
32 1 18.1946 21.4294 -1.46257 0 0 0
33 1 17.4667 20.1689 -2.03619 0 0 0
34 1 15.9902 20.2187 0.0737759 0.00442806 6.98268e-05 -0.00137666
35 1 18.1394 18.8815 0.0399268 0.000721934 0.000879555 0.00174494
36 1 18.1741 21.5043 0.0945418 -0.0061923 -0.00337882 -0.00464159
37 1 20.3779 20.1689 -1.46262 0 0 0
38 1 18.8938 20.1959 0.613164 -0.00969879 -0.00158226 -0.00823132
39 1 21.0789 18.8812 0.572222 -0.000265104 -0.00617086 0.00788341
40 1 21.0758 21.4434 0.585397 0.00287036 0.00330366 -0.00981357
41 1 20.3396 20.1999 0.0868954 -0.00725513 -0.00236855 0.0032728
42 1 18.9172 20.1761 2.14562 -0.0081344 0.000683888 -0.0026678
43 1 21.0977 18.914 2.08949 -0.00239516 -0.0131483 3.86216e-05
44 1 21.088 21.4189 2.15104 -0.00434862 -0.00388455 0.00127415
45 1 5.7679 1.19598 17.2999 0.000872109 0.00856804 -0.0034042
46 1 5.10158 2.47985 17.2801 0.00195828 -0.0098235 -0.00144972
47 1 4.2223 2.48733 15.0268 -0.0142168 0.00155767 -0.00150925
48 1 10.9167 21.4294 -3.35997 0 0 0
49 1 2.86918 3.70977 16.6693 0.00206466 0.00452258 6.51179e-06
50 1 10.9167 21.4294 -2.03624 0 0 0
51 1 2.73762 1.23251 16.69 0.00282208 0.00251729 0.00264814
52 1 21.1524 2.54133 16.6001 -0.00596857 4.59603e-05 -0.00347992
53 1 13.8279 21.4294 -1.46257 0 0 0
54 1 1.46077 2.45712 14.612 0.00351823 0.00419247 -0.00298873
55 1 2.20156 3.77174 15.0726 -0.00345939 -0.0011596 -0.00137559
56 1 13.8305 21.4642 0.0344598 0.00530405 -0.00918537 0.00486622
57 1 2.19452 1.19384 15.0721 0.000816072 0.00344924 -0.000544362
58 1 21.7547 2.49075 15.054 0.0108671 0.00444168 0.00262349
59 1 16.7086 21.4581 0.596831 0.00294303 -0.00804765 0.00467004
60 1 1.43962 2.50616 13.0613 0.00124855 0.000770695 -0.00498392
61 1 13.8223 0.0171973 17.3689 -9.29278e-05 0.0023242 0.0020479
62 1 16.6899 21.3973 2.14976 0.00998231 0.00448411 0.00226155
63 1 8.08961 22.6681 16.6339 0.00190323 -0.00190142 -0.000424476
64 1 10.1943 1.27608 17.2954 -0.00234198 0.000358637 -0.00438749
65 1 19.6464 21.4288 2.66843 0.000881868 -0.00334005 -0.00127219
66 1 9.47357 0.0729975 17.3269 0.00188055 -0.000582546 0.00855304
67 1 8.67807 22.652 15.0303 -0.00189134 0.0043483 -0.00378552
68 1 19.6107 21.4336 4.19251 0.00777041 0.0029606 -0.00576303
69 1 7.13314 1.20476 16.6611 -0.00174112 -0.00661663 0.000787241
70 1 3.66297 22.6765 16.6924 -0.00171367 0.00950697 -0.0180451
71 1 5.79716 22.6446 14.5793 0.00149002 7.18398e-05 -0.0050234
72 1 6.55316 1.23413 15.0518 -0.00153645 -0.00917986 -0.00188364
73 1 4.27128 22.6537 15.0825 -0.006967 -0.00457436 0.00351948
74 1 17.4668 12.6055 -3.35991 0 0 0
75 1 19.6501 11.345 -3.35997 0 0 0
76 1 19.6501 13.8661 -3.35997 0 0 0
77 1 17.4667 12.6055 -2.03619 0 0 0
78 1 19.6501 11.345 -2.03624 0 0 0
79 1 19.6501 13.8661 -2.03624 0 0 0
80 1 5.77233 22.6419 12.994 -0.0039397 0.00405638 -0.00589741
81 1 20.3779 12.6055 -1.46262 0 0 0
82 1 3.54348 1.21358 14.5026 -6.64762e-05 0.00445307 0.00797854
83 1 20.345 12.6421 0.050537 0.00292176 -0.0041133 -0.00815426
84 1 13.1001 15.1267 -3.35991 0 0 0
85 1 15.2834 13.8661 -3.35997 0 0 0
86 1 15.2834 16.3872 -3.35997 0 0 0
87 1 13.1001 15.1267 -2.03619 0 0 0
88 1 15.2834 13.8661 -2.03624 0 0 0
89 1 15.2834 16.3872 -2.03624 0 0 0
90 1 17.4668 15.1267 -3.35991 0 0 0
91 1 16.0112 15.1267 -1.46262 0 0 0
92 1 18.1946 13.8661 -1.46257 0 0 0
93 1 18.1946 16.3872 -1.46257 0 0 0
94 1 17.4667 15.1267 -2.03619 0 0 0
95 1 15.963 15.0961 -0.000650056 -0.00115118 0.00763719 -0.00154829
96 1 18.1296 13.8767 -0.0340554 -0.00690047 0.00527636 0.00155995
97 1 18.146 16.371 0.0735523 -0.000117818 0.000941644 0.00538619
98 1 20.3779 15.1267 -1.46262 0 0 0
99 1 18.8924 15.1547 0.589931 -0.00838231 0.00314943 0.00177582
100 1 21.1212 13.8305 0.622596 -0.00571859 -0.000839873 0.00370731
101 1 21.0745 16.4026 0.579836 0.00234282 -4.90176e-05 0.0055372
102 1 20.389 15.1 0.110731 0.003527 0.000639217 0.00660466
103 1 18.8994 15.1581 2.11201 0.00284079 -0.00141543 0.00316182
104 1 21.0855 13.8447 2.13401 -7.97396e-05 -0.00606986 -0.00479698
105 1 21.1088 16.4164 2.14117 -0.00948751 0.00378672 -0.000461548
106 1 1.45803 22.6605 14.5784 -0.00409075 0.0015555 0.00688789
107 1 8.73339 17.6478 -3.35991 0 0 0
108 1 10.9167 16.3872 -3.35997 0 0 0
109 1 10.9167 18.9083 -3.35997 0 0 0
110 1 8.73336 17.6478 -2.03619 0 0 0
111 1 10.9167 16.3872 -2.03624 0 0 0
112 1 10.9167 18.9083 -2.03624 0 0 0
113 1 13.1001 17.6478 -3.35991 0 0 0
114 1 11.6445 17.6478 -1.46262 0 0 0
115 1 13.8279 16.3872 -1.46257 0 0 0
116 1 13.8279 18.9083 -1.46257 0 0 0
117 1 13.1001 17.6478 -2.03619 0 0 0
118 1 11.6541 17.6614 0.0234934 -0.00832056 0.00250418 -0.00228889
119 1 13.8144 16.4159 0.0882503 0.00600522 -0.00218955 -0.00213632
120 1 13.8512 18.9013 0.0799096 -0.00436708 0.00271188 0.00177096
121 1 16.0112 17.6478 -1.46262 0 0 0
122 1 14.5625 17.6531 0.551505 0.0113607 -0.00142178 0.00597975
123 1 16.7312 16.3692 0.55906 -0.000400761 0.00342613 0.000669306
124 1 16.6934 18.8545 0.58047 -0.0065042 0.0062453 0.0027326
125 1 15.9654 17.6329 0.058647 -0.00430031 0.00494814 -0.00710028
126 1 14.5165 17.6891 2.13514 -0.00110303 -0.00481263 0.0138172
127 1 16.6957 16.4033 2.1103 0.00162168 6.16029e-05 0.00202804
128 1 16.7083 18.859 2.08987 6.82368e-05 0.00227825 0.00922925
129 1 18.9052 17.6555 0.577009 0.00588358 -0.000453793 -0.00809308
130 1 17.4231 17.631 2.60118 0.00584138 0.0066989 0.000412475
131 1 19.6274 16.4139 2.68941 0.00523227 -0.00299575 -0.00578149
132 1 19.6272 18.8398 2.64356 0.00378765 0.00617113 -0.00714698
133 1 18.8604 17.6472 2.06346 -0.0112174 0.00651726 0.00175582
134 1 17.4111 17.6549 4.1805 -0.00362701 -0.000702797 -0.00599971
135 1 19.6141 16.4018 4.19575 0.00127434 -0.00455878 -8.18031e-05
136 1 19.6018 18.9089 4.23805 -0.00617109 -0.00497346 0.00309817
137 1 2.91393 22.6675 12.4445 0.00208478 -0.00538883 0.000727846
138 1 20.3365 17.6642 4.70097 0.00382071 0.0164737 0.00735723
139 1 3.59756 1.20938 12.932 0.00530743 0.00144524 0.00559698
140 1 20.4113 17.6274 6.25779 0.00367701 -0.000518251 0.0018255
141 1 4.3667 20.1689 -3.35991 0 0 0
142 1 6.55002 18.9083 -3.35997 0 0 0
143 1 6.55002 21.4294 -3.35997 0 0 0
144 1 4.36667 20.1689 -2.03619 0 0 0
145 1 6.55004 18.9083 -2.03624 0 0 0
146 1 6.55004 21.4294 -2.03624 0 0 0
147 1 8.73339 20.1689 -3.35991 0 0 0
148 1 7.27779 20.1689 -1.46262 0 0 0
149 1 9.46121 18.9083 -1.46257 0 0 0
150 1 9.46121 21.4294 -1.46257 0 0 0
151 1 8.73336 20.1689 -2.03619 0 0 0
152 1 7.25204 20.1578 0.0862527 0.0107048 -0.0064844 -0.00892714
153 1 9.44844 18.9345 0.0574104 0.0028981 -0.00413707 0.00120725
154 1 9.40794 21.4235 0.0589373 -0.000312599 -0.00530983 0.00158003
155 1 11.6445 20.1689 -1.46262 0 0 0
156 1 10.1903 20.1542 0.568662 0.00058009 0.00486277 0.00668702
157 1 12.4308 18.9116 0.579715 -0.00485863 0.000482045 -0.00774842
158 1 12.3505 21.428 0.634973 -0.00428391 0.00227735 -0.00325629
159 1 11.6744 20.1786 0.0616114 -0.000947878 0.0094469 -0.00276206
160 1 10.1565 20.2125 2.05062 -5.10641e-05 0.00693448 0.000897619
161 1 12.388 18.9968 2.16239 0.00184333 -0.00793436 -0.00577918
162 1 12.3504 21.4759 2.16744 0.00131557 -0.00323131 -0.00438767
163 1 14.5454 20.1798 0.613048 -0.00118317 0.00629203 -0.000347564
164 1 13.0512 20.2628 2.6892 0.00587554 -0.000178307 -0.00352226
165 1 15.2651 18.8891 2.6599 0.0102426 -0.00313536 -0.00100715
166 1 15.2436 21.4554 2.67975 0.0072185 0.00372631 -0.00725389
167 1 14.5474 20.1595 2.11583 0.00688477 -0.00517754 0.00519829
168 1 13.0503 20.1944 4.2058 -0.00580946 0.00677665 -0.00662543
169 1 15.2228 18.8719 4.20662 0.00173381 -0.00793388 0.00486341
170 1 15.2766 21.3757 4.22358 0.014803 0.00667872 0.00415787
171 1 17.4334 20.1456 2.64745 0.00431474 0.00944892 -0.000330904
172 1 15.9838 20.1666 4.70274 -0.00292004 -0.000410739 -0.0128022
173 1 18.1637 18.886 4.69397 0.0071337 -0.00432996 0.00589674
174 1 18.1157 21.4548 4.66575 0.006562 0.00323386 0.00343307
175 1 17.4215 20.165 4.17686 -0.00182405 -0.0117735 -0.00157171
176 1 16.0304 20.157 6.27511 -0.00267704 0.0084195 -0.00554854
177 1 18.1836 18.918 6.26763 -0.00116643 -0.00476826 0.000209659
178 1 18.13 21.4247 6.21771 -0.0110358 -0.00219119 -0.00362536
179 1 20.3195 20.2106 4.67356 0.000204747 -0.00269818 0.00337346
180 1 18.9083 20.1763 6.70622 0.00142813 -0.00336242 0.00397975
181 1 21.0629 18.8996 6.72065 -0.000518237 0.0100114 0.00709633
182 1 21.1628 21.4103 6.75305 -0.00409827 -0.00712649 -0.00600785
183 1 20.4293 20.2053 6.22273 -0.00243438 0.0024427 -0.00232948
184 1 18.956 20.1817 8.25529 -0.00698587 -0.00332335 0.00520581
185 1 21.1369 18.869 8.28805 -0.00242274 0.00388389 0.00667433
186 1 21.1274 21.3818 8.37478 0.00281889 -0.0118525 0.000240573
187 1 1.41636 0.0132515 12.9757 -0.0050382 -0.00108306 0.0029673
188 1 2.90629 22.642 10.9262 -0.000246391 0.000730513 0.000630796
189 1 0.722879 1.27891 12.4929 0.00435252 -0.00352769 0.00612844
190 1 2.18333 21.4294 -3.35997 0 0 0
191 1 21.8095 0.0258046 10.382 0.00233969 -0.00314993 0.00394268
192 1 2.18335 21.4294 -2.03624 0 0 0
193 1 0.753788 1.31323 10.908 -0.0148833 0.00531175 0.00679271
194 1 21.7818 22.671 8.86916 9.26365e-06 -0.0041732 0.00291786
195 1 5.09452 21.4294 -1.46257 0 0 0
196 1 5.03192 10.0776 17.3287 0.00339255 -0.00237825 -0.00307886
197 1 21.226 10.0826 16.6347 -0.00852134 -0.00365241 -0.00506396
198 1 5.07214 21.42 0.0168712 0.00445903 0.00806665 -0.00972484
199 1 1.45591 11.3318 17.3948 -0.00177705 0.000900086 -0.00647075
200 1 1.43821 8.82412 17.3461 0.00381682 -0.00263611 -0.0109328
201 1 7.95632 21.4249 0.643495 0.00140197 -0.00205039 0.00267089
202 1 21.7707 10.0686 15.0651 7.29027e-05 0.000678626 0.00927631
203 1 9.43336 7.59286 17.3417 -0.001474 0.00528211 0.00589738
204 1 7.98919 21.4988 2.16562 0.000685966 0.000374567 0.00430584
205 1 3.73108 7.60187 16.5853 0.00568667 -0.000671826 -0.00260929
206 1 5.7778 8.87728 17.3001 -0.00343703 0.00311821 -0.00153615
207 1 10.8502 21.4572 2.65937 0.00491312 -0.00272357 -0.00445049
208 1 5.79767 6.31895 17.3896 -0.000982804 0.0061461 -0.00416428
209 1 5.0335 7.5935 17.2863 0.00334938 0.00941764 -0.000200657
210 1 10.8786 21.4149 4.18935 0.00827046 0.00449948 0.00204645
211 1 4.39689 7.53601 15.0395 -0.000190907 -0.00258584 -0.00139446
212 1 2.76936 8.83779 16.6174 0.00132262 -0.00256582 -0.00568845
213 1 13.8244 21.4209 4.72527 -0.00482034 0.000608391 -0.0027823
214 1 2.82833 6.31819 16.703 0.00392001 -0.0151989 -0.000633855
215 1 21.1654 7.54691 16.553 0.00301473 0.0150302 0.00640669
216 1 13.8577 21.4315 6.34279 0.00805249 -0.000589233 0.00215245
217 1 1.45443 7.56616 14.6305 0.00130938 0.00299446 0.000846069
218 1 2.25924 8.86279 15.0966 -0.00881465 0.00783414 -0.00713338
219 1 16.7319 21.4264 6.81782 -0.00760038 0.013456 0.00557638
220 1 2.20449 6.3351 15.109 0.00215234 -0.0137704 -0.00566313
221 1 21.7116 7.57514 15.0971 -0.00724236 0.00562957 0.0107151
222 1 16.7318 21.454 8.34397 -0.00608914 0.00676162 0.000994919
223 1 1.51563 7.51608 13.0274 0.00678995 0.0112094 0.0059419
224 1 13.8871 5.07323 17.2847 0.00453206 -0.00118875 0.00834574
225 1 19.6259 21.4234 8.81632 0.00668028 0.00102259 -0.00249444
226 1 8.1235 5.05393 16.555 -0.00150174 -0.00659145 -0.00570859
227 1 10.0875 6.23929 17.3612 0.0034699 0.000772957 -0.0026595
228 1 19.6964 21.3669 10.3939 -0.00155634 0.00428468 7.04865e-05
229 1 10.1353 3.79436 17.292 -0.00903361 0.00134877 -0.00420132
230 1 9.3723 5.06425 17.2623 0.00373663 -0.00103626 0.000100425
231 1 8.68785 5.00274 15.0051 0.00321109 0.00538048 -0.0036105
232 1 7.18645 6.28766 16.6224 0.00573341 0.00129739 -9.33661e-05
233 1 7.15019 3.70936 16.5381 -0.000567283 0.00258592 -0.000850772
234 1 3.8312 4.97587 16.6048 0.000762958 -0.00330137 0.00867934
235 1 17.4668 7.56333 -3.35991 0 0 0
236 1 19.6501 6.30277 -3.35997 0 0 0
237 1 19.6501 8.82388 -3.35997 0 0 0
238 1 17.4667 7.56333 -2.03619 0 0 0
239 1 19.6501 6.30277 -2.03624 0 0 0
240 1 19.6501 8.82388 -2.03624 0 0 0
241 1 5.84013 5.02632 14.6152 0.00137039 0.00226744 -0.00639925
242 1 20.3779 7.56333 -1.46262 0 0 0
243 1 20.3666 7.6206 0.0522054 -0.00118946 0.00685966 0.00402464
244 1 13.1001 10.0844 -3.35991 0 0 0
245 1 15.2834 8.82388 -3.35997 0 0 0
246 1 15.2834 11.345 -3.35997 0 0 0
247 1 13.1001 10.0844 -2.03619 0 0 0
248 1 15.2834 8.82388 -2.03624 0 0 0
249 1 15.2834 11.345 -2.03624 0 0 0
250 1 17.4668 10.0844 -3.35991 0 0 0
251 1 16.0112 10.0844 -1.46262 0 0 0
252 1 18.1946 8.82388 -1.46257 0 0 0
253 1 18.1946 11.345 -1.46257 0 0 0
254 1 17.4667 10.0844 -2.03619 0 0 0
255 1 15.954 10.0771 0.00949425 -0.00317494 -0.00517079 0.000141264
256 1 18.2165 8.81237 0.05943 -0.00635461 0.00800421 -0.0015991
257 1 18.1814 11.3262 0.0806025 0.00344357 0.00436569 0.000784279
258 1 20.3779 10.0844 -1.46262 0 0 0
259 1 18.8965 10.1444 0.617514 -0.00617345 0.00359195 0.0036769
260 1 21.0927 8.85144 0.526396 -0.0071248 -0.00731069 -4.2317e-05
261 1 21.1239 11.3458 0.622613 -0.00137984 -0.00187325 0.00254734
262 1 20.3277 10.1567 0.0469241 -0.00554699 0.00324775 -0.00437652
263 1 18.9029 10.104 2.11961 -0.00638596 0.00210111 0.00872809
264 1 21.1303 8.82449 2.06725 -0.00272844 0.0093043 -0.0104908
265 1 21.1089 11.4043 2.10039 0.00549608 -0.00310044 0.0088028
266 1 6.58519 6.31204 15.1294 0.000281718 -0.00467684 0.00178127
267 1 6.55043 3.78423 15.0412 -0.00655839 -0.00523243 -0.00120389
268 1 8.73339 12.6055 -3.35991 0 0 0
269 1 10.9167 11.345 -3.35997 0 0 0
270 1 10.9167 13.8661 -3.35997 0 0 0
271 1 8.73336 12.6055 -2.03619 0 0 0
272 1 10.9167 11.345 -2.03624 0 0 0
273 1 10.9167 13.8661 -2.03624 0 0 0
274 1 13.1001 12.6055 -3.35991 0 0 0
275 1 11.6445 12.6055 -1.46262 0 0 0
276 1 13.8279 11.345 -1.46257 0 0 0
277 1 13.8279 13.8661 -1.46257 0 0 0
278 1 13.1001 12.6055 -2.03619 0 0 0
279 1 11.6008 12.5699 0.0632159 0.00935455 0.000573891 0.00623088
280 1 13.8177 11.2893 0.0796211 -0.000503201 -0.00342002 -0.0125079
281 1 13.7986 13.7921 0.0732862 3.06783e-05 0.000827243 0.00667655
282 1 16.0112 12.6055 -1.46262 0 0 0
283 1 14.4965 12.6047 0.621212 -0.00342983 0.00195816 -0.00684446
284 1 16.6657 11.3626 0.554015 0.000839095 0.0135004 0.000725953
285 1 16.6934 13.8738 0.539354 -0.000955345 0.00553152 0.00812833
286 1 16.0102 12.5864 0.0638691 -0.000820216 0.0065159 0.000478073
287 1 14.5339 12.6104 2.13731 0.00306201 -0.000565657 0.00293261
288 1 16.668 11.3856 2.13748 -0.00640892 -0.00225273 -0.0020363
289 1 16.7341 13.8741 2.12995 0.00279274 0.00339873 -0.00553408
290 1 18.8627 12.645 0.562208 -0.00213344 0.0033157 0.00595522
291 1 17.3929 12.6186 2.67466 0.0027143 -0.00145032 0.000877677
292 1 19.5835 11.3886 2.63906 0.000152056 0.00093795 -0.00370472
293 1 19.6331 13.8931 2.69612 0.000105299 0.000832233 -0.00316772
294 1 18.8928 12.6255 2.11822 0.00171982 0.00477799 0.00193376
295 1 17.406 12.662 4.20452 -0.00467758 -0.0040254 -0.005794
296 1 19.6067 11.3473 4.17473 -0.00229601 0.00420187 -0.00412371
297 1 19.6198 13.8849 4.20803 0.00399339 -0.00581366 -0.0107064
298 1 4.25851 5.01032 15.0107 -0.000524858 -0.00451078 0.00497598
299 1 20.3451 12.5787 4.72292 0.00064123 0.00131912 0.00251798
300 1 20.3871 12.5951 6.23838 9.82818e-06 0.00196782 0.00136323
301 1 4.3667 15.1267 -3.35991 0 0 0
302 1 6.55002 13.8661 -3.35997 0 0 0
303 1 6.55002 16.3872 -3.35997 0 0 0
304 1 4.36667 15.1267 -2.03619 0 0 0
305 1 6.55004 13.8661 -2.03624 0 0 0
306 1 6.55004 16.3872 -2.03624 0 0 0
307 1 8.73339 15.1267 -3.35991 0 0 0
308 1 7.27779 15.1267 -1.46262 0 0 0
309 1 9.46121 13.8661 -1.46257 0 0 0
310 1 9.46121 16.3872 -1.46257 0 0 0
311 1 8.73336 15.1267 -2.03619 0 0 0
312 1 7.25833 15.1293 0.0466176 -0.00168967 0.00268581 0.00509395
313 1 9.47774 13.8912 0.0497859 0.00821178 0.00323085 0.00126875
314 1 9.42433 16.37 -0.0174669 -0.00362333 0.00616469 0.00707977
315 1 11.6445 15.1267 -1.46262 0 0 0
316 1 10.1862 15.2002 0.57844 -0.000891149 -6.5065e-05 0.00716634
317 1 12.3926 13.832 0.562383 0.010186 -0.00415026 0.00235021
318 1 12.3306 16.3875 0.646088 0.00361073 0.00123306 -0.00160503
319 1 11.6486 15.1321 0.136727 -0.00193463 0.00654799 -0.00251543
320 1 10.1892 15.1149 2.12731 0.0047166 -0.00423076 0.00291483
321 1 12.3765 13.8939 2.11895 0.0029794 0.00976999 0.00523767
322 1 12.3476 16.4065 2.18231 -0.00224042 -0.00236708 0.000519212
323 1 14.5668 15.1012 0.570734 0.00344559 -0.00120501 0.00746258
324 1 13.0385 15.1331 2.65911 -0.00397821 0.00586834 0.00472605
325 1 15.2449 13.8569 2.69342 -0.00158054 0.000275653 -4.96318e-05
326 1 15.22 16.3435 2.62968 0.00332757 -0.0052887 0.000331416
327 1 14.5006 15.0923 2.14765 -0.00815617 0.00342514 4.19226e-05
328 1 13.0612 15.1255 4.20771 0.000503491 -0.00325043 0.00158393
329 1 15.2572 13.8854 4.22947 0.000970078 0.000118726 0.00632004
330 1 15.2231 16.4024 4.18401 0.00139635 -0.00581373 -0.00164754
331 1 17.4708 15.1506 2.68388 -0.00343604 -0.00207841 0.00184164
332 1 15.9572 15.1609 4.73125 0.000102207 0.00185411 0.0023521
333 1 18.1243 13.8902 4.7401 0.0103318 -0.00640377 0.00680213
334 1 18.1287 16.4403 4.68853 0.00609767 -0.000235895 0.00407139
335 1 17.4492 15.1156 4.21191 -0.00308705 0.00276801 0.00677053
336 1 15.9923 15.1467 6.2298 0.000335796 -0.00462986 -0.00462138
337 1 18.2156 13.9242 6.2736 0.00141293 -0.00316871 0.00687037
338 1 18.1836 16.3884 6.31192 -0.000749287 0.00152293 0.00156744
339 1 20.3764 15.1833 4.72307 0.00515814 -0.00896276 -0.000149142
340 1 18.9134 15.1538 6.79633 8.69392e-05 0.00070471 -0.00756731
341 1 21.1478 13.8662 6.79641 0.00663452 -0.00758902 4.61214e-05
342 1 21.1528 16.3723 6.75305 0.00271217 -0.00136263 -0.00523533
343 1 20.4039 15.1661 6.28972 -0.00207937 0.00193112 -0.00566127
344 1 18.8981 15.1169 8.35234 0.00635328 -0.000948217 -0.00131777
345 1 21.1475 13.8194 8.31585 -0.00254556 0.00648689 -0.00125317
346 1 21.1563 16.3767 8.32647 0.000385043 0.00860023 -0.000956176
347 1 5.84459 5.03297 13.0381 -0.0129212 0.00192891 0.00604887
348 1 3.65975 6.26348 14.517 0.0016863 -0.00517191 -0.00250458
349 1 1.38543e-05 17.6478 -3.35991 0 0 0
350 1 2.18333 16.3872 -3.35997 0 0 0
351 1 2.18333 18.9083 -3.35997 0 0 0
352 1 21.8334 17.6478 -2.03619 0 0 0
353 1 2.18335 16.3872 -2.03624 0 0 0
354 1 2.18335 18.9083 -2.03624 0 0 0
355 1 4.3667 17.6478 -3.35991 0 0 0
356 1 2.9111 17.6478 -1.46262 0 0 0
357 1 5.09452 16.3872 -1.46257 0 0 0
358 1 5.09452 18.9083 -1.46257 0 0 0
359 1 4.36667 17.6478 -2.03619 0 0 0
360 1 2.91762 17.65 0.0298617 0.00424074 0.000866469 -0.00687762
361 1 5.10758 16.4359 0.114158 -0.0014856 -0.00016366 0.00274623
362 1 5.06844 18.8773 0.0871199 -0.00554332 0.000921254 0.00197097
363 1 7.27779 17.6478 -1.46262 0 0 0
364 1 5.8485 17.7031 0.608639 0.00224574 0.00495144 0.0117705
365 1 8.03769 16.361 0.57023 0.0126475 -0.000403497 0.0106802
366 1 7.97324 18.9388 0.55818 0.00137368 -1.18384e-05 0.0057184
367 1 7.26225 17.6681 0.102104 0.00191253 -0.00902264 -0.000358473
368 1 5.83305 17.7256 2.11705 0.00515399 -0.000725677 0.000185325
369 1 7.99611 16.4027 2.13533 0.00344217 -0.00799587 0.00199766
370 1 8.00945 18.9215 2.08457 0.00502322 -0.00420642 0.00611329
371 1 10.2168 17.689 0.492274 -0.00149975 -0.00136756 0.010443
372 1 8.70093 17.6418 2.61111 0.0089274 0.000745707 -0.00220422
373 1 10.9061 16.3574 2.63558 0.00465641 -0.00366771 0.00211504
374 1 10.8947 18.9329 2.57351 -0.00494454 0.00177065 0.00392178
375 1 10.1634 17.6235 2.09117 -0.00123633 -0.0019016 -0.00281863
376 1 8.74022 17.5925 4.16449 0.000496968 0.00501771 0.0043852
377 1 10.8884 16.3416 4.23403 0.00372315 0.000857462 0.00119947
378 1 10.8907 18.8698 4.18825 0.00491867 -0.011801 0.0025942
379 1 13.0763 17.6691 2.67088 0.000324962 0.0081848 0.00552494
380 1 11.5881 17.6552 4.72339 -0.000651226 -0.00855269 0.00349351
381 1 13.8126 16.3909 4.75019 -0.00224731 0.00893601 -0.00390809
382 1 13.7626 18.9427 4.74488 -0.00210287 -0.000984973 -0.000518984
383 1 13.0565 17.6013 4.26612 -0.00333011 -0.00198865 -0.00956345
384 1 11.6641 17.6507 6.30851 0.00409601 0.00539823 0.00561349
385 1 13.8162 16.3876 6.26655 0.00292691 -0.00149308 0.00559185
386 1 13.8206 18.9253 6.31346 -0.00166063 0.0053126 -0.00581134
387 1 15.9563 17.6559 4.7318 0.00065092 -0.000738272 -0.00435262
388 1 14.5227 17.624 6.85071 -0.010663 -0.00565265 0.00315069
389 1 16.7331 16.4409 6.7759 0.00752282 -0.00366201 -0.000337489
390 1 16.7233 18.9245 6.79088 0.00404911 0.00429871 -0.00400639
391 1 16.0083 17.6494 6.2959 0.00279054 -0.00833981 0.000626147
392 1 14.5732 17.6423 8.31322 0.00481686 0.00422579 0.00107091
393 1 16.7521 16.3838 8.31091 0.0124824 -0.00292887 0.00648328
394 1 16.7311 18.9392 8.37009 0.00106418 -0.00375363 0.00253809
395 1 18.8728 17.6393 6.78219 -0.00429476 0.000406517 -0.00246639
396 1 17.468 17.6464 8.83953 0.000861494 0.00246972 0.00709687
397 1 19.6492 16.3883 8.78551 0.0138493 -0.00402605 -0.00180903
398 1 19.6738 18.9246 8.79872 -0.00480484 0.00363239 0.00657577
399 1 18.9128 17.6698 8.34165 -0.00264026 0.00610614 -0.00819159
400 1 17.4503 17.6626 10.3895 -0.00779901 0.00357936 -0.0106043
401 1 19.7002 16.3732 10.3004 0.00684532 -0.00202725 0.00402651
402 1 19.6739 18.8871 10.3581 0.000340834 0.00629317 0.0069278
403 1 3.56332 3.78699 14.4457 -0.00557833 0.000895275 -0.00227052
404 1 20.4008 17.63 10.8767 0.00580946 -0.0030625 0.000749177
405 1 1.44095 5.04682 14.6771 0.00334692 0.00933155 -0.0028202
406 1 20.4333 17.6185 12.4488 -0.000657399 0.00650873 2.66827e-05
407 1 1.38543e-05 20.1689 -3.35991 0 0 0
408 1 0.72783 18.9083 -1.46257 0 0 0
409 1 0.72783 21.4294 -1.46257 0 0 0
410 1 21.8334 20.1689 -2.03619 0 0 0
411 1 0.721831 18.9011 0.0591437 -0.00435374 4.32891e-05 0.00900271
412 1 0.694073 21.4097 0.0675759 -0.000904419 -0.00205426 -0.00433795
413 1 2.9111 20.1689 -1.46262 0 0 0
414 1 1.42784 20.2042 0.560918 0.00179081 -0.00038843 -0.000221547
415 1 3.57984 18.9382 0.589066 0.00405363 0.0020819 -0.00586161
416 1 3.61333 21.4358 0.612307 -0.000970217 0.00228897 0.0011811
417 1 2.87686 20.1917 0.128857 -0.00412228 0.00717146 -0.00121894
418 1 1.46609 20.179 2.15445 0.00331864 0.00462304 0.00041868
419 1 3.62626 18.8663 2.14286 -0.00104558 0.00047848 0.00421427
420 1 3.6316 21.4285 2.14341 0.00883284 -0.00488721 0.00322717
421 1 5.79664 20.1433 0.583479 0.0047958 0.000905426 -0.00534925
422 1 4.33097 20.1786 2.63658 0.00834853 -0.0023097 -0.00429364
423 1 6.53583 18.9322 2.69501 -0.0038155 0.00513574 0.00271835
424 1 6.50528 21.4705 2.62753 -0.00213352 -0.00537808 0.00720883
425 1 5.81117 20.1431 2.13189 0.0037692 -0.000243128 0.00777793
426 1 4.33209 20.1881 4.19301 -0.000755627 -0.00671617 -7.74296e-05
427 1 6.50485 18.9603 4.18072 -0.00623036 0.000824585 -0.00697604
428 1 6.51979 21.4518 4.15696 -0.00313131 -6.44699e-05 -0.00212484
429 1 8.74242 20.2484 2.64389 0.0014452 -0.00727162 0.0112721
430 1 7.2355 20.1556 4.68091 -0.00251098 0.00224932 -0.00431926
431 1 9.43366 18.8596 4.68247 0.00278559 0.000879077 0.000383801
432 1 9.42813 21.5106 4.74408 0.0021051 -0.000672768 -0.00739078
433 1 8.75089 20.2038 4.18088 0.00074711 -0.00334224 -0.00473249
434 1 7.30533 20.1549 6.24824 0.000874396 -0.00625852 -0.00196217
435 1 9.45742 18.8995 6.23622 -0.00355943 -0.0026457 -0.00934712
436 1 9.46203 21.4365 6.23341 0.00107234 -0.00286398 -0.00512633
437 1 11.5353 20.1361 4.7267 0.00389003 -0.000490455 0.0111684
438 1 10.1584 20.2079 6.81163 -0.00517768 -0.00020583 0.00223179
439 1 12.3802 18.9241 6.78926 0.010294 -0.00708092 -0.0106344
440 1 12.4477 21.4303 6.81016 0.00762818 -0.000346428 0.00323687
441 1 11.6626 20.2183 6.26833 -0.00190196 0.00440969 0.00353065
442 1 10.1891 20.1898 8.32204 -0.000450182 -0.00405203 0.00937005
443 1 12.3764 18.9119 8.30988 0.0042965 0.00112354 0.00608785
444 1 12.3718 21.4122 8.34975 -0.000735344 -0.00518516 0.00400548
445 1 14.568 20.1889 6.83032 0.00163908 -0.00543905 -0.000200458
446 1 13.0585 20.1636 8.9109 0.00347115 0.00246115 0.00516948
447 1 15.2242 18.9043 8.85826 -0.00478944 0.00763609 -0.00544027
448 1 15.3199 21.4678 8.88855 0.0065756 -0.000633439 -0.00141017
449 1 14.5658 20.172 8.36167 -0.00326541 0.00308755 0.00428929
450 1 13.145 20.2142 10.4079 -0.00558742 0.000749034 -0.00735992
451 1 15.2788 18.9317 10.4062 0.00219128 -0.000765894 -0.00807253
452 1 15.273 21.4088 10.3339 0.00650632 -0.00965606 0.0072384
453 1 17.4853 20.1665 8.83056 0.00663986 -0.00558924 0.00324657
454 1 15.9854 20.1603 10.8695 0.00155652 -0.00546546 -0.000191181
455 1 18.2463 18.9062 10.8753 -0.00183974 -0.00810483 -0.00168964
456 1 18.2077 21.3926 10.9609 -0.0130966 0.00917047 0.00430404
457 1 17.4371 20.1311 10.3835 8.3491e-05 0.00544664 -5.14672e-05
458 1 16.0186 20.1957 12.4006 0.0144633 0.00473388 -0.00174848
459 1 18.2743 18.8926 12.4147 -0.00697335 0.00225924 0.00481135
460 1 18.2025 21.3578 12.4869 -0.000240496 -0.00183067 0.00255267
461 1 20.3993 20.1055 10.9007 -0.00208291 0.00152421 0.000221002
462 1 18.9745 20.1269 13.0349 0.000785502 0.00799835 -0.00373886
463 1 21.21 18.8739 12.8997 -0.00331046 -0.00048153 0.00405408
464 1 21.1494 21.4054 12.9687 0.0017966 -0.00573105 -0.00362149
465 1 20.3922 20.1357 12.4362 -0.0010136 -0.00692027 0.00583226
466 1 18.9276 20.1828 14.553 0.00105508 0.00407116 0.00174906
467 1 21.1727 18.884 14.4348 -0.00417703 -0.00920001 -0.00671289
468 1 21.1188 21.4146 14.405 0.00481563 -0.00109895 -0.00943196
469 1 2.86891 5.01343 12.4709 -0.00380196 -0.00619345 0.00412277
470 1 3.69465 6.28689 12.9825 -0.00560868 0.00589524 -0.00282863
471 1 3.6527 3.78952 12.9262 0.00262742 0.00623163 0.0078168
472 1 1.47048 5.02008 13.0871 -0.00865952 -0.00245204 -0.00497695
473 1 2.09926 21.5349 2.70322 -5.75411e-05 -0.00720061 0.00157756
474 1 2.8839 5.02523 10.9456 0.00455519 -0.002305 0.00126565
475 1 0.788288 6.2538 12.5502 -0.000659737 -0.00414331 -0.00123841
476 1 2.15787 21.472 4.21547 -0.0047718 0.0018921 0.000374868
477 1 0.726568 3.74231 12.523 -0.0107591 -0.00119474 -0.00408912
478 1 21.8215 5.08556 10.4482 -0.00632727 0.00616394 -0.000601498
479 1 5.05198 21.5021 4.68284 -0.00106666 0.000617972 -0.00642729
480 1 0.709139 6.29558 10.9382 0.00394873 0.00254504 -0.00879002
481 1 0.749854 3.81772 10.9377 -0.00904772 -0.00932125 0.000152211
482 1 5.1351 21.4085 6.22606 -0.0104465 0.00580941 0.0023737
483 1 0.0280687 5.04876 8.85303 0.000245474 0.00632036 0.00798342
484 1 18.275 2.48436 17.3388 0.000737062 -0.010623 -0.00340185
485 1 7.96523 21.4366 6.71358 0.00590683 0.00446075 0.00274531
486 1 12.5262 2.53919 16.6242 0.000829958 0.00582052 0.00484315
487 1 14.5317 3.77418 17.3478 0.00697877 -0.00416341 0.00630695
488 1 8.01218 21.4013 8.24781 0.00859651 0.00298769 -0.00630964
489 1 14.5326 1.26662 17.3422 -0.0064559 -0.00451948 -0.00462002
490 1 13.7915 2.47764 17.2975 0.00166549 3.73971e-05 -0.00397557
491 1 10.8708 21.4547 8.87584 0.00135042 0.00471035 -0.000788972
492 1 13.0974 2.50563 15.0598 -0.000439965 0.00489416 -0.00712577
493 1 11.5252 3.80946 16.6051 -0.00130204 0.000745929 -0.00472309
494 1 10.9437 21.4476 10.3649 4.75949e-05 -0.00601304 0.00138433
495 1 11.5524 1.28754 16.5039 0.000347685 0.0068175 -0.00285373
496 1 8.10049 2.46708 16.6094 -0.00148329 -0.00142743 0.000220993
497 1 13.8457 21.439 10.8977 -0.00765611 -0.0026869 -0.00124406
498 1 10.2428 2.53078 14.6192 -0.00556298 0.00265333 -0.00184759
499 1 11.0071 3.79294 15.0726 0.000251227 0.00484483 0.00216926
500 1 13.8851 21.4425 12.4793 0.00848907 0.00523921 0.0028128
501 1 11.0003 1.3104 15.0509 -0.00838067 -0.00343853 -0.00399362
502 1 8.65832 2.48285 15.0668 0.00473192 0.00106509 0.0082412
503 1 16.7619 21.4396 12.9495 -0.00118924 -0.00131618 -0.0119519
504 1 10.1912 2.56229 13.0592 0.00395207 -0.00660892 0.0110634
505 1 8.01951 3.74151 14.4876 0.00122054 -0.00889707 0.000926466
506 1 16.6764 21.4231 14.4785 0.00850328 -0.00531684 -0.00311178
507 1 7.90317 1.2511 14.4196 0.00328066 0.000530667 -0.000687945
508 1 5.72414 2.4881 14.645 0.00205007 -0.00910567 -0.00499294
509 1 19.7454 21.393 15.0447 0.00342961 0.00184705 0.00956508
510 1 7.22083 2.44032 12.4718 -0.0013037 -0.0053398 0.00603789
511 1 7.90933 3.73901 13.0029 -0.00548126 0.00352839 -0.00352458
512 1 20.3114 21.3876 16.563 -0.00316443 0.00333004 -0.00279947
513 1 7.97195 1.26627 12.9955 -0.00224477 0.00199192 0.00272453
514 1 5.74695 2.45144 13.0228 -0.0057615 -0.0041396 -0.00245087
515 1 7.26209 2.48174 10.9461 -0.00324705 0.00481118 0.00131518
516 1 5.08892 3.7309 12.5161 -0.000565937 0.00499147 0.00639045
517 1 17.4668 2.52111 -3.35991 0 0 0
518 1 19.6501 1.26055 -3.35997 0 0 0
519 1 19.6501 3.78166 -3.35997 0 0 0
520 1 17.4667 2.52111 -2.03619 0 0 0
521 1 19.6501 1.26055 -2.03624 0 0 0
522 1 19.6501 3.78166 -2.03624 0 0 0
523 1 20.3779 2.52111 -1.46262 0 0 0
524 1 5.09622 1.17025 12.4778 8.14786e-05 0.00187974 0.00339386
525 1 20.3465 2.49904 0.0694409 -0.00156655 0.00188392 0.00165655
526 1 13.1001 5.04222 -3.35991 0 0 0
527 1 15.2834 3.78166 -3.35997 0 0 0
528 1 15.2834 6.30277 -3.35997 0 0 0
529 1 13.1001 5.04222 -2.03619 0 0 0
530 1 15.2834 3.78166 -2.03624 0 0 0
531 1 15.2834 6.30277 -2.03624 0 0 0
532 1 17.4668 5.04222 -3.35991 0 0 0
533 1 16.0112 5.04222 -1.46262 0 0 0
534 1 18.1946 3.78166 -1.46257 0 0 0
535 1 18.1946 6.30277 -1.46257 0 0 0
536 1 17.4667 5.04222 -2.03619 0 0 0
537 1 16.0023 5.07657 0.0703519 -0.00698424 -0.0085028 0.0021308
538 1 18.2132 3.76439 0.0870702 -0.00187848 -0.00158857 0.00530059
539 1 18.189 6.29053 0.0395689 0.0028671 -0.00553904 0.00261952
540 1 20.3779 5.04222 -1.46262 0 0 0
541 1 18.9021 5.03787 0.551858 0.000977269 -0.00139923 0.00537424
542 1 21.1093 3.82295 0.539974 -0.00186093 -0.00841004 0.00476324
543 1 21.1159 6.3382 0.572065 0.00610767 -0.0046558 -6.07552e-05
544 1 20.3815 5.06816 0.0384355 0.00681688 -0.00782294 0.0103009
545 1 18.9712 5.04387 2.15959 0.00139541 0.00171015 0.00455132
546 1 21.1261 3.805 2.11304 0.00286033 0.0029157 0.000703843
547 1 21.139 6.31876 2.15706 0.0059562 -0.00559019 0.00308059
548 1 2.89362 2.53844 12.4531 0.00470706 -0.00386371 -0.00595078
549 1 8.73339 7.56333 -3.35991 0 0 0
550 1 10.9167 6.30277 -3.35997 0 0 0
551 1 10.9167 8.82388 -3.35997 0 0 0
552 1 8.73336 7.56333 -2.03619 0 0 0
553 1 10.9167 6.30277 -2.03624 0 0 0
554 1 10.9167 8.82388 -2.03624 0 0 0
555 1 13.1001 7.56333 -3.35991 0 0 0
556 1 11.6445 7.56333 -1.46262 0 0 0
557 1 13.8279 6.30277 -1.46257 0 0 0
558 1 13.8279 8.82388 -1.46257 0 0 0
559 1 13.1001 7.56333 -2.03619 0 0 0
560 1 11.6699 7.5707 0.0618919 0.000423871 -0.00190341 0.00102079
561 1 13.8296 6.32158 0.112571 0.0118141 0.00653481 0.00414932
562 1 13.8283 8.81912 0.0609021 0.00126303 -0.00411632 0.00518064
563 1 16.0112 7.56333 -1.46262 0 0 0
564 1 14.5314 7.60915 0.56655 0.00191617 -0.0110166 0.00392938
565 1 16.7957 6.30404 0.558333 -0.00316966 0.00110595 0.00289582
566 1 16.7468 8.82405 0.591642 -0.00609233 0.00211273 0.0074819
567 1 16.0421 7.56956 0.120944 0.00763594 0.00181634 -0.00155723
568 1 14.501 7.54119 2.13887 0.000569281 -0.00286152 0.000458904
569 1 16.7435 6.30683 2.12827 -0.00237589 0.00379991 -0.00692212
570 1 16.6986 8.89217 2.09787 0.000662093 0.00661298 -0.000789706
571 1 18.9536 7.57908 0.566683 0.00130364 -0.00216857 -0.00945756
572 1 17.409 7.55494 2.59718 0.00755107 0.000869488 0.00441551
573 1 19.6379 6.27169 2.63832 -0.0085775 0.00966528 0.00546364
574 1 19.6305 8.79869 2.55503 -8.55488e-05 0.000808832 0.00198578
575 1 18.9192 7.56443 2.1925 -0.00268015 0.00304526 -0.00922112
576 1 17.4751 7.58064 4.18112 -0.00114129 0.0020882 -0.00103882
577 1 19.6532 6.33115 4.25284 0.00927169 0.0072813 -0.000830321
578 1 19.6508 8.79728 4.10793 -0.00336522 -0.00251575 0.00071637
579 1 20.3739 7.589 4.74041 -0.00364233 0.00848009 0.00203548
580 1 4.37327 2.54095 10.3701 0.00397736 0.006546 -0.000622689
581 1 20.3894 7.55877 6.2954 0.00240486 -0.00552194 0.00561067
582 1 4.3667 10.0844 -3.35991 0 0 0
583 1 6.55002 8.82388 -3.35997 0 0 0
584 1 6.55002 11.345 -3.35997 0 0 0
585 1 4.36667 10.0844 -2.03619 0 0 0
586 1 6.55004 8.82388 -2.03624 0 0 0
587 1 6.55004 11.345 -2.03624 0 0 0
588 1 8.73339 10.0844 -3.35991 0 0 0
589 1 7.27779 10.0844 -1.46262 0 0 0
590 1 9.46121 8.82388 -1.46257 0 0 0
591 1 9.46121 11.345 -1.46257 0 0 0
592 1 8.73336 10.0844 -2.03619 0 0 0
593 1 7.31323 10.1099 0.0692833 -0.00098512 0.00818674 -0.000870889
594 1 9.4663 8.79825 0.0859882 0.00724277 0.00517923 -0.00288747
595 1 9.45744 11.3604 0.0834545 0.0142179 -0.00582098 0.00867182
596 1 11.6445 10.0844 -1.46262 0 0 0
597 1 10.1503 10.1074 0.5804 -0.00211847 0.00681387 -0.00102486
598 1 12.4153 8.8091 0.605425 7.55169e-05 -0.00657818 -0.001699
599 1 12.3427 11.3328 0.585204 -0.00922966 0.00233695 0.00884381
600 1 11.6449 10.1328 0.0675114 0.00399358 -0.00256167 0.00474002
601 1 10.2081 10.0341 2.157 0.0055863 -0.00171543 0.00196233
602 1 12.3555 8.79864 2.1153 0.0102491 0.00986514 -0.00432218
603 1 12.3243 11.2939 2.16113 -0.0027821 0.00193568 -0.00145843
604 1 14.503 10.0745 0.579687 -0.00266868 0.00283606 -0.00234881
605 1 13.0857 10.135 2.63268 0.0016139 -0.00290451 0.00361938
606 1 15.2628 8.88021 2.62928 0.00609321 0.00410506 -0.0032541
607 1 15.2278 11.3307 2.65191 -0.00750917 0.00123205 0.00365281
608 1 14.5124 10.0775 2.103 0.0076739 0.00418483 -0.006199
609 1 13.1378 10.1198 4.16772 0.00327981 0.00673209 0.00918943
610 1 15.2665 8.8555 4.13946 -0.00119434 0.000453443 -0.00706462
611 1 15.243 11.3569 4.24048 0.00314363 -2.72746e-05 -0.00349475
612 1 17.4348 10.1549 2.62683 -0.00592677 0.00734352 -0.00107814
613 1 15.9685 10.1041 4.69282 -0.00173433 0.00366673 0.00540537
614 1 18.1926 8.78784 4.70175 -0.00450293 -0.00202342 -0.00301488
615 1 18.1407 11.3721 4.72974 0.000584654 -0.000669505 -0.00364466
616 1 17.4492 10.0769 4.14845 0.00292983 0.00655388 -0.00688027
617 1 16.0116 10.1466 6.27007 0.00484329 -0.00415017 0.0120642
618 1 18.2128 8.84318 6.23129 -0.00236222 0.000461693 0.00591379
619 1 18.1355 11.3485 6.24062 0.002451 -0.00464078 0.00299546
620 1 20.3251 10.0893 4.66885 -0.00167346 0.000994644 -0.00364277
621 1 18.9567 10.1101 6.70522 -0.000223982 -0.00466459 0.00142437
622 1 21.1324 8.82643 6.8106 0.00111651 0.00687281 0.000939202
623 1 21.1947 11.3437 6.7467 -0.000592579 -0.000942567 0.00656336
624 1 20.401 10.0622 6.26737 0.00627778 0.00855654 0.00740216
625 1 18.9072 10.1092 8.3047 0.000973609 0.00409659 -0.00419128
626 1 21.0728 8.80849 8.33825 0.000716779 0.00126072 7.7808e-05
627 1 21.1508 11.3327 8.28758 -0.00529791 -0.00762569 0.00373851
628 1 5.11626 3.77998 10.9319 0.00357997 0.00152096 0.00340017
629 1 5.06657 1.24683 10.9832 0.00260714 -0.00753743 0.000266901
630 1 1.38543e-05 12.6055 -3.35991 0 0 0
631 1 2.18333 11.345 -3.35997 0 0 0
632 1 2.18333 13.8661 -3.35997 0 0 0
633 1 21.8334 12.6055 -2.03619 0 0 0
634 1 2.18335 11.345 -2.03624 0 0 0
635 1 2.18335 13.8661 -2.03624 0 0 0
636 1 4.3667 12.6055 -3.35991 0 0 0
637 1 2.9111 12.6055 -1.46262 0 0 0
638 1 5.09452 11.345 -1.46257 0 0 0
639 1 5.09452 13.8661 -1.46257 0 0 0
640 1 4.36667 12.6055 -2.03619 0 0 0
641 1 2.8476 12.6019 0.0521473 0.000705632 -0.000282426 0.00160773
642 1 5.09179 11.3566 0.016916 0.00255547 -0.00105936 0.00438929
643 1 5.09817 13.9027 0.0366904 0.00286409 -0.00386287 -0.00417585
644 1 7.27779 12.6055 -1.46262 0 0 0
645 1 5.8025 12.595 0.56266 -0.00751481 -0.00448079 -0.00500916
646 1 8.02467 11.333 0.625652 0.00270271 -0.00698417 0.00459197
647 1 8.00737 13.8512 0.587475 -0.00435737 0.00129094 0.00166138
648 1 7.29056 12.6159 0.10361 -0.00484438 -0.00669189 0.00134913
649 1 5.85597 12.6385 2.10352 -0.00271216 -0.00074197 -0.00586118
650 1 7.97381 11.3236 2.16721 -0.00270942 0.00364305 -0.00750253
651 1 7.95646 13.9102 2.13812 0.00194274 0.00420395 -0.00973545
652 1 10.1546 12.5857 0.563376 0.0114109 0.00735829 0.000995112
653 1 8.68873 12.6157 2.64612 -0.00499939 0.0013928 -0.000670595
654 1 10.9209 11.3104 2.68709 0.00948738 0.00185105 -0.00909398
655 1 10.8748 13.7923 2.65135 -0.00771668 0.00479439 0.00902748
656 1 10.1404 12.6305 2.13626 -0.00761673 -0.00371716 -0.00190718
657 1 8.74838 12.5965 4.22804 0.00614723 -0.00162185 0.0108723
658 1 10.962 11.3404 4.2144 -0.00187578 -0.00460227 0.00999046
659 1 10.8931 13.8727 4.20256 0.00688983 0.00241401 -0.000920321
660 1 13.0929 12.6094 2.65422 0.00388987 0.00786744 -0.00420011
661 1 11.6458 12.6132 4.77749 0.0059245 -0.000529395 0.000500361
662 1 13.8325 11.3454 4.69379 0.00162014 0.00460019 -0.00224842
663 1 13.8337 13.9074 4.72534 -0.00994159 0.00143998 0.00511822
664 1 13.0994 12.6401 4.16574 -0.00559468 0.00125741 -0.000703609
665 1 11.68 12.6472 6.27441 0.0031941 0.000641325 -0.011317
666 1 13.8228 11.3487 6.25982 0.00231293 0.0106986 0.00344936
667 1 13.774 13.9115 6.26947 -0.000648309 -0.00298642 -0.00331312
668 1 15.976 12.6443 4.69057 0.000348791 0.00462504 -0.00395417
669 1 14.5572 12.6839 6.79601 0.00340591 -0.00549082 -0.0043549
670 1 16.7828 11.3108 6.75787 -0.004195 -0.00670188 0.000679044
671 1 16.7592 13.8399 6.68861 -0.00481497 -0.000371467 -0.0100531
672 1 15.9909 12.618 6.23587 0.0017849 0.00489413 0.0060976
673 1 14.5502 12.6224 8.29353 0.00891105 0.000824121 0.0227868
674 1 16.7511 11.4191 8.32468 -0.00715363 -0.0026534 -0.0017379
675 1 16.7725 13.8531 8.30866 0.0025562 0.00382274 0.00461298
676 1 18.9332 12.6009 6.79739 -0.00438755 0.00225807 -0.00859088
677 1 17.4718 12.5984 8.84981 0.0018152 -0.00176167 -0.00314769
678 1 19.6646 11.3465 8.83432 0.00509333 0.000351108 0.00503938
679 1 19.6639 13.8144 8.87207 0.000482569 -0.00270826 0.0021798
680 1 18.9605 12.608 8.30819 -0.000684315 0.00209383 0.00611979
681 1 17.5008 12.6243 10.4469 0.00237017 0.00516266 0.00136431
682 1 19.683 11.3756 10.3793 -0.00636437 -0.00832322 0.0031455
683 1 19.6608 13.8477 10.3409 -0.00140963 0.00506535 -0.00462976
684 1 2.94015 2.51852 10.9597 0.000110883 -0.00241366 -0.00226314
685 1 20.4289 12.5801 10.9251 0.00496313 0.000758138 0.000169077
686 1 4.35985 2.4677 8.8565 -0.00142027 0.00748309 0.000588937
687 1 20.3708 12.627 12.4615 0.00304639 0.00588041 0.000337421
688 1 1.38543e-05 15.1267 -3.35991 0 0 0
689 1 0.72783 13.8661 -1.46257 0 0 0
690 1 0.72783 16.3872 -1.46257 0 0 0
691 1 21.8334 15.1267 -2.03619 0 0 0
692 1 0.723553 13.8635 0.0438048 0.00525948 -0.00498302 0.00424232
693 1 0.722176 16.386 0.0896584 -0.00276641 -0.00290726 0.00435688
694 1 2.9111 15.1267 -1.46262 0 0 0
695 1 1.45888 15.1205 0.612768 -0.00381203 0.00576327 -0.000608011
696 1 3.58222 13.8329 0.54047 -0.00287407 0.00234176 0.00289629
697 1 3.65926 16.3957 0.611102 -0.00537681 0.00382046 0.00824166
698 1 2.91973 15.1955 0.0220884 0.0072196 -0.00891299 -0.00164251
699 1 1.40647 15.1362 2.11078 -0.00125134 -0.00576677 -0.00891663
700 1 3.61423 13.8326 2.09794 0.0034586 0.00845715 0.00411307
701 1 3.58377 16.4157 2.16561 0.00675832 -0.000183036 0.00356421
702 1 5.84149 15.1611 0.602343 -0.000422623 0.00586126 0.00687799
703 1 4.34152 15.1729 2.63196 0.00191811 -0.00486091 0.00086146
704 1 6.55675 13.889 2.65227 0.00325596 -0.0114794 0.00243999
705 1 6.58941 16.442 2.61376 -0.00448574 0.00133532 -0.00477465
706 1 5.83505 15.2081 2.12685 0.00186927 0.00142449 0.00108322
707 1 4.36254 15.2332 4.15932 0.00403174 0.00142037 0.00156651
708 1 6.5088 13.9727 4.25088 -0.000994014 -0.00375081 0.000375924
709 1 6.52744 16.4191 4.25104 0.00327131 -0.00397624 -0.00411728
710 1 8.75353 15.138 2.66138 -0.00293174 -0.00102813 0.000649042
711 1 7.26642 15.1141 4.72863 -0.0143306 0.00341266 -0.00435805
712 1 9.47713 13.8517 4.76494 0.0132532 0.00179975 0.00269303
713 1 9.40846 16.3521 4.71548 0.0060126 -0.00246429 0.00467003
714 1 8.70987 15.1059 4.19311 0.00613648 -0.00398136 0.00337303
715 1 7.29498 15.1196 6.2854 0.00412744 0.00266511 -0.00120589
716 1 9.43097 13.8517 6.32031 -0.00275082 0.00460657 -0.00137772
717 1 9.51978 16.401 6.28066 0.00136137 -0.000878309 -0.006849
718 1 11.6359 15.1444 4.76774 0.00444767 -0.00185966 0.00180641
719 1 10.1647 15.1311 6.8007 0.00232871 -0.00937345 -0.004826
720 1 12.3498 13.8847 6.82789 0.0142138 0.00226112 -0.00385244
721 1 12.3781 16.3372 6.76679 -0.00322833 -0.0104525 -0.00306318
722 1 11.6225 15.149 6.29912 -0.00273783 -0.00125248 -0.00072933
723 1 10.1508 15.1441 8.3151 -0.000847868 -0.00299351 -0.00235159
724 1 12.3918 13.8381 8.3413 0.0105758 0.00264423 -0.00339877
725 1 12.3936 16.4038 8.34674 0.00502608 0.000405567 -0.00183267
726 1 14.5221 15.0998 6.77703 -0.00611702 0.00163561 0.00344896
727 1 13.1279 15.0999 8.86205 0.0057592 0.00551196 0.00345338
728 1 15.3161 13.9027 8.78786 0.00570568 -3.34413e-05 0.000888143
729 1 15.239 16.4016 8.82028 -0.00381981 0.00155777 -0.00218468
730 1 14.532 15.0782 8.34039 -0.00510692 0.00068087 0.000176848
731 1 13.0665 15.1142 10.4372 -0.0020046 0.00183859 0.000903386
732 1 15.2783 13.8728 10.4047 0.00138541 -0.000613297 0.00824093
733 1 15.2475 16.4225 10.341 -0.000459135 -0.000433409 0.00349051
734 1 17.4866 15.1568 8.83293 -0.00344374 0.000561014 -0.000180618
735 1 16.0152 15.1031 10.8717 -0.00324551 -0.00777662 0.00121874
736 1 18.2596 13.8842 10.9072 0.00182052 0.010616 0.00432681
737 1 18.1845 16.4099 10.8468 -0.00216009 -0.00271797 -0.00151221
738 1 17.4961 15.1818 10.4107 -0.00112811 0.00276465 -0.000557289
739 1 16.0109 15.1483 12.4341 0.00111599 -0.00714063 0.00733802
740 1 18.2 13.8538 12.514 0.00437062 0.00200915 -0.00472702
741 1 18.2753 16.384 12.4035 -0.00068403 -0.0070263 -0.00196861
742 1 20.38 15.1197 10.876 -0.00330033 0.00360465 0.00537344
743 1 18.9431 15.1072 12.9883 -0.00533095 0.00773259 -0.00126289
744 1 21.1211 13.8602 12.9809 -0.00975363 0.0136083 0.000217276
745 1 21.1715 16.3498 12.9757 -3.83145e-06 0.0088631 -0.00664239
746 1 20.3802 15.1418 12.5005 -0.00770255 -0.00327405 0.00301076
747 1 18.9097 15.1566 14.6652 0.00145382 0.00337749 -0.00478879
748 1 21.1261 13.9294 14.4736 0.000332953 0.00251342 0.00674289
749 1 21.1038 16.3858 14.5181 0.000343414 0.00028198 -0.000545079
750 1 2.1997 3.735 10.416 -0.00431437 -0.0101712 -0.000699057
751 1 2.21791 1.29545 10.3935 0.0032777 -0.000254026 0.00379058
752 1 1.44093 17.6319 0.558047 -0.0033476 0.000670496 -0.00224076
753 1 21.8039 17.6669 2.63171 -0.00224333 -0.00187638 0.00655136
754 1 2.11285 16.3881 2.67472 -0.000699052 0.00782462 0.00417904
755 1 2.1236 18.8907 2.61662 -0.00807637 0.00467217 0.00350546
756 1 1.40195 17.7196 2.10118 0.00318182 -0.00270989 -0.00235749
757 1 21.7839 17.6274 4.12182 -0.0014425 -0.000834895 0.00309049
758 1 2.1706 16.4349 4.19423 0.00363794 -0.00354132 0.00305825
759 1 2.16534 18.9004 4.12507 0.0051904 -0.00132868 0.00137024
760 1 4.38767 17.7134 2.63437 -0.0034972 0.00071405 -0.00236806
761 1 2.90922 17.6701 4.72767 -0.00765947 -0.00248757 0.000981973
762 1 5.14336 16.424 4.74652 -0.00233163 -0.0017178 0.00227366
763 1 5.09483 18.9527 4.77105 0.00247316 -0.00394852 -0.00435782
764 1 4.35369 17.6871 4.20819 0.000720007 0.00381747 -0.0111716
765 1 2.94066 17.6725 6.2735 0.00474266 0.00405654 -0.00679938
766 1 5.13621 16.414 6.26444 0.00347283 0.000820271 0.00222403
767 1 5.11488 18.9161 6.31048 -0.00773887 -0.00293622 -0.00331299
768 1 7.27671 17.6576 4.78023 0.00637528 0.000636974 0.00347028
769 1 5.83241 17.7395 6.79759 0.000566366 0.00239801 -0.00141436
770 1 8.01121 16.387 6.75174 -0.00388146 -0.00331774 -0.00887446
771 1 8.00634 18.9037 6.74379 -0.00053804 0.00115124 0.00257876
772 1 7.2601 17.7049 6.27204 0.0112181 -0.0088808 -0.003584
773 1 5.90205 17.6304 8.32534 -0.00177169 0.000168733 0.00212948
774 1 8.0595 16.4291 8.35508 -0.0102821 -0.00702748 0.00757256
775 1 8.00262 18.897 8.27479 -0.0148194 0.000633322 -0.00160676
776 1 10.174 17.6482 6.83662 -0.00487293 -0.00516149 9.14649e-05
777 1 8.74715 17.6465 8.86662 0.00295992 -0.00145441 -0.00558863
778 1 10.9458 16.3596 8.89191 0.001444 0.00379222 0.00469604
779 1 10.8895 18.8814 8.82097 -0.000296702 0.00151358 -0.00172341
780 1 10.1704 17.651 8.40544 -0.00675524 -0.00274578 6.40803e-05
781 1 8.74545 17.6653 10.3965 0.00557332 -0.00377162 0.00135125
782 1 10.9352 16.3743 10.3901 -0.0051726 0.000260644 0.00144644
783 1 10.9542 18.9333 10.3501 -0.0033595 0.00545413 0.00638782
784 1 13.1334 17.6851 8.84011 -0.00971554 -0.00628306 -0.00171906
785 1 11.6622 17.6896 10.8881 -0.00600587 -0.00344571 -0.0027747
786 1 13.8206 16.4386 10.8673 0.000628233 -0.00117695 -0.00554339
787 1 13.8909 18.9111 10.9773 0.00665535 -0.000903546 0.000978424
788 1 13.1239 17.6584 10.3475 0.00136768 0.00175184 -0.00163337
789 1 11.6808 17.6507 12.4773 -0.0036263 9.73394e-05 0.00148287
790 1 13.8708 16.4005 12.4639 0.00104789 0.00324205 2.39656e-05
791 1 13.8688 18.8997 12.5071 1.04046e-05 -0.00813735 -0.00330128
792 1 15.9556 17.6507 10.8989 0.00409334 -0.00119358 0.00310929
793 1 14.5656 17.6308 13.0271 0.00711737 0.00438755 0.00143045
794 1 16.7991 16.3572 12.88 0.00434752 0.0112253 0.00521065
795 1 16.7946 18.9096 12.9009 0.000371073 0.00402449 -0.000515616
796 1 16.054 17.7025 12.4321 -0.000931373 0.00750301 -0.0132711
797 1 14.5676 17.632 14.6331 0.00388735 0.0098223 -0.00590958
798 1 16.7469 16.376 14.3918 -0.00350516 0.00797381 -0.00725438
799 1 16.7786 18.9908 14.4138 0.00120595 -0.00361824 -0.000247125
800 1 18.9862 17.59 12.9721 -0.00354861 0.00504442 0.00115674
801 1 17.3983 17.6769 14.9106 -0.000289183 -1.29682e-05 -0.00131386
802 1 19.6235 16.4167 15.0657 -0.0077442 0.0090596 -0.00931429
803 1 19.719 18.9186 14.9515 -0.000339009 -0.00322426 0.0080591
804 1 18.8999 17.6249 14.5285 -0.00978134 0.00546034 -0.000887634
805 1 16.8363 17.6553 16.5172 0.00418626 0.00137506 -0.00119807
806 1 20.2926 16.4562 16.6235 0.00436017 -0.00592906 0.00900841
807 1 20.3029 18.8827 16.5652 0.00195997 -0.00208087 -0.00940672
808 1 0.754645 17.5706 17.3504 0.00147287 0.00572063 -0.00520957
809 1 0.0520042 2.54728 10.389 -6.73432e-05 -0.00277544 -0.000769493
810 1 0.00971262 20.2216 2.68416 -0.00305643 0.00286639 0.00698905
811 1 0.688241 18.8416 4.70359 0.00125889 -0.001611 -0.0003584
812 1 0.695091 21.4309 4.70406 0.00194094 -0.0017842 -0.00487197
813 1 21.7914 20.1349 4.18266 0.00583834 0.000506349 0.00638074
814 1 0.744999 18.9474 6.25447 0.00310072 0.000333423 0.00445683
815 1 0.72886 21.4281 6.26415 -0.000570885 0.00175977 0.00622412
816 1 2.92706 20.1558 4.6882 0.00354171 -0.0075171 -0.000380642
817 1 1.48169 20.2006 6.77417 0.00228069 -0.00209621 0.00499452
818 1 3.61265 18.8559 6.81355 -0.00253893 0.00210429 0.00376535
819 1 3.64229 21.4002 6.78009 0.0109215 -0.00181904 0.00159981
820 1 2.89418 20.1667 6.23422 -0.00245541 0.00901811 0.00331671
821 1 1.49716 20.1564 8.29779 -0.00366038 -0.00943086 0.0118917
822 1 3.71037 18.8428 8.26697 0.0126298 0.00210476 0.00150904
823 1 3.67852 21.3817 8.33261 0.00238828 -0.00433967 0.00406194
824 1 5.83798 20.1985 6.73413 0.00353608 0.000392924 8.11959e-05
825 1 4.41172 20.1323 8.77277 -0.000994253 -0.00377875 -0.00592397
826 1 6.62262 18.8893 8.88019 -7.86794e-06 -0.00603555 -0.00785604
827 1 6.57601 21.4447 8.82483 0.0075528 -0.0028139 0.00159777
828 1 5.88791 20.1484 8.3336 -0.000862672 -0.00330026 2.95583e-06
829 1 4.46582 20.1758 10.398 -0.00186237 -0.00190965 0.00459381
830 1 6.62989 18.8707 10.3594 0.00706707 0.00308604 -0.00508388
831 1 6.59741 21.4102 10.4034 -0.00127063 -0.000618742 -0.00559336
832 1 8.77525 20.1757 8.83287 0.00231838 0.00449515 0.00203157
833 1 7.26884 20.191 10.943 0.000105515 0.00336954 0.00133416
834 1 9.48414 18.9688 10.8937 -0.0016654 -0.00535958 0.00507945
835 1 9.49161 21.4499 10.8907 0.000268317 0.00627941 0.00272178
836 1 8.78709 20.1491 10.4103 -0.00537045 0.00289916 0.0017252
837 1 7.31914 20.1487 12.4662 0.00158536 0.00535031 0.00215859
838 1 9.49258 18.8563 12.4725 -0.0050331 -0.0107899 0.00356334
839 1 9.54544 21.4258 12.4328 0.00272748 -0.00771854 0.00350286
840 1 11.6616 20.1385 10.9479 -0.00619829 0.00655832 0.00419128
841 1 10.2017 20.1468 12.9921 0.00674118 0.00306925 -0.0011492
842 1 12.3858 18.8952 12.9236 -0.00115814 0.0026404 0.00487213
843 1 12.4089 21.4018 12.9576 -0.00625531 -0.0151137 -0.00327854
844 1 11.6338 20.1912 12.4209 0.00969328 0.00549765 -0.00447786
845 1 10.2166 20.2156 14.6165 0.00466801 -0.00172957 -0.000443721
846 1 12.3485 18.9431 14.4574 0.00404292 -0.00383413 -0.00104385
847 1 12.4394 21.4391 14.4682 0.00700786 -0.00141553 -0.000940293
848 1 14.5912 20.2336 12.9943 0.00557596 -0.00776319 0.00814387
849 1 13.0492 20.2332 15.0491 0.00525565 -0.00115015 0.000442945
850 1 15.3664 18.9956 15.0172 0.00370991 0.000789643 0.0042953
851 1 15.3133 21.4137 15.1229 -0.00601763 -0.00314404 -0.0107022
852 1 14.5724 20.2057 14.596 -0.00230379 0.0104985 -0.00785862
853 1 12.4923 20.2198 16.6457 0.00137006 -0.00159696 0.00137614
854 1 15.9256 18.9236 16.5803 -0.00304664 -0.00363393 0.00461536
855 1 15.8906 21.3804 16.6641 0.0101722 0.00677206 0.0106594
856 1 17.4166 20.181 15.0027 -0.0015203 0.00236205 -0.00419163
857 1 18.2089 20.1808 17.2312 0.0070805 -0.00578923 -0.000827945
858 1 18.9065 18.9132 17.1576 0.00600407 0.000762704 -0.00657021
859 1 19.0059 21.3812 17.2457 0.00532512 -0.00360832 -0.00564162
860 1 16.8071 20.1524 16.6424 0.00442621 -0.00676741 0.000599529
861 1 0.674152 20.1275 17.2456 0.0068728 0.00155495 0.00242331
862 1 1.52794 2.5276 8.26531 0.00710404 0.00287415 -0.00594968
863 1 2.20127 3.79903 8.85474 -0.00224337 -0.00216318 -0.00117814
864 1 2.20627 21.4507 8.85753 0.00499673 -0.00402449 -0.000537995
865 1 2.1854 1.26696 8.87532 -0.00267491 -0.0024657 0.00324459
866 1 0.052338 2.48798 8.80429 0.000569969 -0.00592739 -0.00152573
867 1 2.20198 21.3932 10.3886 -0.00142479 -0.00697777 -0.0134283
868 1 1.4118 2.51398 6.75545 0.00184259 -0.0112351 -0.0061407
869 1 0.621342 0.0684048 17.3217 -0.0035323 0.000957002 -0.0135441
870 1 5.12856 21.4192 10.8789 0.00233684 8.79973e-05 0.00182213
871 1 16.894 22.6356 16.5982 -0.0045521 -0.000322729 0.00450415
872 1 18.916 1.21003 17.3339 0.00524978 -0.0049555 0.00274052
873 1 5.10278 21.381 12.4834 0.00987676 -0.000150795 0.00349523
874 1 18.2471 0.00695624 17.2376 0.0060142 -0.00817338 0.00517899
875 1 17.4104 0.0134702 14.9917 -0.0051158 -0.000619087 0.00401668
876 1 8.05239 21.3952 12.9258 -0.0117096 0.0056515 0.00678801
877 1 15.9305 1.23664 16.6542 0.000867656 0.00191572 0.000908832
878 1 12.4799 22.6824 16.5638 0.000996586 0.00180067 -0.00564284
879 1 7.9873 21.4257 14.472 -0.003798 -0.00354705 -0.0019157
880 1 14.5922 22.6866 14.6684 -0.00275402 -0.00152079 -0.00302169
881 1 15.3654 1.27203 15.1406 0.000200071 0.00755576 0.00148748
882 1 10.9696 21.5061 15.0258 -0.00206495 -0.00171528 -0.00175514
883 1 13.0617 22.677 15.0528 -0.00336699 0.0131987 0.00902528
884 1 14.5851 0.0052778 13.0125 0.0008329 0.00129723 -0.00413139
885 1 11.5523 21.4949 16.5919 0.000330841 0.00624556 0.00725364
886 1 12.4503 1.25189 14.4744 0.00320061 0.00537663 0.00663508
887 1 10.2061 0.0152479 14.5482 -0.00693184 -0.0025405 -0.0022552
888 1 14.6116 21.4529 17.406 -0.00107293 0.0026447 -0.00486643
889 1 11.6288 22.6891 12.4799 0.00676505 0.00154778 -0.00800329
890 1 12.3754 1.25794 12.9724 -0.00729153 -0.00489172 0.0114127
891 1 13.1001 2.65399e-13 -3.35991 0 0 0
892 1 15.2834 1.26055 -3.35997 0 0 0
893 1 13.1001 8.31855e-14 -2.03619 0 0 0
894 1 15.2834 1.26055 -2.03624 0 0 0
895 1 17.4668 3.18947e-13 -3.35991 0 0 0
896 1 16.0112 1.70418e-13 -1.46262 0 0 0
897 1 18.1946 1.26055 -1.46257 0 0 0
898 1 17.4667 2.74546e-13 -2.03619 0 0 0
899 1 15.9996 0.0670692 0.1252 -0.00132944 -0.00423381 -0.00316381
900 1 18.1687 1.27419 0.100159 0.000720996 -0.0101874 -0.00771339
901 1 20.3779 7.53824e-14 -1.46262 0 0 0
902 1 18.9402 0.0102927 0.603075 -0.00123734 -0.00132901 0.0067988
903 1 21.105 1.28356 0.660589 -0.000567558 -0.00427985 0.00464939
904 1 20.3845 0.0608619 0.0794218 0.00287028 -0.00444286 -0.00446713
905 1 18.8623 22.668 2.1563 0.00671884 0.00049462 -0.00339329
906 1 21.0756 1.2765 2.15892 0.00741486 0.00369117 -0.00493314
907 1 10.2266 22.6567 13.001 -0.0023972 0.00465641 -0.0116815
908 1 8.73339 2.52111 -3.35991 0 0 0
909 1 10.9167 1.26055 -3.35997 0 0 0
910 1 10.9167 3.78166 -3.35997 0 0 0
911 1 8.73336 2.52111 -2.03619 0 0 0
912 1 10.9167 1.26055 -2.03624 0 0 0
913 1 10.9167 3.78166 -2.03624 0 0 0
914 1 13.1001 2.52111 -3.35991 0 0 0
915 1 11.6445 2.52111 -1.46262 0 0 0
916 1 13.8279 1.26055 -1.46257 0 0 0
917 1 13.8279 3.78166 -1.46257 0 0 0
918 1 13.1001 2.52111 -2.03619 0 0 0
919 1 11.6527 2.54229 0.031436 -0.0015079 0.000934905 0.00467472
920 1 13.8128 1.27357 0.0513911 -0.000276012 -0.00037966 -0.000884816
921 1 13.8156 3.78546 0.0480297 0.00167369 0.00527267 -0.00083139
922 1 16.0112 2.52111 -1.46262 0 0 0
923 1 14.5803 2.53292 0.557431 0.000991955 0.00414944 -0.00455715
924 1 16.7492 1.24791 0.58179 -0.00701644 -0.0112955 -0.00650888
925 1 16.713 3.73592 0.630931 7.10377e-05 -0.00570722 -0.000547244
926 1 15.995 2.59042 0.017447 -0.00151679 0.0010306 0.00834915
927 1 14.5586 2.5143 2.11512 -0.00198628 0.00322848 0.00110562
928 1 16.6861 1.25357 2.12678 -0.00189251 -0.00138536 -0.0030608
929 1 16.7059 3.79385 2.15798 0.0014028 0.0054667 0.0031406
930 1 18.9005 2.48745 0.666235 0.00350118 0.00192732 -0.00143609
931 1 17.432 2.50741 2.64286 0.00401052 0.00134275 0.00193645
932 1 19.622 1.27834 2.60019 0.00340083 -0.00360386 -0.00366457
933 1 19.6632 3.76279 2.6585 -0.000794245 -0.0120713 -0.00322551
934 1 18.9122 2.4677 2.12271 0.000324625 0.00600903 0.000547983
935 1 17.466 2.46456 4.168 0.00123221 -0.00572307 -0.00766961
936 1 19.6297 1.17841 4.15056 -5.50259e-05 -0.00431699 0.00693532
937 1 19.6378 3.75196 4.19807 0.00390511 0.000267785 0.00218439
938 1 11.6204 0.0246801 10.9555 0.00595659 -0.00522871 0.0009586
939 1 20.3392 2.45703 4.7237 0.00518026 -0.00887033 0.00125718
940 1 9.4276 1.3079 12.5919 -0.00403255 0.000175143 0.00170121
941 1 20.3714 2.50938 6.25414 0.00110881 0.00919894 -0.000107513
942 1 4.3667 5.04222 -3.35991 0 0 0
943 1 6.55002 3.78166 -3.35997 0 0 0
944 1 6.55002 6.30277 -3.35997 0 0 0
945 1 4.36667 5.04222 -2.03619 0 0 0
946 1 6.55004 3.78166 -2.03624 0 0 0
947 1 6.55004 6.30277 -2.03624 0 0 0
948 1 8.73339 5.04222 -3.35991 0 0 0
949 1 7.27779 5.04222 -1.46262 0 0 0
950 1 9.46121 3.78166 -1.46257 0 0 0
951 1 9.46121 6.30277 -1.46257 0 0 0
952 1 8.73336 5.04222 -2.03619 0 0 0
953 1 7.27482 5.06957 0.0214445 -0.00476854 -0.0044669 -0.00690171
954 1 9.47728 3.76826 0.0562917 0.00857049 0.00571002 -0.000181561
955 1 9.4248 6.35837 0.0915716 -0.0152225 0.005247 -0.00326561
956 1 11.6445 5.04222 -1.46262 0 0 0
957 1 10.1339 5.04469 0.591539 0.00042384 -0.000172337 0.00208735
958 1 12.3885 3.77152 0.550457 0.000572793 0.000839497 0.000370168
959 1 12.3033 6.2702 0.598272 0.00172708 0.00201785 0.00588644
960 1 11.596 4.99148 0.0451117 -0.0068025 -0.00522354 0.00258494
961 1 10.2582 5.04345 2.09482 -0.00223815 0.00906642 0.00247529
962 1 12.3967 3.76756 2.11891 -0.00255779 0.000361424 0.00430801
963 1 12.4039 6.35866 2.11322 0.00878546 0.00283571 0.00413697
964 1 14.5402 5.06473 0.537596 0.0012481 0.00392067 -0.00678263
965 1 13.0808 5.03 2.61279 0.00709043 0.00418229 0.00473343
966 1 15.236 3.79353 2.61699 -0.00334587 0.000314743 -0.000195388
967 1 15.2943 6.28887 2.55759 -0.00379267 -0.00778254 -0.0003813
968 1 14.5287 5.04945 2.08212 0.0010268 -0.00451058 0.00442566
969 1 13.1132 4.97403 4.15345 -0.0109172 -0.00237932 0.00310984
970 1 15.2846 3.77218 4.21137 0.0060999 0.00386166 -0.00199736
971 1 15.2622 6.31925 4.16795 0.00392858 -0.00280538 0.000334897
972 1 17.478 5.01603 2.64519 -0.000626868 -0.0076121 -0.013997
973 1 15.9609 5.02364 4.64066 0.000336415 -0.00500691 -0.00207706
974 1 18.1951 3.76441 4.72629 -0.000650205 0.00519354 -0.00210631
975 1 18.1906 6.2968 4.7522 0.00169193 0.0061077 0.000964203
976 1 17.4489 5.00016 4.222 -0.00362765 0.0141594 0.00200221
977 1 15.9618 4.99091 6.21383 0.00159481 -0.00131757 0.000825591
978 1 18.2185 3.79746 6.32741 -0.00222062 0.00183708 -0.00252899
979 1 18.1683 6.38255 6.29911 0.00558906 -0.00845256 0.00398687
980 1 20.3745 4.99918 4.68246 -0.00156557 0.00137577 0.00448818
981 1 18.9122 5.02703 6.82869 -0.000586769 -0.00709412 0.00823937
982 1 21.1009 3.78202 6.76144 -0.00143302 0.00582349 -0.00324796
983 1 21.1774 6.33529 6.7397 0.00317952 -0.000542217 -0.00661258
984 1 20.3632 5.04278 6.25681 -0.00386963 -0.00118892 0.000275866
985 1 18.9875 5.03277 8.37798 0.00237362 0.00559033 0.00410686
986 1 21.1484 3.7211 8.30754 -0.00800623 -0.00161565 -0.00603266
987 1 21.1411 6.253 8.30588 0.000561561 -0.00353446 0.00211317
988 1 7.28944 22.6805 12.4712 -0.00383411 0.00263074 0.000363747
989 1 8.70626 0.0126917 10.3575 0.00554932 -0.00197028 -0.00574134
990 1 1.38543e-05 7.56333 -3.35991 0 0 0
991 1 2.18333 6.30277 -3.35997 0 0 0
992 1 2.18333 8.82388 -3.35997 0 0 0
993 1 21.8334 7.56333 -2.03619 0 0 0
994 1 2.18335 6.30277 -2.03624 0 0 0
995 1 2.18335 8.82388 -2.03624 0 0 0
996 1 4.3667 7.56333 -3.35991 0 0 0
997 1 2.9111 7.56333 -1.46262 0 0 0
998 1 5.09452 6.30277 -1.46257 0 0 0
999 1 5.09452 8.82388 -1.46257 0 0 0
1000 1 4.36667 7.56333 -2.03619 0 0 0
1001 1 2.93262 7.52 0.0610724 0.00218221 0.00419894 -0.00238539
1002 1 5.0329 6.2769 0.0602413 -0.0071768 -0.00586539 -0.00775482
1003 1 5.11494 8.85548 0.00594626 -0.00813411 0.00162945 0.0037525
1004 1 7.27779 7.56333 -1.46262 0 0 0
1005 1 5.82116 7.5502 0.552639 0.00638309 0.0150382 0.00297983
1006 1 8.00462 6.294 0.588747 -0.00212992 -0.0016408 0.000943165
1007 1 8.00918 8.84989 0.571594 -0.000210984 -0.000711537 0.00318364
1008 1 7.28761 7.56577 0.0546954 0.00194576 -0.000174963 0.00418209
1009 1 5.80158 7.56687 2.08406 -0.00681059 -0.0004308 0.000888572
1010 1 8.05297 6.33286 2.08426 -0.00848171 0.00250796 -0.00714502
1011 1 8.01714 8.85517 2.16648 0.00418572 0.00292745 -0.000372049
1012 1 10.1641 7.63915 0.621578 -0.0021008 0.00309505 0.000988429
1013 1 8.71153 7.58862 2.71911 0.00286485 0.0033262 0.00411382
1014 1 10.9694 6.33781 2.64105 -0.00321413 0.00489774 -0.00719876
1015 1 10.8708 8.85331 2.66566 0.00331997 -0.00419514 0.00790866
1016 1 10.2009 7.55661 2.18459 -0.00392699 0.000217598 -0.00316856
1017 1 8.69326 7.51236 4.21662 -0.00453507 0.00275742 -0.00205398
1018 1 10.975 6.26013 4.18429 0.00732691 -0.00574761 -0.00096983
1019 1 10.9031 8.80694 4.2041 0.00375861 -0.00311588 0.0140803
1020 1 13.1178 7.5735 2.61202 -0.00577639 0.00179955 -0.00148481
1021 1 11.6761 7.54912 4.72263 0.00396066 0.00527383 0.000592131
1022 1 13.8554 6.26664 4.66392 0.0052288 0.00437274 -0.00526764
1023 1 13.829 8.83781 4.72389 -0.00508302 -0.00272434 -0.00483484
1024 1 13.1079 7.5967 4.18016 -0.00628775 0.0127455 0.00392875
1025 1 11.6211 7.57129 6.26892 -0.00111078 0.00757644 -0.00444775
1026 1 13.8492 6.38713 6.16416 0.00628302 -0.00588679 -0.00492329
1027 1 13.8327 8.83536 6.27182 0.00147712 0.00394662 0.00266809
1028 1 16.0147 7.56396 4.66291 -0.0046982 0.00367803 -0.00602343
1029 1 14.526 7.52876 6.72286 -0.00324941 0.0055984 -0.00948434
1030 1 16.7042 6.25799 6.72049 0.00992636 -0.00425529 -0.00140972
1031 1 16.7584 8.89702 6.74184 -0.000181066 -0.000718825 0.00920314
1032 1 15.9428 7.60948 6.23552 0.00852605 0.00203754 0.00174114
1033 1 14.5617 7.57901 8.28258 0.00183097 -0.00102371 0.00666202
1034 1 16.7718 6.34584 8.29207 -0.000596767 -0.00225462 0.00180639
1035 1 16.7405 8.84304 8.31585 -0.0044165 0.00339101 0.000128009
1036 1 18.9386 7.59073 6.79566 1.91713e-06 0.00458292 0.00182053
1037 1 17.4524 7.58851 8.86844 0.00203279 0.00698707 0.00231667
1038 1 19.6795 6.2994 8.79565 -0.00466528 -0.00124737 -0.00126795
1039 1 19.645 8.80496 8.79935 -0.00508584 -0.00382247 0.00693031
1040 1 18.9433 7.56761 8.29811 0.00834927 0.000748624 0.00128161
1041 1 17.5048 7.62402 10.3605 0.00526494 -0.0067308 0.00593364
1042 1 19.662 6.32031 10.36 0.00640141 0.00223574 0.00402561
1043 1 19.6323 8.82106 10.3813 -0.00740622 -0.00227409 0.0049421
1044 1 9.48318 1.28996 11.0211 0.00325567 -0.000363167 -0.00344042
1045 1 20.404 7.50706 10.9063 0.0140125 -0.00768217 0.00111243
1046 1 7.32113 22.6385 10.9427 -0.00251003 0.00658268 0.00657531
1047 1 20.4113 7.50737 12.483 0.00428241 -0.00505004 0.00332445
1048 1 1.38543e-05 10.0844 -3.35991 0 0 0
1049 1 0.72783 8.82388 -1.46257 0 0 0
1050 1 0.72783 11.345 -1.46257 0 0 0
1051 1 21.8334 10.0844 -2.03619 0 0 0
1052 1 0.756449 8.81597 0.0665284 -0.00664886 -0.00292481 0.00126521
1053 1 0.72624 11.3652 0.126885 -0.00746578 2.87208e-05 0.00317993
1054 1 2.9111 10.0844 -1.46262 0 0 0
1055 1 1.46907 10.0753 0.618622 0.0030907 0.0057532 0.00251197
1056 1 3.67465 8.80911 0.601544 0.00814326 0.00189135 0.00300075
1057 1 3.66575 11.3262 0.626984 -0.00226686 0.0112049 -0.00462146
1058 1 2.92609 10.1077 0.0909059 -0.00630311 -0.0030241 -0.00349714
1059 1 1.46477 10.0985 2.14365 0.00932288 0.00105077 -0.00754112
1060 1 3.62261 8.82282 2.10785 -0.00112768 0.00737019 -0.00611002
1061 1 3.67413 11.3547 2.08436 -0.00155569 0.00897629 -0.00199317
1062 1 5.82881 10.1286 0.549249 -0.00600554 -2.39389e-05 -0.00501621
1063 1 4.3473 10.1011 2.70755 0.00546256 0.0043976 0.00246897
1064 1 6.50705 8.84106 2.6491 0.0067425 -0.00112772 0.00838868
1065 1 6.50077 11.4253 2.69581 0.00136751 0.00489184 0.001971
1066 1 5.78744 10.0959 2.17552 0.0123832 0.0169841 0.00331503
1067 1 4.39593 10.1274 4.22754 0.0104617 -0.00161564 -0.000150146
1068 1 6.54722 8.80713 4.20181 -0.00322977 -0.00242737 -0.00243423
1069 1 6.55376 11.3887 4.26445 0.00352471 0.000478295 -0.0041413
1070 1 8.72036 10.0938 2.66502 0.00491781 0.00124339 -0.00957767
1071 1 7.24308 10.1333 4.7443 -0.0021236 -0.000613426 -0.00869666
1072 1 9.43653 8.8105 4.75755 0.00158239 -0.00629156 0.000786877
1073 1 9.46057 11.343 4.74337 -0.000479804 0.00610106 0.0041512
1074 1 8.68642 10.0827 4.25548 0.00601832 0.000893315 -0.00630849
1075 1 7.30607 10.1005 6.22293 0.00436096 -0.000641966 -0.00739992
1076 1 9.46116 8.87018 6.24342 -0.00869465 -0.0066331 0.000905078
1077 1 9.45984 11.3936 6.34144 -0.00290649 -0.00326908 0.00387259
1078 1 11.6517 10.1296 4.69911 0.00470228 -0.00455198 0.00475207
1079 1 10.1793 10.1092 6.79304 -0.00317011 0.000113315 0.00265219
1080 1 12.3541 8.77708 6.78783 0.00136733 0.00115619 -0.00363461
1081 1 12.3971 11.3547 6.78437 -0.0064368 -0.00260317 0.00260082
1082 1 11.6729 10.1097 6.28988 0.00331797 0.00343441 -0.0112705
1083 1 10.2228 10.1158 8.36795 -0.0059603 0.0127193 -0.00180095
1084 1 12.3865 8.80451 8.38117 -0.00485433 -0.00519674 -0.000649596
1085 1 12.4002 11.3578 8.32034 0.00397272 -0.00138092 -0.00407384
1086 1 14.552 10.1322 6.80878 0.00826578 -0.00758263 0.00941478
1087 1 13.1116 10.0765 8.87423 -0.00648462 0.00202087 0.00457273
1088 1 15.2452 8.87603 8.87748 0.00488759 -0.0027536 -0.000205107
1089 1 15.2751 11.4076 8.87802 -0.00290958 0.00998593 -0.00714822
1090 1 14.5178 10.1028 8.33461 -0.00455065 -0.00293116 0.000151574
1091 1 13.154 10.1198 10.4573 -0.00293913 0.00914883 0.00560954
1092 1 15.2734 8.83758 10.4112 -0.0011472 0.00064013 0.00698726
1093 1 15.2617 11.3196 10.384 -0.00571992 0.00497614 -0.00325647
1094 1 17.481 10.0907 8.82351 -0.011003 -0.00306843 -0.00222401
1095 1 16.0942 10.1038 10.9115 -0.000114405 0.000620617 0.00941803
1096 1 18.2301 8.85739 10.8967 0.00270661 -0.00521244 0.00156709
1097 1 18.2054 11.3979 10.9075 0.00476319 -0.00739174 0.000278309
1098 1 17.5169 10.1077 10.4072 0.00365986 0.00124287 -0.00406772
1099 1 16.0431 10.0642 12.4349 -0.010419 0.00520618 0.000185401
1100 1 18.2828 8.76533 12.4927 -9.99996e-05 -0.00519482 0.00343859
1101 1 18.1863 11.3633 12.4544 0.0136551 -0.00382385 0.00253833
1102 1 20.3596 10.0885 10.9556 -0.00498026 -0.00244747 -0.00681711
1103 1 18.9463 10.1074 13.018 -0.00140918 -0.00466647 0.00112656
1104 1 21.1114 8.79572 13.0038 0.0028231 -0.000387619 0.000101498
1105 1 21.1442 11.3884 12.9848 -0.00962512 -0.0149995 0.00130133
1106 1 20.3677 10.125 12.4879 0.00704827 -0.00217733 -0.00553073
1107 1 18.9963 10.1294 14.5785 -0.00576918 0.000439095 -0.00176947
1108 1 21.0535 8.78621 14.4992 -0.00231597 0.00630608 -0.0154609
1109 1 21.1227 11.3602 14.4688 -0.00152345 -0.00273567 0.00174416
1110 1 8.72052 0.0233462 8.81846 0.00566494 -0.00449099 0.00449833
1111 1 1.45284 12.6087 0.569736 -0.0045351 0.00261355 0.000209988
1112 1 21.8248 12.5948 2.65425 0.00400854 -0.00114177 0.00111893
1113 1 2.17444 11.3257 2.69644 -0.00238437 -0.00407524 0.00957432
1114 1 2.19203 13.8442 2.6683 -0.0129459 0.00251977 0.00410719
1115 1 1.43364 12.5878 2.16366 -0.00233375 0.00719891 -0.00594676
1116 1 21.7982 12.5967 4.21118 -0.0018046 -0.00313197 -0.0080322
1117 1 2.18557 11.3727 4.22564 -0.00178945 -0.00221497 0.00289479
1118 1 2.17197 13.9194 4.16136 -0.00219917 -0.00662306 -0.000257771
1119 1 4.39681 12.6684 2.60275 -0.00197115 0.00187633 -0.000582381
1120 1 2.92433 12.6572 4.67578 0.00169361 0.00358481 -0.00629612
1121 1 5.14888 11.3851 4.71682 -0.00239597 0.00131074 0.00270827
1122 1 5.06178 13.9791 4.73242 -0.00167138 0.0118112 0.00237103
1123 1 4.36561 12.6702 4.19754 -0.000516257 0.00522016 -0.00465799
1124 1 2.93904 12.6426 6.25017 -0.00199176 -0.00126813 0.00178021
1125 1 5.1138 11.368 6.24517 0.00409238 0.00557285 0.00535967
1126 1 5.07441 13.8857 6.2769 0.00689128 -0.0019775 -0.00349001
1127 1 7.28208 12.6422 4.72338 -0.00693598 -0.00638563 -0.00795746
1128 1 5.79928 12.6239 6.75585 -0.00113268 0.00268047 0.00292704
1129 1 7.97045 11.3494 6.78477 0.00553174 -0.0070131 -0.00285046
1130 1 8.00613 13.8681 6.79796 -0.00724096 -0.00785315 -0.00904083
1131 1 7.25768 12.6286 6.3113 -0.00894714 -0.00613498 -0.0110517
1132 1 5.842 12.5405 8.32696 0.00138561 0.00739855 -0.00401345
1133 1 8.04105 11.3159 8.34175 -0.00409303 0.00276168 -0.00305563
1134 1 8.03794 13.8834 8.37539 -0.00288662 -0.00513875 0.0034228
1135 1 10.1981 12.6073 6.79522 -0.000528928 -0.012806 0.00234961
1136 1 8.80279 12.6447 8.85176 0.00160312 -0.00419902 0.00232072
1137 1 10.9462 11.3051 8.87954 0.000563911 -3.7037e-05 -0.00658761
1138 1 10.954 13.8788 8.84873 -0.00161236 0.000286194 -0.00032392
1139 1 10.2298 12.6418 8.40732 -0.000722826 -0.000590672 -0.00151317
1140 1 8.74435 12.6274 10.4196 -0.00679347 0.00274568 0.00234427
1141 1 10.9267 11.3354 10.4573 -0.00332873 0.00451445 -0.0044295
1142 1 10.9455 13.8868 10.417 -0.00292292 3.84676e-05 0.00505283
1143 1 13.1401 12.587 8.87332 -0.00690036 -0.000306205 0.000868402
1144 1 11.6473 12.6517 10.9872 -0.00177647 -0.00118349 0.0107225
1145 1 13.8756 11.3617 10.9776 0.00552583 -0.000996469 2.28754e-05
1146 1 13.8449 13.8662 10.9527 -0.00412214 0.00517547 -0.00581655
1147 1 13.0808 12.5913 10.4433 0.00443908 -0.00055092 0.000399027
1148 1 11.69 12.682 12.5106 -0.00553751 -0.00144603 -0.000231123
1149 1 13.8542 11.3698 12.551 -0.00813872 -0.000361431 -0.00750351
1150 1 13.8583 13.8815 12.5373 -0.00198605 -0.00302174 -0.00433835
1151 1 15.9973 12.5593 10.9241 0.00598206 0.00589962 -0.00291992
1152 1 14.5748 12.5921 13.0395 0.00327028 0.00496339 -0.00292814
1153 1 16.7801 11.3774 13.0245 0.00651126 -0.0134875 -0.00325336
1154 1 16.7293 13.9236 12.9785 -0.002132 0.00167497 -0.00854288
1155 1 16.0529 12.6284 12.4922 0.00446478 -0.000874775 0.000355468
1156 1 14.6191 12.5786 14.6697 0.00134744 -0.00156969 -0.0053073
1157 1 16.8252 11.3805 14.5408 0.00434675 -0.00742441 0.00291926
1158 1 16.7564 13.8766 14.4473 -0.00308337 0.00361141 0.00188941
1159 1 18.933 12.5933 13.0335 0.00526389 -0.00741604 0.00618826
1160 1 17.4838 12.6437 15.0151 -0.00476924 -0.0105959 -0.00474761
1161 1 19.7309 11.4158 15.0631 -0.00315372 -0.00198765 -0.0116032
1162 1 19.723 13.9047 15.0527 0.00590829 0.00236221 0.0104952
1163 1 18.9434 12.6611 14.5987 0.0087401 -0.0035472 -0.00867396
1164 1 16.8013 12.5853 16.6592 0.000495854 0.00119164 -0.00281868
1165 1 20.2674 11.3309 16.6072 -0.000188261 0.00101136 0.00144454
1166 1 20.2799 13.9041 16.6594 -0.00238168 -0.00205675 -0.00822444
1167 1 0.743612 12.5561 17.3566 0.00305119 -0.00176105 0.00733645
1168 1 6.58165 1.22215 10.41 0.000407609 0.00065742 0.00184831
1169 1 21.7809 15.1384 2.62567 0.00670551 -0.00724427 -0.00670885
1170 1 0.67247 13.8558 4.72231 0.00168298 -0.00175281 0.00359932
1171 1 0.72468 16.4157 4.67562 0.000965788 -0.00400673 0.000632411
1172 1 0.0285231 15.155 4.23406 0.00538529 -0.00175774 -0.00136812
1173 1 0.743006 13.8966 6.26032 0.005484 -0.00540049 -0.00796977
1174 1 0.777219 16.4343 6.25667 -0.0065794 0.00107893 -0.00758936
1175 1 2.92363 15.1896 4.69004 0.00772955 -7.95682e-05 0.00194758
1176 1 1.44019 15.1556 6.75039 0.0102931 -0.00387789 -0.00551855
1177 1 3.68648 13.859 6.82931 -0.00667458 0.00345829 -0.00303739
1178 1 3.67409 16.3718 6.75375 0.00716419 -0.00162806 0.00733023
1179 1 2.87989 15.138 6.23324 -0.00174853 0.00539334 0.00287638
1180 1 1.51551 15.1125 8.34031 -0.010416 0.00810183 0.000281026
1181 1 3.68971 13.8566 8.30919 0.00438437 0.00145114 0.00107431
1182 1 3.65094 16.3862 8.27982 -0.0013471 -0.00391349 -0.00252512
1183 1 5.86244 15.1409 6.79219 0.00830649 0.000784785 -0.0010439
1184 1 4.4293 15.1289 8.92835 0.00398905 -0.000782521 -0.00364946
1185 1 6.60339 13.7931 8.82983 0.00142653 -0.000536561 -0.00659473
1186 1 6.62183 16.3595 8.84886 0.00134696 -0.00302674 -0.00117827
1187 1 5.82303 15.1107 8.37778 -0.00479105 -0.0090013 0.00166431
1188 1 4.40916 15.1281 10.4291 -0.000623199 -0.000190641 -0.00580654
1189 1 6.57914 13.8469 10.4367 0.00156323 -0.00221731 0.00159531
1190 1 6.58574 16.4092 10.3764 -0.00657407 -0.000936116 -0.00224753
1191 1 8.67735 15.1385 8.87755 -0.00437734 -0.00057465 -0.0052071
1192 1 7.29579 15.1535 10.9394 -0.000852246 -0.00239761 0.0025545
1193 1 9.48367 13.8688 10.9389 -0.0149862 0.00166891 -0.00570145
1194 1 9.48542 16.3914 10.9022 0.000472636 0.00169696 -0.00259176
1195 1 8.73415 15.1829 10.4215 -0.000564994 0.0023606 0.000638664
1196 1 7.28322 15.113 12.4663 0.0124363 -0.000557967 0.00433709
1197 1 9.48663 13.853 12.4892 0.002355 -0.00194454 -0.000848388
1198 1 9.54704 16.4042 12.4952 0.00392388 -0.0116905 0.0110903
1199 1 11.6699 15.1245 10.9195 -0.00169382 0.000237552 -0.00308313
1200 1 10.2491 15.1208 13.0093 0.000416666 -0.000622523 -0.00082908
1201 1 12.414 13.8648 13.0035 0.0030301 0.00571612 0.00187632
1202 1 12.4304 16.3498 12.9653 0.00140794 0.00140214 -0.00208922
1203 1 11.6396 15.0982 12.4863 0.00430851 0.00147316 0.00296573
1204 1 10.2059 15.1581 14.586 -0.00087197 0.00365109 -0.00715156
1205 1 12.4877 13.8499 14.5099 0.00241107 0.00901438 0.00368296
1206 1 12.4192 16.391 14.4685 -0.00419976 0.00220935 0.0026544
1207 1 14.5494 15.1387 13.0584 -0.00101347 -0.00199423 -0.00130408
1208 1 13.087 15.1405 15.0553 -0.00460115 -0.00220602 0.00400669
1209 1 15.3545 13.9004 15.1184 -0.00151116 -0.000423328 -0.0033459
1210 1 15.2967 16.3675 15.0144 -0.00687627 -0.00223419 0.00204427
1211 1 14.5792 15.1355 14.64 0.00160304 0.0056315 0.00770241
1212 1 12.5626 15.1825 16.609 0.00115175 -0.00230551 0.0016703
1213 1 15.9404 13.8524 16.6907 0.00268134 0.00531914 -0.00259282
1214 1 15.941 16.4151 16.6255 0.00138952 -0.00209037 0.000567243
1215 1 17.4181 15.2013 15.0016 -0.00181624 0.00590615 0.0031415
1216 1 18.2262 15.1551 17.2798 -0.00987321 -0.0077709 -0.00277693
1217 1 18.8626 13.8992 17.2585 0.00158503 -0.000373208 -0.00280735
1218 1 18.9601 16.4057 17.2979 -0.00716714 -0.000926841 0.00492274
1219 1 16.8506 15.174 16.6186 -0.00353872 0.00441698 -0.00485089
1220 1 0.763664 15.1077 17.2627 -0.00251013 0.00474816 0.000240989
1221 1 1.47839 17.6907 6.78624 0.00600421 -0.00537128 -0.00364046
1222 1 0.0289663 17.5944 8.80515 -0.000888808 -0.000195845 0.00155182
1223 1 2.22823 16.4153 8.77006 0.000541201 -0.00560122 -0.0016961
1224 1 2.26739 18.8942 8.79534 0.00171469 -0.00141472 -0.00312414
1225 1 1.43468 17.5884 8.23616 0.00214134 -0.00781946 -0.00160753
1226 1 21.8329 17.609 10.3726 -0.00374002 0.00115046 -0.00403934
1227 1 2.19107 16.3816 10.3628 -0.00473282 -0.00475565 -0.000966009
1228 1 2.25667 18.8814 10.3631 0.00377216 0.00587069 0.00482524
1229 1 4.42887 17.604 8.8348 0.00115927 0.000657378 0.00126928
1230 1 2.99152 17.5695 10.8796 0.00549368 0.00245194 -0.0047098
1231 1 5.18473 16.3656 10.9133 -0.00213116 0.001239 0.00464828
1232 1 5.12822 18.8522 10.9101 0.00722345 -0.00510515 0.00911833
1233 1 4.42079 17.5575 10.4135 0.00508025 -0.00116611 -0.000992494
1234 1 2.95785 17.6534 12.4569 0.00819658 -0.0110513 -0.000518714
1235 1 5.12867 16.4257 12.4579 -0.00340228 -0.00118149 -0.000504722
1236 1 5.13995 18.8731 12.4623 0.00273168 0.00804329 -0.00280045
1237 1 7.28842 17.6322 10.9209 -0.00203077 -0.00493739 -0.00274615
1238 1 5.82365 17.6463 13.0097 0.0065574 0.00431011 -0.00294637
1239 1 8.05748 16.4024 12.9585 -0.00160602 0.00311415 0.00352201
1240 1 8.0168 18.8676 12.9953 0.00052624 0.00250013 0.00103917
1241 1 7.32238 17.6222 12.5101 -0.000292544 -0.00294699 0.00237981
1242 1 5.84621 17.6474 14.6285 0.000617194 -0.00336987 0.00419904
1243 1 8.03133 16.39 14.4918 -0.000249092 0.00104291 0.00170466
1244 1 8.085 18.9112 14.5103 -0.00396348 0.000488877 0.000203513
1245 1 10.2493 17.6581 13.0417 0.00265013 0.00532646 -0.00234305
1246 1 8.71022 17.5873 15.0498 0.00030538 0.00218767 -0.000509303
1247 1 11.0381 16.4381 15.0603 0.00318323 0.00637104 0.00278623
1248 1 10.9934 18.9719 15.0659 -0.00356233 0.00470582 -0.00284809
1249 1 10.2094 17.6922 14.6565 0.00132322 0.000859171 0.011693
1250 1 8.17256 17.6736 16.591 -0.00372489 0.00314216 0.000927356
1251 1 11.5619 16.3969 16.7029 0.0056981 0.00490728 0.00524456
1252 1 11.515 18.9631 16.7198 -0.0045187 -0.000222692 -0.00247035
1253 1 13.0252 17.6797 15.0352 0.00738283 0.0120687 0.00444068
1254 1 13.8729 17.6888 17.211 0.00895461 0.00656558 -0.0117341
1255 1 14.602 16.4579 17.1881 -0.00174865 -0.00349617 -0.00550418
1256 1 14.5412 18.9846 17.1955 0.00351805 -0.00172487 -0.00137324
1257 1 12.4429 17.6733 16.6353 -0.00292856 0.00348952 0.00086538
1258 1 18.2061 17.635 17.2018 -0.00147971 0.00543742 -0.00716214
1259 1 21.8088 20.1114 8.87089 0.00532794 0.00106512 -0.000852897
1260 1 0.820479 18.8448 10.8407 -0.00784302 -0.00434043 -0.00264909
1261 1 0.758286 21.4784 10.9031 -0.00185846 -0.00567622 0.00546176
1262 1 0.0575803 20.0956 10.3581 -0.00223435 -0.00123023 0.00192853
1263 1 0.790088 18.8624 12.4248 -0.00174947 0.00830682 0.00213435
1264 1 0.815788 21.4201 12.4478 0.00140161 -0.00321029 -0.00298909
1265 1 2.92236 20.095 10.8894 0.000454491 0.000830813 0.00629482
1266 1 1.46766 20.1431 13.0203 -0.00470213 -0.00282158 0.0013515
1267 1 3.62759 18.865 12.9563 -0.0014846 0.00181049 -0.000802367
1268 1 3.6389 21.4089 12.8877 -0.0007747 -0.00622141 0.00262269
1269 1 2.93966 20.083 12.4755 -0.0027902 -0.00272126 0.0013442
1270 1 1.47885 20.1356 14.6202 -0.00394746 -0.00370635 -0.0048607
1271 1 3.71454 18.8917 14.4351 0.00391162 -0.00328975 0.00677423
1272 1 3.67022 21.4405 14.5163 -0.000208071 -0.000704037 0.000139632
1273 1 5.87113 20.1604 13.0099 0.00662127 0.00204318 0.00101694
1274 1 4.33112 20.1882 15.0052 -0.0047604 -0.0021325 -0.000708387
1275 1 6.59575 18.879 15.0583 0.00350206 0.00108764 -0.00520585
1276 1 6.61611 21.3703 15.0395 -0.00576685 0.0025821 0.0077207
1277 1 5.87031 20.1579 14.6043 -0.000487085 -0.0102005 -0.000146643
1278 1 3.74079 20.1146 16.5076 0.00520201 -0.00408591 -0.00239511
1279 1 7.2131 18.9182 16.5581 -0.000733598 0.00187862 0.00138672
1280 1 7.11219 21.4177 16.575 0.00086631 0.00320062 0.00536529
1281 1 8.69163 20.2182 15.0517 -0.00128669 0.00611033 0.00160027
1282 1 9.46525 20.1939 17.3472 -0.00457916 -0.0079537 0.00354948
1283 1 10.168 18.8885 17.3322 -0.00542184 0.000683044 0.00238467
1284 1 10.2359 21.4401 17.2778 -0.0033338 -0.00948186 0.00636321
1285 1 8.14942 20.1991 16.6169 0.00395556 -0.00255651 0.012313
1286 1 13.8415 20.2353 17.3726 -0.00305888 -0.000861865 -0.00308327
1287 1 4.38947 0.0104507 10.4255 -0.00294304 0.000371751 -0.0102316
1288 1 5.86228 22.683 8.37023 -0.000134198 -0.00094939 -0.000883107
1289 1 2.2185 21.3988 15.0685 -0.00868907 -0.00241184 -0.00531223
1290 1 6.5825 1.22485 8.85463 -0.00172052 -0.0062773 -0.0005417
1291 1 4.42367 22.6567 8.83376 0.00781925 0.00180002 0.00378203
1292 1 2.7636 21.4663 16.6173 0.00620677 -0.00425637 -0.0010181
1293 1 5.83177 22.6566 6.81491 0.00452479 0.00937721 -0.00790452
1294 1 3.64568 1.21345 8.29973 -0.00584136 0.0119983 0.00301346
1295 1 5.78611 21.4081 17.242 -0.0016792 0.00276553 0.00161144
1296 1 1.48546 0.0172688 8.35488 -0.00453594 -0.00966044 -0.0113089
1297 1 2.9443 22.6567 6.26908 0.00225988 0.00247975 0.000325278
1298 1 4.3667 22.69 -3.35991 0 0 0
1299 1 6.55002 1.26055 -3.35997 0 0 0
1300 1 4.36667 22.69 -2.03619 0 0 0
1301 1 6.55004 1.26055 -2.03624 0 0 0
1302 1 8.73339 22.69 -3.35991 0 0 0
1303 1 7.27779 22.69 -1.46262 0 0 0
1304 1 9.46121 1.26055 -1.46257 0 0 0
1305 1 8.73336 4.64244e-15 -2.03619 0 0 0
1306 1 7.18345 0.00644766 0.0766522 -0.00113121 -0.00875509 0.000915712
1307 1 9.41492 1.27706 0.103847 0.00214259 -0.00453292 -0.000612023
1308 1 11.6445 1.25921e-13 -1.46262 0 0 0
1309 1 10.1445 0.00656156 0.549385 0.0133725 0.00190873 0.0018855
1310 1 12.3524 1.28301 0.604736 0.00354642 -0.00414787 -0.00562437
1311 1 11.5926 0.0317212 0.0591563 -0.00201116 0.0148464 0.00590918
1312 1 10.1451 22.6789 2.13723 -0.00167788 -0.00264765 0.00133337
1313 1 12.3509 1.23382 2.13583 -0.00166488 -0.00491519 -0.00880241
1314 1 14.5838 22.6861 0.60761 0.00155843 -0.00158747 0.00802634
1315 1 13.1104 0.00856546 2.67046 -0.00271557 -0.00257198 0.000472288
1316 1 15.2539 1.23588 2.63411 -0.00265476 -0.000499868 0.00547879
1317 1 14.5121 22.6824 2.15307 0.00751835 0.000303684 0.00262139
1318 1 13.139 22.67 4.20381 0.000773811 0.00235843 0.00128621
1319 1 15.2308 1.23943 4.20094 0.00171652 0.0026255 0.0052098
1320 1 17.4096 22.6818 2.64999 0.00148925 0.003072 -0.00666748
1321 1 15.982 22.6888 4.74868 0.00772904 -0.0040247 0.0075225
1322 1 18.1851 1.26246 4.70192 -0.00302957 0.00180498 -0.000413428
1323 1 17.4395 22.657 4.20712 0.00883214 0.00430182 -0.00520302
1324 1 16.0074 0.00822071 6.22016 -0.0024053 0.00813089 -0.001618
1325 1 18.255 1.24907 6.2286 -0.00365526 -0.00038872 -0.012991
1326 1 20.3639 22.6311 4.74493 0.00193816 -0.0070524 -0.00138538
1327 1 18.8945 22.6321 6.7544 0.00533971 -0.00412075 -0.00554844
1328 1 21.0755 1.2775 6.77681 -0.00604054 -0.00419148 0.00543223
1329 1 20.3573 22.6587 6.25448 0.00726573 -0.00630636 -0.0107203
1330 1 18.9421 22.6448 8.31662 -0.000662723 -0.00937672 0.0042629
1331 1 21.1278 1.21594 8.31071 0.00734389 -0.00422037 0.00453702
1332 1 3.66084 1.25436 6.75446 -0.00550564 0.00180574 -0.0026653
1333 1 1.47726 0.021873 6.783 -0.00283059 0.00327891 0.000863044
1334 1 1.38543e-05 2.52111 -3.35991 0 0 0
1335 1 2.18333 1.26055 -3.35997 0 0 0
1336 1 2.18333 3.78166 -3.35997 0 0 0
1337 1 21.8334 2.52111 -2.03619 0 0 0
1338 1 2.18335 1.26055 -2.03624 0 0 0
1339 1 2.18335 3.78166 -2.03624 0 0 0
1340 1 4.3667 2.52111 -3.35991 0 0 0
1341 1 2.9111 2.52111 -1.46262 0 0 0
1342 1 5.09452 1.26055 -1.46257 0 0 0
1343 1 5.09452 3.78166 -1.46257 0 0 0
1344 1 4.36667 2.52111 -2.03619 0 0 0
1345 1 2.92545 2.47125 0.0572275 -0.00791291 5.48615e-05 -0.011608
1346 1 5.04042 1.19738 0.0858852 0.00360598 -0.00596638 0.00491436
1347 1 5.03412 3.73199 0.0920707 -0.000308923 -0.00426736 0.00422425
1348 1 7.27779 2.52111 -1.46262 0 0 0
1349 1 5.79942 2.44735 0.572423 -0.0130666 -0.00281097 0.00028965
1350 1 7.9502 1.31872 0.550101 0.00128757 -0.00107813 0.00215662
1351 1 7.98297 3.79419 0.576947 0.007337 0.0035405 0.00609092
1352 1 7.29615 2.53173 0.0484089 -0.00792945 -0.00770607 -0.00393336
1353 1 5.80459 2.50289 2.11996 0.00605605 0.00119868 0.00334605
1354 1 7.97191 1.29884 2.10781 0.00123028 -0.00801857 0.00340163
1355 1 8.02517 3.77516 2.13108 -0.00143826 0.000827782 0.00682667
1356 1 10.1844 2.4834 0.601317 0.00245796 0.00721139 -0.00634267
1357 1 8.68758 2.51611 2.59921 0.00154525 0.00107135 -0.00317336
1358 1 10.8537 1.30067 2.66512 -0.0035749 -0.00124562 0.00530705
1359 1 10.8936 3.74412 2.61642 0.00316592 -0.00445087 0.00780595
1360 1 10.1358 2.50371 2.12281 -0.00530687 -0.0075364 -0.0016615
1361 1 8.72294 2.54671 4.16086 -0.00221832 0.00081842 0.00452076
1362 1 10.9191 1.20658 4.2173 0.0038968 0.000129956 -0.00197839
1363 1 10.9108 3.80541 4.13498 0.0113044 -0.000846935 -0.00181244
1364 1 13.0608 2.48837 2.65854 -0.0141296 -0.00499558 0.00348995
1365 1 11.6102 2.5222 4.69086 0.00372411 0.00397372 -0.00734305
1366 1 13.8108 1.24935 4.72215 -0.00661627 -0.00635968 0.00269157
1367 1 13.8338 3.73782 4.73028 -0.00152979 0.0120566 -0.00119825
1368 1 13.0386 2.48382 4.17325 0.00811547 0.00444318 -0.00393183
1369 1 11.6234 2.56402 6.24147 0.00331581 -0.00274875 0.0110049
1370 1 13.8451 1.30471 6.28302 -0.0120677 -0.00371041 0.00509186
1371 1 13.8288 3.7892 6.27557 0.00617836 -0.00291013 -0.00507644
1372 1 16.015 2.55014 4.70229 0.00160156 -0.00130596 0.00249956
1373 1 14.5771 2.51246 6.79581 -0.00108218 -0.00582666 0.0013891
1374 1 16.7585 1.2696 6.76829 0.00455633 -0.00454001 -0.00619229
1375 1 16.6943 3.81594 6.80071 -0.00154499 0.00161275 -0.00300251
1376 1 16.0401 2.52531 6.21084 0.000634363 0.000473479 -0.000775366
1377 1 14.5657 2.57794 8.30703 0.00483538 0.00368436 0.00702824
1378 1 16.749 1.25081 8.34806 -0.00239865 -0.0017606 -0.000672226
1379 1 16.7999 3.82553 8.35225 -0.00427422 0.0113008 0.0048648
1380 1 18.9103 2.51767 6.77596 0.00288941 0.00679326 -0.00318824
1381 1 17.4666 2.56256 8.84601 -0.00204327 0.00102858 -0.00419363
1382 1 19.6131 1.26251 8.8426 0.00375179 0.00292161 -0.0041113
1383 1 19.6464 3.80021 8.84685 -0.000240682 0.00457379 0.00629689
1384 1 18.9027 2.5075 8.29693 0.000712553 0.00488572 -0.00466113
1385 1 17.4709 2.55992 10.4198 -0.00582507 -0.000949649 -0.00811533
1386 1 19.6698 1.24321 10.3415 0.00294649 -0.00148839 0.00880989
1387 1 19.6824 3.76828 10.3759 0.000274149 0.0101664 -7.4999e-05
1388 1 2.93179 0.0344164 4.70093 0.000315731 -0.00163046 -0.00290933
1389 1 20.4404 2.54234 10.8641 0.00446016 0.0113869 0.000151572
1390 1 0.736108 1.24591 6.29912 -0.00373353 -0.00369776 0.00525288
1391 1 20.3232 2.55177 12.3981 -0.00233888 0.00200098 0.000622239
1392 1 1.38543e-05 5.04222 -3.35991 0 0 0
1393 1 0.72783 3.78166 -1.46257 0 0 0
1394 1 0.72783 6.30277 -1.46257 0 0 0
1395 1 21.8334 5.04222 -2.03619 0 0 0
1396 1 0.721572 3.75264 0.064719 -0.00554182 -0.000573615 -0.00128535
1397 1 0.745228 6.29516 0.0826088 -0.00140019 0.00248817 -0.00278589
1398 1 2.9111 5.04222 -1.46262 0 0 0
1399 1 1.44166 5.0315 0.591875 -0.00107126 -0.0013572 0.00352236
1400 1 3.61927 3.73449 0.595487 0.00487323 0.00227763 0.00179232
1401 1 3.60815 6.20679 0.592028 0.00532386 -0.00337734 0.00109544
1402 1 2.87135 5.00608 0.0798867 0.00168891 -0.00468443 0.00851033
1403 1 1.42096 4.98809 2.13007 0.00462741 -3.12844e-05 -0.00766339
1404 1 3.6436 3.73596 2.16992 -0.00713279 -0.00173013 0.00390218
1405 1 3.58271 6.23499 2.13392 -0.00177839 0.00909541 0.00208159
1406 1 5.80143 5.04803 0.567189 0.00312429 0.00500512 0.0100675
1407 1 4.35189 5.00179 2.61239 4.68087e-05 -0.00403161 -0.000485412
1408 1 6.56151 3.77913 2.63494 -0.00194964 0.00854707 -0.00658587
1409 1 6.50961 6.27185 2.63506 -0.00821349 -0.00634792 -0.00488424
1410 1 5.80471 5.01575 2.12355 0.00326997 0.000733913 0.00375761
1411 1 4.36375 5.07177 4.21597 -0.000916197 0.00305871 0.00480758
1412 1 6.54969 3.80555 4.14444 0.00277093 -0.00200482 -0.000942657
1413 1 6.46875 6.27729 4.13072 0.00438699 0.00397313 0.00267882
1414 1 8.77138 5.05218 2.65629 0.00244736 0.00492001 0.00336046
1415 1 7.29964 5.061 4.67826 -0.00228106 -0.00015854 -0.00540337
1416 1 9.45176 3.77205 4.72314 0.00895272 0.00937106 -5.90416e-05
1417 1 9.50565 6.33015 4.6717 -0.00604695 0.00757493 0.00680179
1418 1 8.75708 5.05612 4.15642 -0.00174751 0.000352293 -0.00115913
1419 1 7.26973 5.0021 6.27792 0.00297811 -0.00463426 0.00439711
1420 1 9.48536 3.79644 6.2319 0.00243814 -0.00411761 0.00772368
1421 1 9.44666 6.32195 6.22702 -0.00404084 0.00183255 -0.00162675
1422 1 11.6623 5.01305 4.68181 -0.000569991 0.00369123 -0.00262012
1423 1 10.2106 5.0717 6.7891 0.0115237 -0.00233267 -0.00129619
1424 1 12.3802 3.78435 6.78878 -0.00268067 -0.00222257 -0.00405709
1425 1 12.3614 6.30617 6.7617 -0.0112072 -0.000651947 0.00625513
1426 1 11.6555 5.04303 6.28069 0.000399144 0.00430162 -0.0039296
1427 1 10.1939 5.01151 8.36278 0.00238751 0.00396882 -0.00590706
1428 1 12.3801 3.74257 8.27111 -0.000514674 0.00570838 -0.00605734
1429 1 12.3671 6.3012 8.33708 0.00480395 -0.00185896 0.00518591
1430 1 14.5395 5.08172 6.7711 0.00163817 0.00742491 0.000477112
1431 1 13.1335 5.01339 8.84467 -0.00390323 2.03426e-05 -0.00226426
1432 1 15.2781 3.78967 8.88272 0.00604801 0.000107411 0.00553113
1433 1 15.2757 6.37986 8.79915 -0.00263283 -0.00342105 0.000266618
1434 1 14.5345 5.06612 8.32635 -0.00102514 -0.00121379 -0.00523766
1435 1 13.1094 5.04284 10.3896 0.000620374 0.000878354 -0.00349362
1436 1 15.2669 3.82569 10.3705 -0.0109325 0.000443359 0.00817901
1437 1 15.2774 6.34354 10.2983 -0.000260724 0.0122409 0.000611831
1438 1 17.5127 5.07483 8.8577 -0.00823812 0.000581436 0.00145828
1439 1 15.9816 5.10061 10.8896 0.00768858 0.00945328 0.00315237
1440 1 18.1657 3.79482 10.9255 0.00186314 -0.00100793 -0.000518809
1441 1 18.2409 6.35711 10.9253 -0.00319959 -0.00292025 -0.000842658
1442 1 17.4429 5.11026 10.3972 -0.00237042 0.00648636 0.00904426
1443 1 16.0293 5.08303 12.4489 0.00175361 0.00525748 0.00415476
1444 1 18.1731 3.75465 12.4397 0.00511218 -0.00297239 -0.00131567
1445 1 18.2053 6.31199 12.455 0.00420507 -0.00590904 0.00823258
1446 1 20.3657 5.03981 10.8861 -0.00246186 0.002339 -0.0018923
1447 1 18.9053 5.06978 12.9965 0.00181587 -0.0110326 -0.00532637
1448 1 21.0677 3.76839 12.9309 0.00231053 -0.00390295 0.000510941
1449 1 21.1071 6.2838 12.9825 -0.00670952 0.00905154 -0.002458
1450 1 20.354 5.0417 12.4335 0.0113776 -0.0121366 0.00454435
1451 1 18.9637 5.07208 14.6118 -0.00589499 0.00215929 -0.00955819
1452 1 21.0627 3.78621 14.4537 -0.00185621 0.00138948 0.000233861
1453 1 21.0702 6.26519 14.4709 0.0014679 0.00156941 0.00213752
1454 1 21.8284 22.6712 4.16557 -0.00143473 0.00771532 -0.00288371
1455 1 1.45857 7.56376 0.632018 0.00086147 -0.00392295 -0.000457611
1456 1 21.7912 7.60709 2.65515 0.000357211 -0.00977239 -0.00254989
1457 1 2.16049 6.28852 2.68491 0.00270397 0.00267051 0.00410968
1458 1 2.21072 8.81662 2.61733 0.00861384 -0.00031493 0.00494381
1459 1 1.45669 7.53696 2.12406 -0.00116299 -0.00850987 -0.00324067
1460 1 0.0100279 7.57461 4.23542 -0.00262872 -0.00714235 0.000558978
1461 1 2.15306 6.32181 4.21294 0.00301179 -0.00446287 -0.00397309
1462 1 2.21281 8.87178 4.16621 0.00383431 -0.00308205 -0.00129157
1463 1 4.33433 7.54535 2.61564 -0.00689938 0.000840435 -0.00148909
1464 1 2.93059 7.62978 4.68228 -0.00061583 -0.00760389 -0.00192823
1465 1 5.08001 6.3373 4.69718 -2.78488e-05 -0.00264192 0.00353805
1466 1 5.11618 8.81819 4.68636 0.0124808 -0.00951627 0.00374613
1467 1 4.3387 7.59706 4.13471 0.0101601 -0.000468936 0.0025368
1468 1 2.90705 7.59479 6.21939 -0.00315052 0.00159502 0.000565221
1469 1 5.09822 6.29272 6.28067 0.00538803 0.00337233 -0.0042312
1470 1 5.15891 8.81965 6.27441 -0.0011238 -0.000486475 0.000685784
1471 1 7.2389 7.51701 4.70156 0.00499688 0.00544024 0.00872874
1472 1 5.83103 7.52338 6.81943 -0.000360382 0.00141815 0.00337999
1473 1 7.93566 6.25536 6.80037 -0.00304534 -0.00589195 0.00169234
1474 1 8.02647 8.8425 6.75634 -0.00075115 -0.00845365 0.00192801
1475 1 7.2545 7.51213 6.24969 -0.00165898 -0.00381827 -0.00232021
1476 1 5.90056 7.50236 8.38337 -0.000121465 -0.00066459 -0.00722188
1477 1 8.04158 6.22825 8.36531 0.0110749 0.00118342 0.013777
1478 1 8.03931 8.81316 8.3547 0.00720404 0.00272716 -0.00394245
1479 1 10.1985 7.57327 6.77701 -0.00667897 0.00392113 0.00673555
1480 1 8.76409 7.54712 8.80258 -0.00672064 0.00383953 0.00368801
1481 1 10.9291 6.27103 8.83766 -0.00235585 -0.0043432 -0.00576563
1482 1 10.9213 8.88225 8.8813 0.00309824 -0.00356339 0.00574531
1483 1 10.2424 7.59587 8.34291 -0.00276899 -0.000479251 0.00208912
1484 1 8.72709 7.58214 10.4373 -0.00326522 0.00161581 0.00395321
1485 1 10.8966 6.31484 10.4035 -0.00388874 -0.00405678 0.000294655
1486 1 10.8804 8.82687 10.4076 0.00103792 -0.00366262 -0.00376105
1487 1 13.0877 7.55914 8.86576 -0.00880937 -0.00132986 0.0032547
1488 1 11.6658 7.60024 10.9097 0.000934596 -0.00040322 -0.00214231
1489 1 13.8513 6.29563 10.8942 0.000813088 -0.000606979 -7.65424e-05
1490 1 13.8609 8.82161 10.9341 0.00127679 -0.00909783 0.00145073
1491 1 13.1243 7.58601 10.4072 -0.00343563 -0.00926093 0.00928915
1492 1 11.673 7.58219 12.4212 0.0071668 0.00742376 0.0111029
1493 1 13.8011 6.30946 12.4725 -0.00056615 0.000818287 -0.00590448
1494 1 13.861 8.8481 12.4924 0.00346056 0.0047757 -0.00557089
1495 1 16.0548 7.59772 10.8845 -0.0088072 -0.00334819 0.00855981
1496 1 14.5576 7.58541 12.9519 0.000892327 0.00355247 -0.00203628
1497 1 16.7628 6.31586 12.8959 -0.00105344 -0.0050984 0.00593107
1498 1 16.8028 8.82001 12.9589 -0.000380488 0.00753563 0.00307753
1499 1 16.047 7.57492 12.4072 -0.00306779 -0.00663966 -0.00623799
1500 1 14.6119 7.58843 14.5685 0.00363924 0.00522662 0.00543821
1501 1 16.8062 6.32783 14.474 -0.00142745 -0.0049029 -0.00677876
1502 1 16.8284 8.83881 14.4647 -0.00586733 -0.00157864 -0.00547834
1503 1 18.9904 7.53205 13.0324 0.00504025 -0.00145195 0.00362137
1504 1 17.3959 7.58489 15.0343 0.000376882 -0.0139854 0.00364211
1505 1 19.684 6.2957 15.1098 -0.00546321 0.00727232 -0.000939803
1506 1 19.6725 8.8521 15.1124 0.00645343 0.00352227 -0.00461643
1507 1 18.9211 7.58087 14.6892 -0.00856915 0.000429752 0.00269616
1508 1 16.8353 7.58733 16.6621 -0.000743413 -0.00155369 -0.000267415
1509 1 20.2123 6.36223 16.6432 -0.005162 -0.00121074 0.0016323
1510 1 20.2499 8.86226 16.6557 -0.00233543 -0.00296114 -0.00453757
1511 1 0.695229 1.24782 4.73845 -0.00130293 -0.00410085 -0.0066846
1512 1 0.686004 7.56584 17.3115 0.0102097 0.00378709 0.00109837
1513 1 21.7902 0.00416035 2.66623 0.000576328 -9.76061e-05 0.00418689
1514 1 21.81 10.073 2.61703 0.000493187 -0.00459598 0.000760701
1515 1 0.738424 8.83182 4.67446 -0.00554419 -0.00113287 0.00489189
1516 1 0.691155 11.357 4.7338 0.00337897 -0.00405684 0.00916675
1517 1 21.7902 10.094 4.10327 0.00372478 -0.00769185 -0.00398372
1518 1 0.752326 8.81421 6.27428 -0.00140945 -0.00406093 -0.000406944
1519 1 0.73339 11.405 6.23362 -0.00484622 -0.0044086 0.00483153
1520 1 2.91204 10.0566 4.70607 -0.00987701 -0.000955247 0.00467797
1521 1 1.44839 10.0782 6.77295 0.00506307 -0.00309413 -0.00419579
1522 1 3.68722 8.83387 6.77264 0.00339698 -0.00237469 -0.000590639
1523 1 3.65386 11.3261 6.78674 -0.00290176 -0.00222125 0.0017175
1524 1 2.91042 10.0841 6.2855 0.00125761 -0.00313428 -0.000471249
1525 1 1.40394 10.095 8.27026 0.00540737 0.00872802 -0.00348194
1526 1 3.71395 8.78832 8.31879 -0.00273474 -0.00367307 0.00271192
1527 1 3.67594 11.3752 8.35193 -0.00254642 0.00153117 -0.00338765
1528 1 5.91484 10.1124 6.79612 -0.00285893 -0.000912792 -0.00625117
1529 1 4.39411 10.0856 8.89665 0.00343232 0.000466883 0.0044626
1530 1 6.6072 8.84129 8.83247 0.00113782 0.00123293 0.0029067
1531 1 6.64928 11.2954 8.86162 0.00193041 0.0101145 0.00620575
1532 1 5.84771 10.0883 8.33266 0.00226329 0.00156963 1.01924e-05
1533 1 4.32488 10.0543 10.3779 -0.00427034 -0.00126122 -0.00194756
1534 1 6.57994 8.80617 10.345 0.00813994 0.00148158 0.00187432
1535 1 6.52996 11.3162 10.4362 -0.00687271 0.00578688 -0.00446224
1536 1 8.76832 10.0598 8.86146 0.00154813 0.000984357 -0.000167684
1537 1 7.26404 10.0462 10.9592 -0.0041941 -0.00124792 -0.00853046
1538 1 9.45175 8.79107 10.9752 -0.00550504 -0.00168161 -0.00162649
1539 1 9.48302 11.3796 10.9696 0.00682627 0.00432778 -0.000736378
1540 1 8.76627 10.0805 10.431 0.00170442 0.00158267 -0.0104057
1541 1 7.27459 10.0858 12.4771 -0.00247581 0.000104266 0.00657969
1542 1 9.51529 8.81911 12.4893 -0.00538392 -0.000238073 -0.00446714
1543 1 9.5501 11.3554 12.5853 0.00346032 -0.0023999 0.0023607
1544 1 11.6347 10.0848 10.9237 -0.00190831 0.00204432 -0.00260268
1545 1 10.2427 10.0618 13.0467 0.00569401 -0.00696882 -0.00244904
1546 1 12.3839 8.78271 12.9245 -0.00777943 0.000111538 0.0018972
1547 1 12.3683 11.3678 13.0518 0.00875893 -0.00746122 -0.00659723
1548 1 11.6382 10.0391 12.4742 -0.00550399 -0.00598327 0.0105018
1549 1 10.2612 10.1036 14.6366 -0.00344 0.000649891 -0.00241523
1550 1 12.3951 8.75026 14.3971 -0.000973903 -0.00190593 0.00217449
1551 1 12.3914 11.3588 14.5129 -0.00148584 -0.00134297 -0.00418652
1552 1 14.5932 10.113 13.0585 0.00130734 -0.000814134 0.000204145
1553 1 13.0467 10.0834 15.0541 0.0117685 0.0030266 0.00398081
1554 1 15.3601 8.84419 15.04 0.00163226 0.00151081 0.0049613
1555 1 15.4005 11.2942 15.1721 0.0063036 0.000851576 0.00450198
1556 1 14.5887 10.0603 14.6015 0.0061994 -0.00177953 -0.0034126
1557 1 12.5544 10.0865 16.5701 -0.00860265 -0.00137254 0.00929204
1558 1 15.9376 8.81662 16.6784 -0.0080293 0.000971078 0.000633649
1559 1 15.8862 11.3529 16.6598 0.000464469 0.00899215 0.00062259
1560 1 17.4747 10.0734 15.0389 -0.000553279 0.0119706 0.000860594
1561 1 18.25 10.066 17.3687 -0.00249466 -0.00933639 0.00148626
1562 1 18.8611 8.8057 17.3306 -0.0014942 0.000989249 0.00155569
1563 1 18.8945 11.3345 17.2753 0.00259743 0.00953202 0.00124611
1564 1 16.8962 10.0636 16.6108 -0.00705842 0.00251608 -0.000182217
1565 1 0.713267 10.1218 17.3779 0.00243764 -0.00106839 0.00648797
1566 1 1.48803 12.6185 6.72627 -0.00724024 0.000657076 -0.00237035
1567 1 0.00581755 12.6045 8.8661 -0.00826497 -0.00680827 0.00291057
1568 1 2.16095 11.3299 8.81023 -0.000945021 0.001514 -0.00312312
1569 1 2.21196 13.8717 8.88966 0.00122487 0.00368061 0.00638625
1570 1 1.48796 12.6041 8.30589 -0.00664306 -0.00341843 -0.00190323
1571 1 0.00570374 12.6557 10.4083 -0.00543849 0.00334486 -0.00326441
1572 1 2.17725 11.3388 10.392 0.00659494 0.00872793 -9.13612e-05
1573 1 2.23004 13.8579 10.3701 0.00212808 0.00258946 0.000249228
1574 1 4.42643 12.6277 8.87006 -0.000557578 -0.00764095 0.00678597
1575 1 2.86862 12.6015 10.9681 -0.00609906 -0.00391039 0.00476661
1576 1 5.09805 11.3575 10.8774 -0.00180908 -0.00849961 -0.00508283
1577 1 5.14266 13.8482 10.9564 -0.000393937 0.00238934 0.000265084
1578 1 4.37909 12.6459 10.4283 -0.00982387 0.00421513 0.00183538
1579 1 2.89851 12.6012 12.4684 0.00494061 0.00866121 0.000104775
1580 1 5.12413 11.3272 12.4354 -0.000432757 -0.00753853 0.0054687
1581 1 5.15978 13.85 12.4588 -0.00350801 -0.000839513 -0.0080216
1582 1 7.30916 12.6043 10.9816 -0.000524432 0.000972554 0.00737196
1583 1 5.82786 12.6018 13.0365 -0.00085667 -0.00790121 -0.00797743
1584 1 8.0236 11.3436 13.0309 0.0015346 -0.00832243 0.00320205
1585 1 8.00313 13.8844 12.9617 -0.00637292 -0.00523516 0.00134689
1586 1 7.26416 12.6177 12.5252 -6.75049e-05 0.00203391 0.0105351
1587 1 5.87346 12.5542 14.6663 -0.00226805 0.005867 0.00399305
1588 1 8.07413 11.3609 14.5214 -0.000809847 0.00706074 -0.000252215
1589 1 8.02498 13.87 14.4894 0.0111992 -0.00704548 0.00590802
1590 1 10.2388 12.6484 13.0467 0.00707746 -0.000591204 -0.0028005
1591 1 8.6796 12.5885 15.0821 0.0048959 -0.000653549 0.00539903
1592 1 11.022 11.3267 15.1325 -0.00386486 -0.00458237 -0.00532341
1593 1 11.0768 13.9616 15.0531 -0.00200259 0.0046162 0.00106915
1594 1 10.2853 12.6655 14.6929 0.0106578 0.00359481 0.000661105
1595 1 8.08242 12.636 16.6641 -0.000540167 -0.00237065 0.00501725
1596 1 11.5806 11.3323 16.7113 -0.00195778 -0.00553636 0.00753155
1597 1 11.5856 13.9236 16.712 0.00798209 0.00922321 0.00263951
1598 1 13.1501 12.6067 15.0407 0.00182013 0.00255018 -0.00029161
1599 1 13.834 12.6337 17.3742 8.51873e-05 0.006412 -0.000350736
1600 1 14.5527 11.3423 17.5005 -0.00693705 -0.00797294 -0.0073464
1601 1 14.5862 13.8687 17.4462 -0.000894419 -0.000793473 -0.00235553
1602 1 12.5334 12.6059 16.6623 0.00614195 0.00489016 0.00180031
1603 1 18.2224 12.6129 17.2625 0.00194412 0.0027465 -0.00414242
1604 1 0.0107906 15.1333 8.82101 -0.000386533 -0.00462802 0.00328345
1605 1 0.770706 13.8945 10.8885 0.00933487 0.000160314 0.00760948
1606 1 0.802177 16.3563 10.8731 0.00588062 -0.00332296 -0.0031614
1607 1 21.7896 15.1193 10.3645 -8.85869e-05 0.0096467 0.00437727
1608 1 0.79683 13.8427 12.4398 -0.00675169 -0.00298796 -0.0106253
1609 1 0.785999 16.3578 12.4375 0.0110977 -0.0102883 -0.00621824
1610 1 2.94678 15.0952 10.9217 -0.00271588 -5.74136e-05 -0.00515027
1611 1 1.48843 15.1076 12.9194 -0.00637343 0.00196406 0.00562682
1612 1 3.65967 13.8438 12.9604 -0.00450708 0.000259787 -0.0105034
1613 1 3.6651 16.4003 12.9526 -0.00275562 0.00149887 -0.00917894
1614 1 2.94132 15.1139 12.4524 0.00605784 -0.00209244 -0.00325628
1615 1 1.49628 15.1236 14.6194 -0.00254249 -0.00838285 -0.00430874
1616 1 3.60587 13.8213 14.5298 -0.000672549 0.00232618 0.00550508
1617 1 3.64577 16.4199 14.4544 -0.00186678 0.0115899 -0.00496014
1618 1 5.87462 15.0932 13.022 -0.000736196 -0.010434 0.00471839
1619 1 4.30079 15.1663 15.0312 0.00613942 0.0116588 -0.00293453
1620 1 6.61839 13.8456 15.0819 -0.00896231 -0.00311693 -0.0044326
1621 1 6.6063 16.396 15.0693 -0.00511872 0.0030583 -0.00515033
1622 1 5.79933 15.1297 14.6417 -0.00231733 -0.009855 -0.00676764
1623 1 3.78557 15.1976 16.5875 0.00307244 -0.00434815 0.000688354
1624 1 7.17595 13.9053 16.685 0.00335919 0.000421754 -0.00208397
1625 1 7.19655 16.3457 16.6598 0.00716563 -0.00392631 -0.00359896
1626 1 8.72766 15.1153 15.087 -0.00685251 -0.00314756 -0.00883873
1627 1 9.50567 15.1256 17.3059 0.00625734 0.00181769 0.00166799
1628 1 10.2186 13.89 17.4203 0.00621026 -0.00397099 -0.0106691
1629 1 10.2016 16.3344 17.3667 -0.0117916 0.00260675 0.00270119
1630 1 8.14035 15.0987 16.641 -0.00992244 -0.000141505 -0.0050633
1631 1 13.9075 15.1809 17.2942 0.00263499 0.00269966 0.00566816
1632 1 1.51702 17.6357 13.0109 -0.00187628 -0.000228417 0.00756136
1633 1 21.7746 17.6321 15.0715 -0.00424925 0.00296201 0.00392223
1634 1 2.21518 16.4174 15.0823 0.00253511 0.00539164 0.00108324
1635 1 2.22146 18.8787 15.0686 -0.00781111 -0.00693775 -0.0029541
1636 1 1.51212 17.6947 14.5784 0.00513328 0.0120182 0.00375853
1637 1 21.1927 17.651 16.6356 0.0104176 -0.00594482 0.00281062
1638 1 2.80414 16.3715 16.6201 -0.0108181 0.00530215 -0.00426836
1639 1 2.87139 18.8219 16.6052 0.000496025 -0.00489285 2.51416e-05
1640 1 4.38317 17.6524 15.03 -0.000847461 0.00209404 0.00591919
1641 1 5.14687 17.6657 17.2578 0.00302207 0.00257667 0.00203923
1642 1 5.87936 16.3902 17.3393 0.0045319 -0.000562187 0.00372694
1643 1 5.83115 18.9087 17.187 -0.00627928 -0.00644818 -0.00767564
1644 1 3.76239 17.6268 16.5935 0.000317649 0.0031737 0.00219289
1645 1 9.46441 17.6433 17.3849 0.00629854 -0.00642079 -0.00799152
1646 1 0.000342228 20.1608 14.9982 0.00415677 0.00313429 -0.00423042
1647 1 1.39567 18.8613 17.2675 -0.00658536 0.000427056 0.00542437
1648 1 1.3847 21.4197 17.3197 0.00536071 0.00145054 -0.00762677
1649 1 21.21 20.1498 16.5712 0.00366108 0.0121412 0.00428756
1650 1 5.05662 20.1381 17.2526 0.00193085 -0.00122835 0.00729634
1651 1 1.38543e-05 22.69 -3.35991 0 0 0
1652 1 0.72783 1.26055 -1.46257 0 0 0
1653 1 21.8334 22.69 -2.03619 0 0 0
1654 1 0.704073 1.26347 0.0619565 -0.0102151 -0.0006419 0.00680286
1655 1 2.9111 7.74403e-15 -1.46262 0 0 0
1656 1 1.39908 22.6815 0.562262 -0.000817608 -0.00887737 0.00512779
1657 1 3.62262 1.17183 0.545762 0.00914682 0.00355937 -0.00318187
1658 1 2.87677 22.6486 0.0282582 0.00383385 -0.00824077 -0.00630941
1659 1 1.41414 0.0361198 2.16432 -0.00254592 0.0085272 -0.0117181
1660 1 3.59472 1.21964 2.10447 -0.0016802 0.0107623 -0.00587647
1661 1 5.76888 22.6749 0.514261 0.00824626 0.0129935 0.00428995
1662 1 4.35868 0.00638108 2.64305 -0.00465565 -0.00290218 0.00599934
1663 1 6.52017 1.30162 2.66637 0.00210275 0.0066554 -0.000430862
1664 1 5.78216 22.6572 2.11708 -0.00814581 0.000491047 0.000515106
1665 1 4.351 0.0364258 4.20899 -0.00701866 -0.00896054 0.0054288
1666 1 6.536 1.28607 4.15438 0.00856307 -0.000330288 0.0154724
1667 1 8.7345 0.0476821 2.64628 -0.00381824 0.000123112 0.00171156
1668 1 7.25758 22.6828 4.72251 0.00619307 -0.00396466 0.002723
1669 1 9.47595 1.28918 4.72199 0.00967236 -0.00349796 -0.00149919
1670 1 8.73411 0.00520089 4.22244 0.0070245 0.00138363 0.000361875
1671 1 7.28374 22.6721 6.27722 -0.00088297 -0.00637035 0.00408708
1672 1 9.47 1.25786 6.28245 -0.00617938 -0.00466801 -0.00314397
1673 1 11.6051 22.67 4.74998 -0.00186465 -0.010154 0.00608467
1674 1 10.1753 0.0165694 6.78761 0.00907956 -0.000302429 -0.00213224
1675 1 12.3874 1.31645 6.79068 0.00329355 -0.00922752 0.00598888
1676 1 11.6755 0.0288988 6.31817 0.000537202 0.0104443 0.00248924
1677 1 10.159 0.0392044 8.36365 0.00320682 0.00536842 -0.00478591
1678 1 12.3687 1.27852 8.33732 -0.00139595 -0.000458639 0.00451552
1679 1 14.564 22.6817 6.80709 -0.00149594 -0.00795268 -0.0016121
1680 1 13.0814 0.0383025 8.86877 -0.00836034 -0.00475628 0.0047686
1681 1 15.3529 1.32981 8.86303 -0.000514889 -0.00194993 -0.00601371
1682 1 14.5665 0.012257 8.37025 -0.00265815 0.000626649 -0.00226491
1683 1 13.1014 0.00406904 10.4113 0.00124647 0.00384495 7.88944e-05
1684 1 15.3031 1.26219 10.4107 0.000137211 -0.00470158 0.00982716
1685 1 17.5074 22.6347 8.82859 -0.00599178 -0.0101973 0.0118636
1686 1 16.0046 0.0126101 10.9226 -0.00567334 0.00524038 0.00371061
1687 1 18.1979 1.27695 10.9009 -0.00988558 -0.00196516 0.00525647
1688 1 17.4367 0.0541237 10.4261 0.00830661 -0.00335542 0.00143857
1689 1 16.0512 0.0133419 12.4321 0.00110715 -0.00198985 -0.00169287
1690 1 18.2285 1.17155 12.4964 -0.000860948 0.00411196 -0.0051826
1691 1 20.3479 22.6592 10.8532 -0.00191254 -9.95261e-05 -0.00529421
1692 1 18.984 22.6162 12.9843 -0.000706605 -0.00136002 -0.00149454
1693 1 21.0715 1.25161 12.9758 -0.00374027 -0.00140092 -0.00566479
1694 1 20.4137 22.6479 12.3688 -0.00387075 0.00328267 -0.00449095
1695 1 18.9726 0.0236726 14.5532 0.00247585 0.00522697 0.00462759
1696 1 21.1555 1.21527 14.4398 5.77237e-05 -0.00346872 0.000146014
1697 1 5.11273 15.1344 17.2251 -0.00150421 0.00749317 0.00485515
1698 1 21.1805 15.1675 16.7095 0.00264796 -0.00773527 0.00177154
1699 1 1.48684 2.52167 0.571396 -0.000849554 0.00187352 -0.00153598
1700 1 21.777 2.51964 2.65179 -0.010101 -0.0132178 0.00314958
1701 1 2.1508 1.25413 2.68948 -0.0014223 0.00265582 0.00130228
1702 1 2.18671 3.747 2.63305 0.00849474 0.00216797 -0.00319198
1703 1 1.45623 2.50816 2.06062 0.00103943 0.00509369 -0.00495535
1704 1 21.787 2.52692 4.1431 0.000312268 -0.00588104 -0.00504479
1705 1 2.1299 1.30972 4.21025 -0.00393369 -0.00552797 -0.00428151
1706 1 2.15571 3.84715 4.21689 0.00222848 -0.011243 -0.000677366
1707 1 4.35181 2.49944 2.6187 -0.00340347 0.00327658 -0.00275754
1708 1 2.85422 2.5517 4.72758 -0.00834465 -0.00455373 -0.00116758
1709 1 5.0773 1.29021 4.75955 -0.00661214 -0.00428689 -0.00493366
1710 1 5.07586 3.81538 4.65828 0.00735242 0.00206593 0.000701812
1711 1 4.334 2.52536 4.17333 0.00366182 0.000855354 -0.00689429
1712 1 2.89941 2.52165 6.23173 0.00245773 -0.00159367 -0.00523371
1713 1 5.07297 1.25166 6.26089 -0.000999742 0.006577 -0.0013324
1714 1 5.05639 3.78939 6.19786 0.00578635 0.000251822 -0.000303234
1715 1 7.26537 2.57474 4.66613 -0.000817117 -0.00327689 -0.000547893
1716 1 5.84186 2.55156 6.8177 0.00549143 -0.00108164 -0.00130994
1717 1 7.98708 1.2921 6.75949 -0.000176073 0.00268882 0.0041192
1718 1 8.02351 3.74987 6.78731 -0.00184618 -0.00676108 0.00370437
1719 1 7.25238 2.47141 6.25294 0.00209267 -0.000591596 -0.00160573
1720 1 5.78783 2.45696 8.30984 -0.00130027 -0.00826347 -0.00466642
1721 1 7.95252 1.26713 8.34704 0.00194145 -0.00588356 -0.00260829
1722 1 7.98249 3.73383 8.39313 0.00155944 -0.00129647 -0.000307414
1723 1 10.1603 2.54478 6.81092 -0.00114217 -0.00119494 0.00164544
1724 1 8.75935 2.5116 8.90507 -0.00614826 0.000840796 -0.00397037
1725 1 10.914 1.2554 8.90764 0.00660436 0.000280946 0.00850347
1726 1 10.9383 3.73448 8.85733 -0.00163181 0.00834018 -0.00466377
1727 1 10.1731 2.46926 8.3815 -0.00425674 -0.00421053 0.00189031
1728 1 8.73824 2.52425 10.434 0.0027318 0.000315976 -0.000545401
1729 1 10.8998 1.29363 10.4556 0.00597029 -0.000514846 0.00333805
1730 1 10.9487 3.81064 10.4138 -0.00467117 -0.00859844 -0.00684931
1731 1 13.1297 2.51282 8.82573 0.00923127 0.00399236 0.00375332
1732 1 11.7068 2.58167 10.9535 0.00424479 0.00198382 -0.00623754
1733 1 13.8345 1.27929 10.9007 0.00551392 -0.00167873 0.00452608
1734 1 13.8792 3.79003 10.9507 0.00441012 0.00231681 -0.00317031
1735 1 13.1456 2.54765 10.421 0.00134995 -0.00818032 -0.000824142
1736 1 11.7018 2.53466 12.4919 0.00227519 -0.00710928 0.000131198
1737 1 13.8459 1.27044 12.4609 0.00136739 0.0108721 -0.00297728
1738 1 13.8616 3.76461 12.4533 0.00677838 -0.00257078 -0.000490669
1739 1 15.9853 2.57025 10.9274 -0.0103168 -0.00498853 0.00196361
1740 1 14.6766 2.45425 13.039 -0.00851981 -0.00356373 -0.000831685
1741 1 16.7731 1.21935 12.9179 -0.00104477 -0.00175166 -0.00568297
1742 1 16.7565 3.76274 12.931 0.000949357 -0.00253739 -0.00122036
1743 1 16.0241 2.50967 12.4368 -0.00714252 0.000578269 0.00138939
1744 1 14.6101 2.5177 14.6353 -0.00198446 -0.00505967 0.00481676
1745 1 16.7472 1.27163 14.4475 0.00137287 0.00583391 -0.000910482
1746 1 16.7764 3.79429 14.465 0.00341801 0.00877614 -0.00193666
1747 1 18.9215 2.48981 12.9923 -0.00916488 0.00571419 0.000551162
1748 1 17.5078 2.51281 15.1033 -0.00134264 0.00317666 -0.000410365
1749 1 19.6726 1.25155 14.9733 -0.004023 -0.00571422 0.0055673
1750 1 19.6789 3.75902 15.092 -0.00485529 -0.00265913 0.0124492
1751 1 18.9263 2.46608 14.5881 -0.00896183 -0.00539437 0.00400345
1752 1 16.8827 2.5139 16.7024 0.00643931 -0.00179587 -0.00391012
1753 1 20.1348 1.23633 16.4804 0.000346858 0.00456773 0.0012794
1754 1 20.2854 3.79726 16.6326 -0.00811396 0.0044691 0.0027864
1755 1 0.669323 2.53693 17.3129 -0.00222018 0.00126487 0.00387289
1756 1 1.46412 16.3421 17.3702 -0.00385284 0.00578422 0.0113978
1757 1 21.814 5.02339 2.62974 -0.00209291 -0.0046993 -0.000776339
1758 1 0.662841 3.83259 4.70169 -0.000296957 -0.00406984 0.00166027
1759 1 0.659769 6.34034 4.75068 -0.00413455 -0.000748796 0.00870714
1760 1 21.7997 5.05689 4.19936 0.000954356 -0.00518748 -0.0037187
1761 1 0.7477 3.78528 6.24125 0.00068484 -0.000148818 -0.00665701
1762 1 0.764096 6.31119 6.24794 0.00581316 0.00691377 0.00391239
1763 1 2.90746 5.04836 4.76009 -0.00102386 0.00387146 -0.002671
1764 1 1.46036 5.03502 6.79849 -0.00199574 0.00255608 0.00724431
1765 1 3.62294 3.7169 6.72573 0.00664479 0.00318643 0.00631817
1766 1 3.61033 6.27197 6.74851 0.00586448 -0.00236332 0.00533265
1767 1 2.91951 4.95078 6.268 0.00514857 -0.00431267 -0.00572743
1768 1 1.47197 5.03962 8.40154 0.00412988 -0.00735702 0.00418442
1769 1 3.66495 3.77416 8.31719 0.0070149 0.00803755 0.0019808
1770 1 3.66527 6.28494 8.32564 -0.000649611 0.00549716 0.00351312
1771 1 5.82577 5.0075 6.79123 -0.00694976 0.00107701 -0.00668825
1772 1 4.34721 5.04382 8.91306 -0.00122248 0.00511731 -0.000545603
1773 1 6.51239 3.76196 8.86294 -0.00423969 0.00450914 -0.000681329
1774 1 6.5894 6.19177 8.89849 0.00446421 0.00794397 -0.00316952
1775 1 5.81683 5.01752 8.36592 0.00264678 0.000535164 0.00526221
1776 1 4.35448 5.03824 10.42 -0.00589978 0.00725429 -0.00648078
1777 1 6.56054 3.7605 10.4106 -0.00631614 0.002203 -0.00389437
1778 1 6.56486 6.24334 10.4292 -0.00109473 0.00642808 0.00165923
1779 1 8.73941 5.0081 8.8469 -0.00381198 0.00171721 0.0051448
1780 1 7.29137 5.05322 10.9563 0.00421318 0.000386615 -0.00148973
1781 1 9.46017 3.76877 10.957 -0.00792783 -0.00476218 -0.00598776
1782 1 9.48487 6.32522 10.9233 0.00157851 0.00147645 -0.00285314
1783 1 8.72006 5.03144 10.4057 -0.000240391 0.00395672 0.00129871
1784 1 7.27189 5.0552 12.447 -0.0118729 -0.00501366 0.0007295
1785 1 9.42543 3.78847 12.4775 0.00697113 0.00163468 0.0070392
1786 1 9.47623 6.3457 12.4271 0.00427258 -0.00579502 0.00584573
1787 1 11.6512 5.04619 10.9248 0.0107932 0.00534704 -0.012075
1788 1 10.1485 5.03109 13.0157 -0.00968459 -0.00301901 -0.00157648
1789 1 12.4345 3.76354 13.012 -0.00170637 -0.00714118 0.000164155
1790 1 12.3769 6.29442 12.9621 -0.000812446 -0.000618143 -0.00199178
1791 1 11.6334 4.99267 12.4918 -0.00258854 -0.00598327 -0.00048883
1792 1 10.1678 5.06013 14.5825 -0.0031255 -0.000915492 0.0040509
1793 1 12.4064 3.75628 14.4904 -0.000888782 0.00589758 -0.00333231
1794 1 12.3114 6.31634 14.4435 0.00433612 0.00166078 -0.000430171
1795 1 14.5594 5.0617 13.0122 -0.00699857 -0.0012763 -0.0026529
1796 1 13.1033 5.03772 15.0684 -0.00482242 0.00484146 -0.00342753
1797 1 15.3811 3.82298 15.104 0.00161562 0.0155371 0.000494137
1798 1 15.4045 6.31182 15.0754 0.00413288 -0.00737568 0.0109487
1799 1 14.6005 5.06405 14.5889 0.00558693 0.00472844 0.000612178
1800 1 12.5043 5.08398 16.6171 -0.00581898 0.00253482 0.00709132
1801 1 15.998 3.81014 16.6908 -0.00277147 0.000269373 -0.00126173
1802 1 15.9305 6.3273 16.6254 0.000863002 -0.00686195 0.00295168
1803 1 17.4439 5.07652 15.0483 0.000281443 0.00521966 -0.00735368
1804 1 18.204 5.06409 17.347 0.00538931 -0.00493328 0.0105762
1805 1 18.9594 3.76739 17.3047 0.00460331 0.00775624 0.00483124
1806 1 18.9214 6.28732 17.4482 -7.42463e-05 0.00308847 -0.00579556
1807 1 16.9114 5.01887 16.6086 -0.000815139 0.00151474 0.00352941
1808 1 0.799144 5.05172 17.3339 0.00324113 0.0027073 0.00620279
1809 1 1.49429 7.52682 6.75425 0.00164213 -0.0025716 -0.00119147
1810 1 0.0295794 7.55957 8.88425 -0.00197625 -0.000880325 -0.00224817
1811 1 2.22218 6.31506 8.88911 0.000535182 -0.000365481 0.00648159
1812 1 2.17013 8.82556 8.81403 -0.00742632 -0.00539938 -0.00819481
1813 1 1.46958 7.57912 8.29442 8.47948e-06 -0.000297711 -0.00692591
1814 1 0.0403405 7.53005 10.394 -0.000934993 0.00161431 0.00024383
1815 1 2.19302 6.32429 10.3974 0.00425035 -0.00523476 0.00735458
1816 1 2.11359 8.83677 10.3589 -0.00675537 -0.00271868 0.00333515
1817 1 4.44711 7.57436 8.8282 -0.00121323 0.00611701 -0.00289801
1818 1 2.94313 7.53084 10.9029 -0.000777025 0.00407426 -0.00331819
1819 1 5.07633 6.32298 10.9181 0.00830316 0.00392933 0.000794828
1820 1 5.04277 8.80021 10.8989 -0.00641724 0.00215029 0.00485091
1821 1 4.38221 7.56811 10.3423 0.00394757 -0.000728149 0.00051592
1822 1 2.97112 7.5264 12.4334 -0.0178782 -0.00552428 0.0064432
1823 1 5.10448 6.34515 12.475 -0.00780679 0.00036448 0.000742834
1824 1 5.07493 8.78752 12.4447 -0.00366964 -0.00240373 -0.00100502
1825 1 7.25639 7.60836 10.9069 0.0012622 -0.00219461 0.00183109
1826 1 5.8891 7.60578 12.9923 0.00851676 0.00409335 -0.000699013
1827 1 7.95922 6.38526 12.9391 0.00148094 0.00145149 0.00349615
1828 1 8.03744 8.84322 12.9662 -0.00454154 0.00886458 -0.00335015
1829 1 7.26041 7.63562 12.3975 -0.00479934 0.00315961 -0.00668195
1830 1 5.88976 7.54932 14.6158 -0.00661493 -0.00382365 -0.00194636
1831 1 8.03331 6.31184 14.4607 0.00365675 0.00542092 -0.00567679
1832 1 8.07677 8.86165 14.4601 -0.00753275 0.00101705 0.00634392
1833 1 10.2224 7.56928 13.0218 -0.000275936 -0.00432638 -0.00179873
1834 1 8.66214 7.62163 15.0588 -0.00951242 0.00140233 -0.00299368
1835 1 10.9203 6.31708 15.0794 -0.00815567 -0.00168358 0.00443309
1836 1 10.9646 8.80161 15.0521 -0.00348103 0.0113317 0.00335105
1837 1 10.1784 7.56017 14.6541 0.00419772 0.00290605 -0.00440151
1838 1 8.16974 7.57472 16.6352 0.0133495 0.00380445 0.00863322
1839 1 11.5063 6.29387 16.657 -0.00735079 -0.00285046 -0.00126722
1840 1 11.5724 8.82003 16.6315 -0.000831395 2.66459e-05 -0.00656571
1841 1 13.0552 7.55496 15.0424 -0.00159259 0.0047295 0.0128666
1842 1 13.882 7.4811 17.3031 -0.00370942 0.00143795 0.0031179
1843 1 14.6319 6.26246 17.2757 -0.000178448 -0.0037816 -0.000368812
1844 1 14.5336 8.76248 17.2828 -0.00388331 -0.00280994 -0.00463509
1845 1 12.4617 7.5757 16.6295 -0.00182598 0.00197568 0.00320117
1846 1 18.1753 7.56941 17.3047 -0.0035725 0.0013204 -0.000543879
1847 1 0.0120728 10.0492 8.86303 0.000957115 -0.00570474 0.00826013
1848 1 0.729365 8.83055 10.9343 -0.000955723 -0.00548893 -0.00443936
1849 1 0.74089 11.3805 10.9134 0.0185148 0.000214196 0.00701128
1850 1 0.0579517 10.0937 10.4311 -0.0046547 0.00572549 -0.00572769
1851 1 0.738014 8.77714 12.5104 0.00585298 0.0104614 -0.00116246
1852 1 0.723643 11.3251 12.4261 0.00835011 0.000123888 0.00147212
1853 1 2.89339 10.0634 10.9211 0.000530484 0.00226955 0.00555993
1854 1 1.45662 10.0509 13.0578 -0.000856869 0.00378927 0.000474091
1855 1 3.64443 8.82091 12.9829 0.00960518 -0.0020975 -0.00204549
1856 1 3.64265 11.3249 12.9412 0.00451627 -0.0121173 0.00414303
1857 1 2.91651 10.0125 12.472 0.00273646 -0.00579714 -0.00402683
1858 1 1.45444 10.0852 14.6744 0.00578234 0.00469167 -0.00565522
1859 1 3.66479 8.82947 14.468 -0.00979191 -0.00607488 -0.00148545
1860 1 3.61899 11.2881 14.4811 -0.000797674 0.00525964 0.00136661
1861 1 5.82361 10.0445 12.9988 0.0013309 0.0148846 0.00932379
1862 1 4.28812 10.0753 15.0596 0.00214136 -0.00746728 -0.00305967
1863 1 6.63093 8.84676 15.1247 0.00259637 0.0010482 0.00337192
1864 1 6.60163 11.2853 15.1185 -0.000573443 -0.00313123 -0.00388581
1865 1 5.8033 10.085 14.5653 0.00162253 -0.00568619 0.00126846
1866 1 3.74492 10.0643 16.678 -0.00498537 -0.00389045 -0.00358717
1867 1 7.18059 8.86593 16.7107 -0.0032163 -0.00626883 -0.00284653
1868 1 7.1061 11.3595 16.6851 0.00115275 -0.000894551 -0.00153079
1869 1 8.74902 10.0908 15 -0.00485035 0.000547439 0.00281074
1870 1 9.50721 10.0811 17.282 0.00115002 0.00353928 -0.00120787
1871 1 10.2068 8.79387 17.3341 -0.00757459 -0.00234282 -0.00644183
1872 1 10.1876 11.3361 17.2797 -0.00247533 0.00162429 -0.00389109
1873 1 8.18956 10.0707 16.6207 -0.00621802 0.0121996 0.00392693
1874 1 13.8768 9.99739 17.2704 -0.0112592 -0.00398194 -0.0011356
1875 1 1.44496 12.5705 13.0026 0.00390413 0.000668562 -0.00149655
1876 1 21.799 12.5966 15.0779 0.00767719 -0.000907796 0.00159058
1877 1 2.19651 11.3308 15.1101 -0.00271581 0.00427853 0.00545811
1878 1 2.26053 13.8463 15.0874 0.00221692 -0.00196851 0.00476605
1879 1 1.48824 12.5945 14.6381 0.00143917 0.00227845 0.00430351
1880 1 21.2531 12.589 16.6467 0.000858744 -0.00515467 -0.00979839
1881 1 2.82103 11.3681 16.7804 -0.0114055 0.0118946 0.000281658
1882 1 2.80839 13.9631 16.658 -0.00380051 0.00448538 0.0072193
1883 1 4.29059 12.576 15.1247 -0.00187325 -0.00700278 -0.000998248
1884 1 5.06188 12.6287 17.4346 -0.00179035 0.0035218 -0.00787754
1885 1 5.75584 11.3539 17.3958 0.00493304 0.00495555 -0.00712168
1886 1 5.80615 13.9115 17.3733 -0.00721816 -0.00378828 0.00889938
1887 1 3.71769 12.6212 16.6637 -0.00854828 0.00228132 0.00231377
1888 1 9.49336 12.6069 17.2923 0.00970072 0.00531452 0.0039647
1889 1 21.7853 15.0982 15.0679 0.00382783 0.00683134 0.0105729
1890 1 1.43198 13.8933 17.33 -0.00152129 0.000397735 0.0026265
