LAMMPS data file via write_data, version 23 Jun 2022, timestep = 0

1216 atoms
3 atom types

0 20.168875556741614 xlo xhi
0 20.168875556741614 ylo yhi
-2.2283669804811876 32.0884845189291 zlo zhi

Masses

1 12.011
2 1.00784
3 16

Atoms # charge/kk

3 1 5.5397340273086469e-07 1.2605547222964149e+00 1.2605547222960629e+00 -1.6671303954768877e+00 0 0 0
4 1 5.9746461486290763e-08 2.5210488840239806e+00 1.2605547222959921e+00 -9.9235688506853648e-01 0 0 0
7 1 -1.5320802520051723e-06 1.2605547222960913e+00 6.3027736114818440e+00 -1.6671303954774488e+00 0 0 0
8 1 6.8699571422396352e-07 1.2605547222961746e+00 3.7816641668888358e+00 -1.6671303954771346e+00 0 0 0
9 1 4.8592704728645037e-06 2.5210488840236245e+00 6.3027736114812454e+00 -9.9235688506854380e-01 0 0 0
10 1 3.7114904343558442e-07 2.5210488840238119e+00 3.7816641668886675e+00 -9.9235688506851683e-01 0 0 0
11 1 -1.7403053536607157e-06 3.7816641668892723e+00 3.7816641668902631e+00 -1.6670824474196919e+00 0 0 0
12 1 -3.7885758685243885e-06 3.7816641668889810e+00 1.2605547222968787e+00 -1.6670824474200718e+00 0 0 0
13 1 -3.0549847003587209e-06 5.0422794497544867e+00 3.7816641668884379e+00 -9.9235688506830422e-01 0 0 0
14 1 -8.5816375213235431e-07 5.0422794497540391e+00 1.2605547222962803e+00 -9.9235688506843978e-01 0 0 0
15 1 1.4512265252468179e-06 6.3027736114817312e+00 1.2605547222955626e+00 -1.6671303954765835e+00 0 0 0
24 1 -2.1225343439371570e-06 3.7816641668893989e+00 6.3027736114821913e+00 -1.6670824474192172e+00 0 0 0
26 1 4.9103781281282180e-07 5.0422794497547772e+00 6.3027736114813910e+00 -9.9235688506824415e-01 0 0 0
27 1 1.9216385874815681e-06 6.3027736114815403e+00 6.3027736114809016e+00 -1.6671303954777592e+00 0 0 0
28 1 2.5450556080014949e-06 6.3027736114818156e+00 3.7816641668875288e+00 -1.6671303954771051e+00 0 0 0
132 1 2.9249365337674136e-06 1.2887945522303055e+00 2.5338367440696707e+00 8.9663609109303022e-01 0 0 0
134 1 2.7479111471464828e-06 1.2823848889528491e+00 1.2993960037549501e+00 1.8441090213426590e+00 0 0 0
137 1 -7.3028975929606801e-07 2.4980545289908989e+00 1.2490668866405925e+00 2.7275673334461081e+00 0 0 0
138 1 -1.4988514677111320e-06 3.7730004307986937e+00 3.6311493733477002e-02 8.7880369152353732e-01 0 0 0
144 1 -7.5106804219090704e-06 1.2228281364019320e+00 6.3100411441119100e+00 1.7243378995399004e+00 0 0 0
145 1 -4.7435163348643054e-06 1.2187912172593027e+00 3.7790558209870242e+00 1.7988738683086185e+00 0 0 0
146 1 -2.5101908954966301e-06 2.5406768477596198e+00 5.0195677369424105e+00 -4.5710319339175663e-03 0 0 0
147 1 4.4069941593260721e-06 1.2660130883874128e+00 5.0163283128319547e+00 8.8210418672220503e-01 0 0 0
148 1 3.6521518786084543e-06 2.4693058994827366e+00 6.3285673081753711e+00 2.6565155609952344e+00 0 0 0
149 1 3.0664428792166475e-06 2.5465626619219366e+00 3.8240099721568472e+00 2.6720071651581243e+00 0 0 0
150 1 4.6611613164708684e-06 3.7899464063334634e+00 5.0589864201669030e+00 8.7024190658823131e-01 0 0 0
151 1 -1.1686898895705986e-06 2.5549466756264594e+00 2.5092457764737790e+00 4.8954200604734800e-02 0 0 0
152 1 -1.4277619405001456e-06 3.7795223308211390e+00 3.8058634364401218e+00 1.7747950500841965e+00 0 0 0
153 1 6.0239537456841685e-06 3.7717547092471468e+00 1.2659306727780471e+00 1.7772888689808597e+00 0 0 0
154 1 4.1842909511458792e-06 5.0916898199551683e+00 2.5303876764811672e+00 2.5408309351570450e-02 0 0 0
155 1 -3.1850415043203845e-06 3.7760385627721278e+00 2.4974409567202920e+00 8.8717483064363234e-01 0 0 0
156 1 -6.5280499963116511e-06 5.0526355568644288e+00 3.8046687451689039e+00 2.6746727001992952e+00 0 0 0
157 1 -8.0667790762527177e-06 5.0446491770071722e+00 1.2970689489317280e+00 2.6847756618344563e+00 0 0 0
158 1 -4.7400696122802832e-06 6.3838728367881323e+00 2.4871751577624712e+00 8.9129743785804239e-01 0 0 0
159 1 2.4771554746101278e-06 5.0533806192096966e+00 4.8022177774068309e-03 -2.3273976438116795e-03 0 0 0
160 1 6.9937415915154317e-06 6.3101064209581628e+00 1.2830656993670646e+00 1.8287018726895257e+00 0 0 0
179 1 -2.2153421640807894e-06 3.7681727884830223e+00 6.3409920345811299e+00 1.7493286194715876e+00 0 0 0
183 1 -1.8504116360972319e-06 5.0420270327943006e+00 6.3034282866121636e+00 2.6465417789877725e+00 0 0 0
185 1 2.9313098821004037e-06 5.0777232608799103e+00 5.0185528556405776e+00 -2.7348562644126540e-03 0 0 0
186 1 8.9311525191489746e-07 6.3104433350470357e+00 6.2880459980668117e+00 1.7784991516482707e+00 0 0 0
187 1 5.5570674553774835e-06 6.2985075292702231e+00 3.7555520300960308e+00 1.7792641280702546e+00 0 0 0
189 1 -3.7927864594296262e-06 6.3204043480655363e+00 5.0464120175840179e+00 9.0651045287009735e-01 0 0 0
388 1 1.5249562697465152e-06 1.3166512983007728e+00 2.5114007064505870e+00 4.5270962574058782e+00 0 0 0
402 1 -1.0910179378758146e-07 2.5352500943433416e+00 5.0773155682139945e+00 3.5824008086381465e+00 0 0 0
403 1 6.1305610668712583e-06 1.2586225221430831e+00 5.0542187010569215e+00 4.5010190731194397e+00 0 0 0
406 1 -6.3030892466928747e-06 3.7654188391082926e+00 5.0722024446911149e+00 4.4581465026516831e+00 0 0 0
407 1 -3.4725805509801014e-06 2.5484154339291019e+00 2.5557750375494570e+00 3.6445936048422936e+00 0 0 0
410 1 6.9699427653489928e-06 5.0471037708691115e+00 2.5155190889966463e+00 3.5182206349162821e+00 0 0 0
411 1 -5.8040390932766393e-06 3.8196123402741540e+00 2.5772640968203335e+00 4.5298483384201029e+00 0 0 0
414 1 -6.6098408504613504e-06 6.3130178375838559e+00 2.5278997528769200e+00 4.4508903595837896e+00 0 0 0
415 1 6.8799723257188782e-06 5.1026237925169564e+00 2.0140510889629560e+01 3.5726588238495962e+00 0 -1 0
441 1 5.2899309446182565e-06 5.0725478166367601e+00 5.0480821809620871e+00 3.5708470622930255e+00 0 0 0
445 1 -6.1342934333269446e-06 6.3261287563367192e+00 5.0700539324839378e+00 4.4747236533087218e+00 0 0 0
1 1 -1.7625104465563946e-06 6.0560568815759552e-05 3.7816641668895001e+00 -9.9235688506844322e-01 0 0 0
2 1 2.0881129521235952e-06 6.0560568908130108e-05 1.2605547222968425e+00 -9.9235688506851272e-01 0 0 0
6 1 -1.7312723852542619e-06 6.0560568901024681e-05 6.3027736114822357e+00 -9.9235688506848763e-01 0 0 0
385 1 -6.1975646313655742e-06 1.3650921761622990e-02 2.5411123246071274e+00 3.6153584620892389e+00 0 0 0
389 1 2.1159608116201488e-06 2.0136504188387704e+01 5.7408278709780533e-02 3.6688830198017226e+00 -1 0 0
399 1 -1.1160464283339660e-05 1.1969873192281311e-02 5.0758836557424809e+00 3.5365201010998288e+00 0 0 0
418 1 -7.6380359120164420e-06 6.3532762455491030e+00 2.0136621583161091e+01 4.4708313564228552e+00 0 -1 0
16 1 -2.0780297285417221e-06 7.5632677732096480e+00 1.2605547222955229e+00 -9.9235688506875797e-01 0 0 0
29 1 2.0677276327648280e-06 7.5632677732084277e+00 6.3027736114808937e+00 -9.9235688506867747e-01 0 0 0
30 1 1.8617670116564728e-06 7.5632677732091746e+00 3.7816641668878854e+00 -9.9235688506868691e-01 0 0 0
31 1 -8.5027334400577635e-07 8.8238830560746155e+00 3.7816641668902329e+00 -1.6670824474197763e+00 0 0 0
32 1 6.4094277507250361e-07 8.8238830560750419e+00 1.2605547222967508e+00 -1.6670824474200827e+00 0 0 0
33 1 -4.0152723347055515e-06 1.0084498338939762e+01 3.7816641668894411e+00 -9.9235688506851150e-01 0 0 0
34 1 -2.2331126122920187e-06 1.0084498338939808e+01 1.2605547222970244e+00 -9.9235688506838704e-01 0 0 0
35 1 1.7870331168922845e-06 1.1344992500667063e+01 1.2605547222965838e+00 -1.6671303954767489e+00 0 0 0
36 1 -2.7855520288015694e-06 1.2605486662394425e+01 1.2605547222961726e+00 -9.9235688506840336e-01 0 0 0
52 1 1.2563430984451840e-06 8.8238830560743065e+00 6.3027736114827144e+00 -1.6670824474190054e+00 0 0 0
54 1 -2.5409436137446455e-06 1.0084498338940030e+01 6.3027736114816184e+00 -9.9235688506849751e-01 0 0 0
55 1 4.1567175235592374e-07 1.1344992500667349e+01 6.3027736114807320e+00 -1.6671303954771868e+00 0 0 0
56 1 3.4477214930522484e-06 1.1344992500667187e+01 3.7816641668888038e+00 -1.6671303954768271e+00 0 0 0
57 1 -3.2836788934645954e-06 1.2605486662394604e+01 6.3027736114809292e+00 -9.9235688506835440e-01 0 0 0
58 1 -2.4035325599809355e-07 1.2605486662394609e+01 3.7816641668885302e+00 -9.9235688506835651e-01 0 0 0
163 1 -7.1098319801816340e-06 7.5570200846500883e+00 1.2165010942386980e+00 2.6818621306845949e+00 0 0 0
188 1 -1.3944073935734252e-06 7.6068732963057908e+00 5.0223464257020236e+00 2.2382044355744667e-02 0 0 0
190 1 -4.7914061313827919e-06 7.5538893702124232e+00 6.3672093712937778e+00 2.6291951829664173e+00 0 0 0
191 1 -5.4689357557166581e-06 7.5540771737211854e+00 3.7531059467736467e+00 2.6223619278249295e+00 0 0 0
192 1 -3.4835465544868240e-06 8.8315367971011742e+00 5.0923364489635734e+00 8.7624772724919520e-01 0 0 0
193 1 3.3483312377175728e-06 7.5823791719818034e+00 2.5131180105529691e+00 3.6187268634753685e-03 0 0 0
194 1 3.8297608668799786e-06 8.8439140261745202e+00 3.8219665671153726e+00 1.7678691478288635e+00 0 0 0
195 1 3.1604884797368017e-06 8.8701114890805410e+00 1.2362648053292777e+00 1.7770036271190488e+00 0 0 0
196 1 6.1440930419091660e-06 1.0098346948645517e+01 2.4927357347160366e+00 -1.2473499483420063e-02 0 0 0
197 1 -5.1265968844852426e-06 8.8192984549399096e+00 2.5180532748480648e+00 8.8953982549479405e-01 0 0 0
198 1 -2.8664824055469423e-06 1.0076767181653254e+01 3.7804186582884367e+00 2.6530464488438024e+00 0 0 0
199 1 -3.6233037754890784e-06 1.0137564033657895e+01 1.2582041604931493e+00 2.7068699785673420e+00 0 0 0
200 1 -6.2981543683023321e-06 1.1371288686835850e+01 2.4691196526514010e+00 8.3815045604647542e-01 0 0 0
201 1 4.5606628507789518e-06 1.0116255172095414e+01 6.7167762323771260e-03 3.3817154135062755e-02 0 0 0
202 1 5.2035127345744697e-06 1.1396156405906716e+01 1.2477815662683989e+00 1.8146000017155786e+00 0 0 0
205 1 -5.0588760020112562e-06 1.2605151336279331e+01 1.3174511023404043e+00 2.6973788297918451e+00 0 0 0
237 1 4.5318660291954995e-06 8.8713923255584461e+00 6.3102646121767370e+00 1.7606931957140752e+00 0 0 0
241 1 -5.3420991419110231e-06 1.0137590142549378e+01 6.2591670033233040e+00 2.6953982936098400e+00 0 0 0
243 1 4.5335619553570509e-06 1.0159759997482471e+01 5.0161784283293649e+00 4.0364052235797275e-03 0 0 0
244 1 6.6263583300505222e-06 1.1387901893813188e+01 6.3074890350834432e+00 1.7935033181258864e+00 0 0 0
245 1 1.4789853769357370e-06 1.1320662129626703e+01 3.7916682130590234e+00 1.7507155351922870e+00 0 0 0
246 1 -4.9717261858228853e-07 1.2648908190930428e+01 5.0008985501390955e+00 -7.1637785706658097e-03 0 0 0
247 1 -2.9731896785823379e-06 1.1371818188558235e+01 5.0043280408960094e+00 8.9738174629461132e-01 0 0 0
248 1 -6.0240906056202214e-06 1.2680324455043886e+01 6.2882561989215420e+00 2.6916425287129200e+00 0 0 0
249 1 -1.9354922288247218e-06 1.2558014152672051e+01 3.7912783181391481e+00 2.6716932177583081e+00 0 0 0
251 1 2.4609257607474971e-06 1.2566740864741620e+01 2.5119664935726371e+00 -3.5226426222651708e-02 0 0 0
444 1 7.5560508357144198e-06 7.5604526538926269e+00 5.0967241826465495e+00 3.5582324180527678e+00 0 0 0
448 1 -5.7664309726433771e-06 8.8086142330641035e+00 5.0715463626485624e+00 4.4370448158011513e+00 0 0 0
449 1 6.4626641402278704e-06 7.5403319725192564e+00 2.5467833128703363e+00 3.5669898991649229e+00 0 0 0
452 1 2.9327822776836001e-06 1.0127716589619947e+01 2.5293919445993343e+00 3.5685039288351446e+00 0 0 0
453 1 -4.6613080783897008e-06 8.7880988614959517e+00 2.5531709073367104e+00 4.4244207385895997e+00 0 0 0
456 1 -3.2595099204623020e-06 1.1355420610755989e+01 2.5444434121206680e+00 4.4768036164224947e+00 0 0 0
457 1 3.1902199925155450e-06 1.0039044002862834e+01 3.3790128881409174e-03 3.6450965150115686e+00 0 0 0
499 1 1.5040768211453053e-06 1.0133143170384630e+01 5.0712063403615444e+00 3.5780252627353133e+00 0 0 0
502 1 3.1727650463102127e-06 1.2616603742782669e+01 5.0526032292679268e+00 3.5538292629773940e+00 0 0 0
503 1 -1.5304606831363479e-06 1.1420633683301981e+01 5.0686371507484154e+00 4.4413942572601322e+00 0 0 0
507 1 6.1722988817813140e-06 1.2580333637655702e+01 2.5953980455821979e+00 3.5781464348791658e+00 0 0 0
129 1 -5.8510792402223024e-07 3.6758203497903708e-02 2.5262264861732051e+00 -4.2937523947922329e-02 0 0 0
130 1 8.7555663292154875e-06 8.9192526655637039e-03 3.8267696615138900e+00 2.7350430295420383e+00 0 0 0
131 1 -1.5046117243671775e-06 2.3437311815406758e-02 1.2684174919188580e+00 2.6587310925041758e+00 0 0 0
133 1 -3.6541606546555924e-06 6.5397169191669491e-02 1.2149920657844804e-02 1.4856159075836272e-02 0 0 0
141 1 1.1437149463110583e-05 2.0160651801263615e+01 6.2949377318687469e+00 2.6666599390849401e+00 -1 0 0
143 1 -2.5494128802485735e-06 1.8220887715287404e-02 5.0133020187504851e+00 -3.4863080984208886e-02 0 0 0
59 1 2.1439514093573780e-06 1.3866101945259732e+01 3.7816641668894002e+00 -1.6670824474195893e+00 0 0 0
60 1 2.5558764265571010e-06 1.3866101945259553e+01 1.2605547222964699e+00 -1.6670824474196906e+00 0 0 0
61 1 -1.5452117903449343e-06 1.5126717228125214e+01 3.7816641668890938e+00 -9.9235688506876363e-01 0 0 0
62 1 1.2626922764293853e-06 1.5126717228125059e+01 1.2605547222963738e+00 -9.9235688506873698e-01 0 0 0
63 1 -3.1812179232615108e-07 1.6387211389852538e+01 1.2605547222957767e+00 -1.6671303954771288e+00 0 0 0
64 1 -1.9789175486950214e-06 1.7647705551579694e+01 1.2605547222956310e+00 -9.9235688506842479e-01 0 0 0
84 1 2.2292220764487316e-06 1.3866101945259921e+01 6.3027736114828823e+00 -1.6670824474192616e+00 0 0 0
86 1 -6.5245883561576475e-07 1.5126717228125543e+01 6.3027736114816895e+00 -9.9235688506879283e-01 0 0 0
87 1 -1.0615999756997544e-06 1.6387211389852602e+01 6.3027736114807134e+00 -1.6671303954779448e+00 0 0 0
88 1 -1.2653135849511461e-06 1.6387211389852482e+01 3.7816641668885036e+00 -1.6671303954775092e+00 0 0 0
89 1 1.3591118248625097e-06 1.7647705551579303e+01 6.3027736114806183e+00 -9.9235688506849906e-01 0 0 0
90 1 1.2060543481580161e-06 1.7647705551579499e+01 3.7816641668882243e+00 -9.9235688506850872e-01 0 0 0
91 1 2.5458306661817634e-06 1.8908320834444890e+01 3.7816641668896911e+00 -1.6670824474191552e+00 0 0 0
92 1 -7.1188205394643282e-07 1.8908320834445018e+01 1.2605547222968030e+00 -1.6670824474192623e+00 0 0 0
112 1 1.1889739501625898e-06 1.8908320834444801e+01 6.3027736114828619e+00 -1.6670824474188595e+00 0 0 0
206 1 -4.1328439960969789e-06 1.3889745318761728e+01 4.0171081813684825e-02 8.9957182367259958e-01 0 0 0
250 1 -2.2782803992619022e-06 1.3886449216045012e+01 4.9932315573327202e+00 8.6385232360464104e-01 0 0 0
252 1 8.8439868838514319e-07 1.3889483860376039e+01 3.7610962573644620e+00 1.7474937351483888e+00 0 0 0
253 1 4.6643338604856294e-06 1.3879650345123375e+01 1.2931357907367129e+00 1.8414210626855010e+00 0 0 0
254 1 1.3207730004763205e-06 1.5119605643066562e+01 2.5043222326848893e+00 -1.8575283682953830e-02 0 0 0
255 1 -2.7770762395881278e-07 1.3889615014303402e+01 2.5166440273950874e+00 8.9003499140008679e-01 0 0 0
256 1 1.5787507805588958e-06 1.5169331113447406e+01 3.7687651808538551e+00 2.6930859252715540e+00 0 0 0
257 1 -6.0029877096410305e-07 1.5137101311327065e+01 1.2662157408284356e+00 2.6692324282138107e+00 0 0 0
258 1 3.4349579826902796e-07 1.6464466178733677e+01 2.5098821794103578e+00 8.6645498949654942e-01 0 0 0
259 1 4.7441825486021448e-07 1.5080449259891443e+01 1.4603412844574162e-02 -2.3120881712676363e-03 0 0 0
260 1 -4.0962909869958179e-06 1.6478112737407585e+01 1.3167412376796206e+00 1.7942425889704956e+00 0 0 0
263 1 1.5289424984033752e-06 1.7754988968926497e+01 1.2676430678399013e+00 2.7158499151720110e+00 0 0 0
264 1 7.5096541812057282e-07 1.8959645550713898e+01 2.6735560520565835e-02 8.3842014862651271e-01 0 0 0
301 1 5.8495758643909552e-06 1.3880170168893756e+01 6.2923232893136731e+00 1.7743700091423238e+00 0 0 0
305 1 -3.5873815143226228e-06 1.5144930294498879e+01 6.2657538592168889e+00 2.6679496911564513e+00 0 0 0
307 1 1.7461924415804972e-06 1.5155195455536884e+01 4.9637862139684596e+00 -3.2964021792255245e-03 0 0 0
308 1 -3.6274453477166899e-06 1.6396874021422551e+01 6.2851732671462290e+00 1.8029830991503095e+00 0 0 0
309 1 -3.9847365079569877e-06 1.6424038666123987e+01 3.7575202071455189e+00 1.8175239808067540e+00 0 0 0
310 1 -1.1571291056192693e-06 1.7610507521063852e+01 5.0327537841028098e+00 1.3768307267188938e-02 0 0 0
311 1 3.3036349952137708e-06 1.6384694090215351e+01 5.0095264235330390e+00 8.9326157066888745e-01 0 0 0
312 1 6.9696244102483403e-06 1.7675334223712735e+01 6.2430721781085445e+00 2.6670100637503498e+00 0 0 0
313 1 6.4782993058861428e-06 1.7682002092984888e+01 3.7326912409232298e+00 2.6793644559311631e+00 0 0 0
314 1 4.9693760025953043e-06 1.8936677841815442e+01 5.0789573571417934e+00 8.5379194708451001e-01 0 0 0
315 1 1.2598062340364946e-06 1.7671758714553128e+01 2.5748017938403880e+00 -3.1624643361530300e-02 0 0 0
316 1 -6.5638045915001145e-06 1.8963419885049209e+01 3.7556236444026538e+00 1.7583394598590043e+00 0 0 0
317 1 -2.1416646642406229e-06 1.8962318685695678e+01 1.2570557079857343e+00 1.7417592462633569e+00 0 0 0
318 1 1.8809233312676511e-06 1.8939471246273264e+01 2.5676684083077084e+00 9.0276572231112018e-01 0 0 0
355 1 -5.3636199535557117e-06 1.8896923309648336e+01 6.2778883496406923e+00 1.7251714590343574e+00 0 0 0
506 1 -5.5849858337519830e-07 1.3928353853019631e+01 5.0121000843640147e+00 4.5270887993849920e+00 0 0 0
510 1 -9.8904901620990939e-08 1.5175288895984329e+01 2.5302366458334120e+00 3.5821883978995319e+00 0 0 0
511 1 -2.9434552381170539e-06 1.3868420645287443e+01 2.5094281105145706e+00 4.4828164074593451e+00 0 0 0
514 1 5.2088013839524712e-06 1.6422591574524869e+01 2.4989794076249741e+00 4.4822329267436976e+00 0 0 0
515 1 3.8880923673780029e-06 1.5159299797170101e+01 6.3647279060105189e-03 3.5657311735918320e+00 0 0 0
563 1 -3.2661590581119766e-06 1.5135781168862801e+01 5.0703944704248549e+00 3.5799777002935862e+00 0 0 0
566 1 -9.0244588115624548e-06 1.7681630122299897e+01 5.0328092672926443e+00 3.5723578243669305e+00 0 0 0
567 1 5.9135764564385400e-06 1.6424274806191526e+01 5.0036650139663719e+00 4.4780434165467913e+00 0 0 0
570 1 1.0500430745631449e-05 1.8953974920100094e+01 5.0688307505710082e+00 4.4274010407742397e+00 0 0 0
571 1 -7.8467457012361598e-06 1.7700276890806361e+01 2.4984857657199067e+00 3.6174876756252266e+00 0 0 0
574 1 6.0170163610960354e-06 1.8905127591659536e+01 2.5320475044582533e+00 4.5074195963580364e+00 0 0 0
19 1 -1.9424240833963505e-06 1.2605547222967834e+00 1.1344992500667189e+01 -1.6671303954775860e+00 0 0 0
20 1 8.2321831595896037e-07 1.2605547222965074e+00 8.8238830560746173e+00 -1.6671303954775825e+00 0 0 0
21 1 3.0400157991375759e-06 2.5210488840239011e+00 1.1344992500666716e+01 -9.9235688506835551e-01 0 0 0
22 1 1.6753100764361008e-06 2.5210488840237804e+00 8.8238830560739281e+00 -9.9235688506846775e-01 0 0 0
23 1 6.1060918909729201e-08 3.7816641668893878e+00 8.8238830560738943e+00 -1.6670824474190731e+00 0 0 0
25 1 4.7098930394884782e-06 5.0422794497547034e+00 8.8238830560749069e+00 -9.9235688506824815e-01 0 0 0
44 1 -2.9474689945790962e-06 3.7816641668892901e+00 1.1344992500666608e+01 -1.6670824474191281e+00 0 0 0
46 1 -9.9910522521738962e-07 5.0422794497545489e+00 1.1344992500668088e+01 -9.9235688506826614e-01 0 0 0
47 1 9.0375311525586398e-07 6.3027736114812161e+00 1.1344992500667937e+01 -1.6671303954779773e+00 0 0 0
48 1 1.9005185694475410e-07 6.3027736114811868e+00 8.8238830560748927e+00 -1.6671303954781027e+00 0 0 0
142 1 5.1565482179384909e-06 1.2985783135901807e+00 7.6355638142208138e+00 8.2042249282336221e-01 0 0 0
168 1 4.9633536901545769e-06 1.2972201647741821e+00 1.2640756967328114e+01 8.5436075823954671e-01 0 0 0
170 1 -7.6352062560942663e-06 1.2243800080739171e+00 1.1339722053707002e+01 1.7754227000995959e+00 0 0 0
171 1 -6.3000878294002195e-06 1.2181653164999882e+00 8.8647854689916379e+00 1.7164548054809441e+00 0 0 0
172 1 -1.5356815101866192e-07 2.5123288229147747e+00 1.0059781525708756e+01 7.5067520439543369e-03 0 0 0
173 1 6.2460811784771891e-06 1.2493316920560962e+00 1.0068118372962816e+01 8.8004296897963519e-01 0 0 0
174 1 4.8459778876455312e-06 2.4877929160995200e+00 1.1368917591230726e+01 2.6564903035121912e+00 0 0 0
175 1 6.3703768478334936e-06 2.5143173888896597e+00 8.8096940796384740e+00 2.6558001484549369e+00 0 0 0
176 1 1.3583446299391022e-06 3.8049664457912247e+00 1.0060364684218152e+01 8.8652473600138559e-01 0 0 0
177 1 -3.7312410445800269e-07 2.4669321875617647e+00 7.6327045239685152e+00 -3.0592184240223214e-02 0 0 0
178 1 -1.5617593540178575e-06 3.7319425424057195e+00 8.7756059047681170e+00 1.8036731148425305e+00 0 0 0
180 1 -1.1867631113459364e-06 5.0465948809474002e+00 7.5015379289674069e+00 -3.5837953308419220e-02 0 0 0
181 1 1.0618725734185214e-06 3.7681568995641950e+00 7.5498435446311882e+00 8.6098435460833977e-01 0 0 0
182 1 2.1979692121288016e-06 5.0489531162547445e+00 8.8069846759370947e+00 2.6884147636368332e+00 0 0 0
184 1 1.6047281611375110e-06 6.3458030935473166e+00 7.5749862906154952e+00 8.4411459635047281e-01 0 0 0
219 1 -2.7034947260783461e-06 2.5488046013838770e+00 1.2625370621948798e+01 9.8798017217179065e-03 0 0 0
221 1 -2.3997454660556954e-06 3.7912110299279274e+00 1.1358059301226266e+01 1.7873698865118790e+00 0 0 0
222 1 1.0767975839547557e-06 5.0683063453844674e+00 1.2553121331756657e+01 7.2417058225265982e-03 0 0 0
223 1 -1.9618401798755853e-06 3.8118613815848814e+00 1.2598324195671497e+01 8.6084400783347936e-01 0 0 0
225 1 1.1442066779314798e-06 5.0224242718677949e+00 1.1332920590604171e+01 2.6921597833952986e+00 0 0 0
226 1 7.4182951095844228e-07 6.3259600365295707e+00 1.2594778106513065e+01 9.0315801733664047e-01 0 0 0
227 1 -2.3267577756792846e-06 5.0116093123694307e+00 1.0102856241657783e+01 4.6611033211264065e-02 0 0 0
228 1 -5.2517708840024876e-07 6.3206025232378966e+00 1.1317170326208064e+01 1.7846675173201128e+00 0 0 0
229 1 -2.1704866789953018e-06 6.2657180859295245e+00 8.7679492271003827e+00 1.8026576598935984e+00 0 0 0
231 1 1.7733493487483584e-07 6.2730842193829854e+00 1.0062497588861335e+01 9.2000280233505205e-01 0 0 0
398 1 9.7600908293534478e-06 1.2408932212270052e+00 7.5937007707798569e+00 4.3944196022959536e+00 0 0 0
424 1 6.7601022692530506e-06 1.3210115802378850e+00 1.2610337103629515e+01 4.4936699152392041e+00 0 0 0
428 1 -4.0733815940428884e-06 2.5377460638173601e+00 1.0096124726757944e+01 3.5254482598111814e+00 0 0 0
429 1 9.4597795616250649e-06 1.2399070573830857e+00 1.0110131349271875e+01 4.4593937774072909e+00 0 0 0
432 1 4.3054342303659455e-06 3.8050016151133672e+00 1.0127492279619581e+01 4.5021515345178758e+00 0 0 0
433 1 -7.2319805212475881e-06 2.5081609100121631e+00 7.5729200087636395e+00 3.5272744937905003e+00 0 0 0
436 1 1.3750223437370980e-06 5.0311533025790807e+00 7.5403888487052102e+00 3.5637256763127936e+00 0 0 0
437 1 1.2641615290754346e-06 3.7453999045528334e+00 7.5368622945789268e+00 4.4645019339035912e+00 0 0 0
440 1 -5.3464995522745044e-06 6.2800164228690765e+00 7.5595363985764124e+00 4.4576881233260170e+00 0 0 0
475 1 -2.7482618062575355e-06 2.5363644129283740e+00 1.2601605002888169e+01 3.6170532294243611e+00 0 0 0
478 1 2.1121568013425484e-06 5.1053888664838940e+00 1.2641875533473639e+01 3.5709002547795330e+00 0 0 0
479 1 -9.3921272850375130e-07 3.8285647795148363e+00 1.2631888883417929e+01 4.4630557720834938e+00 0 0 0
482 1 -3.5299585282237243e-06 6.3320425352709391e+00 1.2577039927108821e+01 4.4541095850305155e+00 0 0 0
483 1 -2.3794562027756992e-06 5.0110871205766827e+00 1.0094183663196363e+01 3.5416789002073608e+00 0 0 0
487 1 2.1968700457485410e-06 6.2813434848966416e+00 1.0045109273790082e+01 4.4977759578707746e+00 0 0 0
5 1 4.8952225353747276e-07 6.0560569252743335e-05 8.8238830560749975e+00 -9.9235688506860920e-01 0 0 0
18 1 5.9360620754307954e-06 6.0560569419720878e-05 1.1344992500667599e+01 -9.9235688506865172e-01 0 0 0
395 1 -8.0781661338164863e-06 6.7661699060199160e-03 7.5875787331803339e+00 3.5434043896934391e+00 0 0 0
421 1 -1.1100187627259589e-05 2.3940837072541948e-02 1.2624005385621777e+01 3.5682306915570408e+00 0 0 0
425 1 -9.4572146564164781e-06 3.1464489042550680e-03 1.0153134600294019e+01 3.5732004533107027e+00 0 0 0
49 1 -1.4487225322436198e-06 7.5632677732083895e+00 1.1344992500667207e+01 -9.9235688506894015e-01 0 0 0
50 1 -1.2514013716154006e-06 7.5632677732080946e+00 8.8238830560742620e+00 -9.9235688506882169e-01 0 0 0
51 1 -2.5472346469618852e-06 8.8238830560743686e+00 8.8238830560744930e+00 -1.6670824474185133e+00 0 0 0
53 1 3.2355686932935171e-06 1.0084498338940239e+01 8.8238830560743171e+00 -9.9235688506837560e-01 0 0 0
76 1 -2.5509204470025624e-06 8.8238830560745978e+00 1.1344992500666491e+01 -1.6670824474187460e+00 0 0 0
78 1 -1.2278906386060356e-06 1.0084498338940090e+01 1.1344992500667614e+01 -9.9235688506823838e-01 0 0 0
79 1 -2.6102001762844991e-06 1.1344992500666779e+01 1.1344992500667407e+01 -1.6671303954775383e+00 0 0 0
80 1 1.1871601185917220e-06 1.1344992500667146e+01 8.8238830560735142e+00 -1.6671303954775776e+00 0 0 0
81 1 -3.1224007646414320e-07 1.2605486662393906e+01 1.1344992500666896e+01 -9.9235688506843467e-01 0 0 0
82 1 -2.3468845471627873e-06 1.2605486662394220e+01 8.8238830560737522e+00 -9.9235688506842501e-01 0 0 0
230 1 -1.0413871492643913e-06 7.5657190443183957e+00 1.0067680878457583e+01 1.9856823185448340e-02 0 0 0
232 1 -1.5762527817668941e-06 7.5954208742073082e+00 1.1349225111951549e+01 2.7169730052568757e+00 0 0 0
233 1 7.1616710657578232e-07 7.5671669163401543e+00 8.8737948249045733e+00 2.6221718923055715e+00 0 0 0
234 1 3.8240301386781701e-06 8.8177794944456203e+00 1.0048483609209786e+01 9.1815196744158523e-01 0 0 0
235 1 -2.3220252545854627e-06 7.5871311280681111e+00 7.5130150126389248e+00 -2.3489735395651027e-02 0 0 0
236 1 -7.6062565645357584e-07 8.8095243518786219e+00 8.7833281606790887e+00 1.7965839654414770e+00 0 0 0
238 1 2.3570960800941600e-06 1.0125201081426288e+01 7.6183340533366737e+00 1.1787700256926483e-02 0 0 0
239 1 -4.6954928375699214e-06 8.8347756604246328e+00 7.6010208459972448e+00 8.5239653340214305e-01 0 0 0
240 1 -3.5001051901563938e-06 1.0089839469789659e+01 8.8368786239361619e+00 2.6255165702124006e+00 0 0 0
242 1 -6.7387779691324410e-06 1.1375280169861000e+01 7.5891783277849427e+00 8.4374773770316425e-01 0 0 0
283 1 2.4835845229958327e-06 7.5444275759131694e+00 1.2589715098555592e+01 5.0348652957182147e-02 0 0 0
285 1 1.7739753934922692e-06 8.8384506473461677e+00 1.1385965417389240e+01 1.8228345394704142e+00 0 0 0
286 1 5.7982883295539142e-06 1.0062696720451644e+01 1.2605605081572827e+01 3.4071793347854359e-02 0 0 0
287 1 -6.7847219590030918e-06 8.8218400385967559e+00 1.2597991211619666e+01 8.9466119775842490e-01 0 0 0
289 1 -3.7506260134165352e-06 1.0103078665808196e+01 1.1307889498740330e+01 2.7065495935816033e+00 0 0 0
290 1 -2.6864212828827821e-06 1.1288655427862277e+01 1.2607954299689894e+01 9.0325560088955548e-01 0 0 0
291 1 1.0674922118626350e-06 1.0083149105217510e+01 1.0122972505374111e+01 7.7463468295970714e-02 0 0 0
292 1 1.4098061833617349e-06 1.1345748881880271e+01 1.1326983356535704e+01 1.7938753760383193e+00 0 0 0
293 1 6.2519746933947530e-06 1.1360369869431956e+01 8.8076147992234013e+00 1.7662807380966687e+00 0 0 0
294 1 1.4582622890600765e-07 1.2610896021202331e+01 1.0089844540567261e+01 -4.8029056732897509e-03 0 0 0
295 1 -3.5265872607294434e-06 1.1367406512399675e+01 1.0067122463819482e+01 8.4664818111234119e-01 0 0 0
296 1 -2.7001483854289083e-07 1.2618465868712148e+01 1.1315757346908960e+01 2.6618469431791691e+00 0 0 0
297 1 -5.6538908298082599e-06 1.2635538593619662e+01 8.8479729037563253e+00 2.6815622857519155e+00 0 0 0
299 1 1.3703578686374500e-06 1.2640597358738727e+01 7.5775312970991431e+00 -2.5690914592134176e-03 0 0 0
337 1 -2.8020610547236827e-06 1.2602967549161932e+01 1.2630558515162710e+01 -1.1853699956507783e-02 0 0 0
486 1 9.0417930579176019e-07 7.5787637341859799e+00 1.0133147394351010e+01 3.5996105459018364e+00 0 0 0
490 1 4.8306980806845268e-08 8.8341111354411854e+00 1.0131656617211460e+01 4.4967083062670872e+00 0 0 0
491 1 4.5550730074688961e-06 7.5717210973812845e+00 7.5741331794928044e+00 3.5065583048496873e+00 0 0 0
494 1 5.2045567397511996e-06 1.0070306899615405e+01 7.6025005640306818e+00 3.5572389356460703e+00 0 0 0
495 1 -6.2841324195146772e-06 8.7660653696769995e+00 7.6502477472443466e+00 4.4425943958000662e+00 0 0 0
498 1 -8.5819262952484341e-06 1.1310254565621852e+01 7.6375938361681683e+00 4.4808549556285131e+00 0 0 0
539 1 6.6380251393212674e-06 7.5841681697194678e+00 1.2600117777666032e+01 3.6494606391824771e+00 0 0 0
542 1 1.5486876813250161e-06 1.0031353648531287e+01 1.2605618024387553e+01 3.5473373530115460e+00 0 0 0
543 1 -9.8384615355687570e-07 8.8245142414961144e+00 1.2616081527876542e+01 4.4741653316490968e+00 0 0 0
546 1 -1.9455914797897733e-06 1.1305669300314756e+01 1.2573229229887307e+01 4.4494906423726936e+00 0 0 0
547 1 4.3411121711862185e-06 1.0096561548582995e+01 1.0039744475929981e+01 3.5598325474385106e+00 0 0 0
550 1 1.7882828309590461e-06 1.2619443855978217e+01 1.0073484617803370e+01 3.5489980702987185e+00 0 0 0
551 1 -4.7157960461586790e-06 1.1305507642794085e+01 1.0081915162413162e+01 4.4771132134159517e+00 0 0 0
555 1 6.8291082771819069e-06 1.2640622332117383e+01 7.6037320423021173e+00 3.5685818548053891e+00 0 0 0
593 1 1.9328360687690817e-06 1.2612575882618071e+01 1.2595485118180056e+01 3.5543430780244503e+00 0 0 0
139 1 -1.4842807536606953e-06 9.2818350817545081e-03 7.6853996005525049e+00 1.5680533047610939e-02 0 0 0
140 1 6.2850083183282353e-06 2.0154984459236484e+01 8.8074424967501521e+00 2.6261596512732233e+00 -1 0 0
165 1 -7.0788736326686497e-06 1.0786858888433670e-02 1.2603693576264359e+01 -9.0678759359687239e-03 0 0 0
167 1 1.0055317892869986e-05 2.0157229416139295e+01 1.1413832434455907e+01 2.6693520158945034e+00 -1 0 0
169 1 -6.5499635334184425e-06 2.0150197014670781e+01 1.0083904036714697e+01 6.5814203610267980e-03 -1 0 0
83 1 -7.0345490281469594e-08 1.3866101945260031e+01 8.8238830560754415e+00 -1.6670824474187176e+00 0 0 0
85 1 1.2694560468545843e-06 1.5126717228126074e+01 8.8238830560744859e+00 -9.9235688506884312e-01 0 0 0
104 1 -2.0618283982378839e-07 1.3866101945259887e+01 1.1344992500666951e+01 -1.6670824474185335e+00 0 0 0
106 1 4.5152231000643414e-06 1.5126717228126212e+01 1.1344992500667992e+01 -9.9235688506889597e-01 0 0 0
107 1 -4.1933513546147290e-06 1.6387211389853050e+01 1.1344992500667809e+01 -1.6671303954783980e+00 0 0 0
108 1 -1.5494562541749539e-06 1.6387211389852865e+01 8.8238830560733437e+00 -1.6671303954783971e+00 0 0 0
109 1 4.2703253973168794e-06 1.7647705551579183e+01 1.1344992500667210e+01 -9.9235688506835129e-01 0 0 0
110 1 -4.6161230032130638e-07 1.7647705551579072e+01 8.8238830560734662e+00 -9.9235688506841246e-01 0 0 0
111 1 3.2405084102823554e-06 1.8908320834444751e+01 8.8238830560751413e+00 -1.6670824474184287e+00 0 0 0
124 1 -7.8292864030673813e-07 1.8908320834444858e+01 1.1344992500666542e+01 -1.6670824474184525e+00 0 0 0
298 1 2.2844498347456680e-07 1.3900769799248577e+01 1.0136113218490026e+01 8.9890472265691557e-01 0 0 0
300 1 3.9690395464530658e-06 1.3867115606770021e+01 8.8225959473888125e+00 1.7468932028208670e+00 0 0 0
302 1 -3.1366377346341278e-07 1.5167298987370726e+01 7.5076827378653137e+00 3.3307070350232070e-03 0 0 0
303 1 -3.4205691919477304e-06 1.3882516664218752e+01 7.5544749698400064e+00 8.3512536606779264e-01 0 0 0
304 1 -1.4184673510268024e-08 1.5089947107683352e+01 8.8447181311591763e+00 2.6483609678670499e+00 0 0 0
306 1 -3.0141304490714522e-06 1.6391128804768979e+01 7.5763829255536264e+00 8.6694838313817579e-01 0 0 0
339 1 -2.8118485171273891e-06 1.3863171219111141e+01 1.1370915614721595e+01 1.7201437582767554e+00 0 0 0
340 1 -4.2067979805567810e-06 1.5216954415060632e+01 1.2575429989817096e+01 1.0185183037435857e-02 0 0 0
341 1 4.8338907830307783e-06 1.3903220154210308e+01 1.2643523087355277e+01 8.4054168463876455e-01 0 0 0
343 1 2.6684138256520233e-06 1.5129738576126595e+01 1.1410802506360888e+01 2.6527077626788080e+00 0 0 0
344 1 2.6559423994456711e-06 1.6435167571230039e+01 1.2590783424583922e+01 8.7418751513596782e-01 0 0 0
345 1 -5.3054101859201125e-06 1.5148743488450457e+01 1.0124894448266124e+01 3.1522717888048907e-03 0 0 0
346 1 -6.6772277785799177e-06 1.6367429962125854e+01 1.1405487695936044e+01 1.7584247857231510e+00 0 0 0
347 1 -3.1769245628540646e-06 1.6367561395791459e+01 8.8365411276641055e+00 1.7886433255935041e+00 0 0 0
348 1 7.9225091345830340e-08 1.7610734506559563e+01 1.0099056670818729e+01 2.1865268272148110e-02 0 0 0
349 1 6.2527344163790682e-06 1.6344467503503243e+01 1.0125300159079170e+01 8.2883378193671731e-01 0 0 0
350 1 1.2428276994226023e-05 1.7611912620699300e+01 1.1380116716098525e+01 2.6582204092655237e+00 0 0 0
351 1 7.5007684885084691e-06 1.7650023426753108e+01 8.8652115531611262e+00 2.6597359001196064e+00 0 0 0
352 1 3.1427698205533903e-06 1.8887189653724590e+01 1.0140079221431947e+01 8.7779966343444804e-01 0 0 0
353 1 3.5138281401089121e-06 1.7656979751830054e+01 7.5401122122909898e+00 -5.9657008795922849e-04 0 0 0
354 1 -5.2154799016703767e-06 1.8902218576407666e+01 8.7894605447968761e+00 1.7745236551938037e+00 0 0 0
356 1 3.1722967153705982e-06 1.8908836079275698e+01 7.5438158665100783e+00 8.6136418616306998e-01 0 0 0
375 1 -2.9235550883955495e-06 1.7633627940812840e+01 1.2568725926495215e+01 -1.0741403347650946e-02 0 0 0
377 1 -9.1876291887432921e-06 1.8939411044262258e+01 1.1380072969012838e+01 1.7855663498982641e+00 0 0 0
378 1 1.0537273356048855e-05 1.8929399486168577e+01 1.2626714125486254e+01 9.1986449130376702e-01 0 0 0
554 1 -1.2438238261702010e-06 1.3847411711570441e+01 1.0073462539037342e+01 4.4627304296452692e+00 0 0 0
558 1 2.8157263044358857e-07 1.5106205701916178e+01 7.5454810332012716e+00 3.5697074370410946e+00 0 0 0
559 1 -1.8352401657331559e-06 1.3873576796458361e+01 7.5597600893438193e+00 4.5054420987824439e+00 0 0 0
562 1 4.6925811568413718e-06 1.6365799095192152e+01 7.5547031075821200e+00 4.4256470600439544e+00 0 0 0
596 1 -2.4877736093098489e-06 1.5113878616427646e+01 1.2659743435492926e+01 3.5860061769429663e+00 0 0 0
597 1 -2.5686764254886258e-06 1.3842314659989306e+01 1.2701624843106028e+01 4.4280602670923068e+00 0 0 0
600 1 6.5030820776903070e-06 1.6381318268414056e+01 1.2649986134223385e+01 4.4413060983710277e+00 0 0 0
601 1 -4.1042672539336834e-08 1.5099813316540624e+01 1.0098800164318069e+01 3.5075396806120640e+00 0 0 0
604 1 -1.2187923618210299e-05 1.7618820140405493e+01 1.0156142878623193e+01 3.5742917678649992e+00 0 0 0
605 1 6.4753072969629044e-06 1.6370711115542829e+01 1.0095013017444742e+01 4.4846849795727834e+00 0 0 0
608 1 1.0378868116624459e-05 1.8876003446047953e+01 1.0127631757907100e+01 4.4226264287168613e+00 0 0 0
609 1 -9.4720979655965725e-06 1.7670054300325404e+01 7.5606893689347965e+00 3.5929768872454617e+00 0 0 0
612 1 1.0971716985438946e-05 1.8869309724735203e+01 7.6214577192130877e+00 4.3878659695247251e+00 0 0 0
631 1 -1.0550147461562210e-05 1.7630932722665975e+01 1.2612419531332623e+01 3.5240709141306392e+00 0 0 0
634 1 1.3400361267192780e-05 1.8875728956408668e+01 1.2635087871092768e+01 4.4162659479527431e+00 0 0 0
392 1 -2.9164353200526041e-06 1.3129964075158882e+00 2.0168188818792849e+01 4.5271209335835518e+00 0 -1 0
135 1 2.1738384647424418e-06 2.5236924042797311e+00 2.1701282770518304e-02 1.4797766511986792e-02 0 0 0
136 1 -5.1402867281336720e-07 1.2974191469708094e+00 2.3759748684661020e-02 8.9813796188381567e-01 0 0 0
162 1 -5.4183791428599752e-06 6.3065992958673665e+00 2.0124084402124186e+01 9.0281676059593774e-01 0 -1 0
391 1 4.7813454122879796e-06 2.5537253816704331e+00 2.9742831610253262e-02 3.5664691967662248e+00 0 0 0
394 1 -5.5398775316855758e-06 3.8456809154593325e+00 2.5063418468359799e-02 4.4486898240944246e+00 0 0 0
39 1 1.4302911855985260e-06 1.2605547222962781e+00 1.6387211389852638e+01 -1.6671303954772192e+00 0 0 0
40 1 -3.4269580974889780e-06 1.2605547222965263e+00 1.3866101945259816e+01 -1.6671303954774781e+00 0 0 0
41 1 2.2196012731638803e-06 2.5210488840236822e+00 1.6387211389852084e+01 -9.9235688506856456e-01 0 0 0
42 1 4.6234830308013494e-06 2.5210488840237533e+00 1.3866101945259430e+01 -9.9235688506842401e-01 0 0 0
43 1 1.6040585817442589e-06 3.7816641668891791e+00 1.3866101945259576e+01 -1.6670824474192476e+00 0 0 0
45 1 -2.1295406427045535e-06 5.0422794497544974e+00 1.3866101945260818e+01 -9.9235688506830622e-01 0 0 0
65 1 2.9248814359670438e-06 1.2605547222963687e+00 1.8908320834445234e+01 -1.6671303954769350e+00 0 0 0
66 1 -4.9780328357528346e-06 2.5210488840238612e+00 1.8908320834444805e+01 -9.9235688506859121e-01 0 0 0
67 1 6.4787704672713388e-07 3.7816641668889326e+00 1.8908320834444638e+01 -1.6670824474198727e+00 0 0 0
68 1 -9.0814477610044629e-07 3.7816641668890791e+00 1.6387211389851942e+01 -1.6670824474194648e+00 0 0 0
69 1 -2.0948754941562766e-06 5.0422794497540622e+00 1.8908320834445814e+01 -9.9235688506841147e-01 0 0 0
70 1 -4.1143769955741698e-07 5.0422794497543864e+00 1.6387211389853423e+01 -9.9235688506834396e-01 0 0 0
71 1 1.6928808017654349e-06 6.3027736114816442e+00 1.6387211389853242e+01 -1.6671303954770784e+00 0 0 0
72 1 -4.7706354878248964e-07 6.3027736114814754e+00 1.3866101945260475e+01 -1.6671303954775936e+00 0 0 0
93 1 2.9791649667950632e-06 6.3027736114816255e+00 1.8908320834445490e+01 -1.6671303954766015e+00 0 0 0
210 1 -1.5688620561049841e-06 1.2385003744421292e+00 1.7717054279176335e+01 8.9121663708445298e-01 0 0 0
212 1 -1.6473396220324842e-06 1.2289175096679423e+00 1.6466150110045199e+01 1.7717483272540180e+00 0 0 0
213 1 -4.6542145414956231e-06 1.3575850598268386e+00 1.3919546821142559e+01 1.7932759659382289e+00 0 0 0
214 1 -3.9108526632210595e-06 2.5331435262617710e+00 1.5181728777457192e+01 1.5977607840196563e-02 0 0 0
215 1 5.1106918038776202e-06 1.3117711351275818e+00 1.5154112119703342e+01 8.5782577333335375e-01 0 0 0
216 1 3.6859881834265386e-06 2.5048233513910469e+00 1.6440016955317372e+01 2.6669236104783933e+00 0 0 0
217 1 4.0237113693840635e-06 2.6076684839296389e+00 1.3916654931650386e+01 2.7086043881181161e+00 0 0 0
218 1 4.6098521165833475e-07 3.8236190680977988e+00 1.5182248517655632e+01 9.3262404875584681e-01 0 0 0
220 1 -8.8359753467903577e-07 3.8387682384207191e+00 1.3913661447449703e+01 1.8179249131509738e+00 0 0 0
224 1 -4.0602745724563418e-07 5.0595200942922389e+00 1.3862858413412656e+01 2.6897799541131708e+00 0 0 0
265 1 1.5936330618128622e-06 1.2613805468383579e+00 1.8969741215474492e+01 1.7946971044034896e+00 0 0 0
266 1 -3.4897151936400369e-06 2.4982200266087888e+00 1.8962292037961266e+01 2.6450658202126878e+00 0 0 0
267 1 4.1074973776622368e-06 2.5157140201547450e+00 1.7730180738267787e+01 4.2506834990519516e-03 0 0 0
268 1 8.1542231677949140e-07 3.7683950345471331e+00 1.8985055543470750e+01 1.7415596816210148e+00 0 0 0
269 1 -4.2791425776283104e-06 3.7774540581880616e+00 1.6433931915220871e+01 1.7915142377119386e+00 0 0 0
270 1 1.7650372965652848e-06 5.0284458042674851e+00 1.7662777799989776e+01 4.0595333006453703e-02 0 0 0
271 1 -2.9697451200000262e-06 3.7498831129468160e+00 1.7724258498469151e+01 9.1141221149876317e-01 0 0 0
272 1 -4.1939782512317482e-06 5.1169502492390144e+00 1.8915106275721442e+01 2.6532908732149636e+00 0 0 0
273 1 -4.1639093698509380e-07 5.0404490406465401e+00 1.6386548421529273e+01 2.6732476669880820e+00 0 0 0
274 1 -1.6200596769486468e-06 6.2822218393082379e+00 1.7634699551992622e+01 9.0221587085704180e-01 0 0 0
275 1 2.0571313215838659e-06 5.0774201814643796e+00 1.5105682792289061e+01 3.4847077766818495e-02 0 0 0
276 1 -1.7243744680224283e-06 6.2644747369898646e+00 1.6382449028755886e+01 1.7751730691533920e+00 0 0 0
277 1 3.4906428731960103e-06 6.3001233272942043e+00 1.3851434534713214e+01 1.8434311979311948e+00 0 0 0
279 1 -1.9364306429834270e-06 6.2626194700110283e+00 1.5178567699085683e+01 8.9837733429725553e-01 0 0 0
319 1 3.7481743284939278e-06 6.3772689410367267e+00 1.8906606453420967e+01 1.7804647602459667e+00 0 0 0
466 1 4.5840447705792241e-06 1.2591503830451960e+00 1.7724981864935856e+01 4.4615953410080946e+00 0 0 0
470 1 -2.7971047575408908e-06 2.5199938294535085e+00 1.5124134810127016e+01 3.5976818398111785e+00 0 0 0
471 1 7.9153505840331969e-06 1.2336237849112461e+00 1.5147238470102906e+01 4.5201861121619649e+00 0 0 0
474 1 2.7546518114087110e-06 3.7511477726808753e+00 1.5170605713765216e+01 4.5005778050675724e+00 0 0 0
523 1 -1.1669969402406028e-06 2.5114776058727069e+00 1.7681635107107248e+01 3.5081610396296417e+00 0 0 0
526 1 2.7876938537771473e-06 5.0054340548908849e+00 1.7689403952390691e+01 3.5042011776722415e+00 0 0 0
527 1 -1.4416008359684022e-06 3.7725116592731749e+00 1.7632106975937681e+01 4.4303269984358238e+00 0 0 0
530 1 3.1421377045648447e-06 6.2786890975922951e+00 1.7598423001294098e+01 4.4883806598665688e+00 0 0 0
531 1 1.4961099100006638e-07 5.0654964947615992e+00 1.5103108439474097e+01 3.6098769824168193e+00 0 0 0
535 1 -1.1961108501744217e-06 6.3031512977585269e+00 1.5133312945215122e+01 4.5134044321092670e+00 0 0 0
17 1 -8.7639709807073556e-07 6.0560569171030920e-05 1.3866101945260024e+01 -9.9235688506858011e-01 0 0 0
37 1 -1.4648839780858771e-06 6.0560568893919253e-05 1.8908320834445682e+01 -9.9235688506856656e-01 0 0 0
38 1 8.1880514494429702e-07 6.0560568918788249e-05 1.6387211389852727e+01 -9.9235688506853792e-01 0 0 0
463 1 -1.9214720884072243e-06 2.0139035949296765e+01 1.7700506971085094e+01 3.5915604816739188e+00 -1 0 0
467 1 -1.3506841242074149e-05 3.4811817508530948e-02 1.5152897731220481e+01 3.6177914520283405e+00 0 0 0
420 1 -3.5009376229515396e-06 8.7851463804706196e+00 2.1332973224403418e-02 4.4357187093664336e+00 0 0 0
460 1 -3.3982760055402222e-06 1.1361950030419806e+01 1.4550112619943434e-02 4.5068417148857538e+00 0 0 0
161 1 6.0183601796128134e-06 7.5686502684194048e+00 2.0159580753696272e+01 1.4526229793292787e-02 0 -1 0
164 1 -3.7611018164874426e-06 8.8767747253755775e+00 5.9394040695792683e-04 9.4625855042277329e-01 0 0 0
203 1 2.1578983675926840e-06 1.2633637753439865e+01 2.0150646409140094e+01 6.7349208796559354e-02 0 -1 0
204 1 -5.0299206040732028e-06 1.1371993156984651e+01 1.9332642644791065e-02 9.1217310812534380e-01 0 0 0
417 1 2.7056175606517594e-06 7.5193503018998324e+00 4.0805259041636788e-02 3.5220958114961660e+00 0 0 0
459 1 3.3265968243048869e-06 1.2628833553165897e+01 3.4729631332574229e-02 3.5357432474786625e+00 0 0 0
73 1 -3.6568164188008226e-06 7.5632677732092892e+00 1.6387211389852435e+01 -9.9235688506881159e-01 0 0 0
74 1 -2.7658181964385062e-06 7.5632677732088700e+00 1.3866101945259782e+01 -9.9235688506892672e-01 0 0 0
75 1 -2.9613851808218004e-06 8.8238830560747417e+00 1.3866101945258968e+01 -1.6670824474192838e+00 0 0 0
77 1 -1.6277341390046959e-06 1.0084498338939872e+01 1.3866101945260640e+01 -9.9235688506827757e-01 0 0 0
94 1 -5.1852707226399093e-06 7.5632677732095921e+00 1.8908320834444911e+01 -9.9235688506875885e-01 0 0 0
95 1 2.0063233059528311e-06 8.8238830560750987e+00 1.8908320834444858e+01 -1.6670824474199373e+00 0 0 0
96 1 -1.8089837794059727e-07 8.8238830560749015e+00 1.6387211389851846e+01 -1.6670824474196793e+00 0 0 0
97 1 -6.5047324953093593e-07 1.0084498338939930e+01 1.8908320834445913e+01 -9.9235688506836639e-01 0 0 0
98 1 -3.2090917331776782e-06 1.0084498338939875e+01 1.6387211389853263e+01 -9.9235688506835584e-01 0 0 0
99 1 -1.7077004334981877e-07 1.1344992500667058e+01 1.6387211389853260e+01 -1.6671303954768213e+00 0 0 0
100 1 -1.2373599994778264e-06 1.1344992500666811e+01 1.3866101945260791e+01 -1.6671303954771255e+00 0 0 0
101 1 3.6475914028358816e-07 1.2605486662394316e+01 1.6387211389852425e+01 -9.9235688506841391e-01 0 0 0
102 1 3.6757171452522901e-06 1.2605486662394064e+01 1.3866101945259782e+01 -9.9235688506840358e-01 0 0 0
113 1 2.3120700039863483e-06 1.1344992500667139e+01 1.8908320834445654e+01 -1.6671303954767549e+00 0 0 0
114 1 -4.9537725937642523e-06 1.2605486662394389e+01 1.8908320834445163e+01 -9.9235688506843078e-01 0 0 0
278 1 2.4183030885058429e-08 7.5552949740824680e+00 1.5156994319601074e+01 4.3405481571066579e-02 0 0 0
280 1 -1.3054516149770159e-06 7.5710486950585416e+00 1.6388685915420997e+01 2.6643481999051222e+00 0 0 0
281 1 -7.6724974038951874e-06 7.5753191107464231e+00 1.3904676559104090e+01 2.7065759390007584e+00 0 0 0
282 1 -6.9276707737652777e-06 8.8424822183079872e+00 1.5160766968285332e+01 8.6998327253839514e-01 0 0 0
284 1 5.7887311977672201e-06 8.8013698711774477e+00 1.3892261723158967e+01 1.7872585806465415e+00 0 0 0
288 1 -4.4234981079674413e-06 1.0105741547217491e+01 1.3861744249646961e+01 2.6723268717353914e+00 0 0 0
320 1 -4.7715401880491513e-06 7.5715181522593484e+00 1.8949954610095329e+01 2.6795532369923656e+00 0 0 0
321 1 2.2071384715183061e-06 7.5571955947522769e+00 1.7600324778863968e+01 -2.5370773629180218e-02 0 0 0
322 1 5.4781700111077740e-06 8.8306025059993978e+00 1.8886379283430561e+01 1.8055477537759634e+00 0 0 0
323 1 7.9239945629676270e-06 8.8187196316556129e+00 1.6413951469623957e+01 1.7758937392685610e+00 0 0 0
324 1 6.5494688365971529e-06 1.0083086891849328e+01 1.7650943918228819e+01 -8.9591017860368247e-03 0 0 0
325 1 -7.8514104727951952e-06 8.8594109429015599e+00 1.7634366023267880e+01 9.0018651449846565e-01 0 0 0
326 1 -1.0112870710581369e-06 1.0035833707081094e+01 1.8883526731521162e+01 2.7203978065572296e+00 0 0 0
327 1 -4.8044732863436466e-06 1.0120927892783934e+01 1.6398906608075706e+01 2.6479155702288120e+00 0 0 0
328 1 -8.1631915804466765e-06 1.1350444919588687e+01 1.7606926709298868e+01 8.7526980894274831e-01 0 0 0
329 1 9.5863425126460304e-06 1.0045130806644922e+01 1.5094623341824247e+01 -5.1028817861016032e-04 0 0 0
330 1 7.1769902108049845e-06 1.1357153933361282e+01 1.6335837896190842e+01 1.7897956941300408e+00 0 0 0
331 1 1.7679123450768748e-06 1.1352033768050852e+01 1.3849988254216125e+01 1.8028482173072862e+00 0 0 0
332 1 -4.4830442762752546e-06 1.2591647517850442e+01 1.5089322583095656e+01 -2.1150679531761692e-02 0 0 0
333 1 -3.5589265786028825e-06 1.1355399434023116e+01 1.5059104753956149e+01 8.8060911182781676e-01 0 0 0
334 1 -1.6218162550104679e-06 1.2696127900123235e+01 1.6332373449049488e+01 2.6645941779687248e+00 0 0 0
335 1 -3.9170975725424549e-08 1.2616215812645907e+01 1.3869234689791664e+01 2.6327299601167025e+00 0 0 0
357 1 4.8951265687636084e-06 1.1368421514637783e+01 1.8873752602246931e+01 1.8003102247804768e+00 0 0 0
358 1 -3.0758335625878229e-06 1.2630958113663672e+01 1.8958800850060491e+01 2.6330353574064991e+00 0 0 0
359 1 4.5403041844394207e-06 1.2508902352140270e+01 1.7627165110006860e+01 -2.5174747195013934e-03 0 0 0
534 1 3.1961169698001334e-06 7.6054768398910380e+00 1.5123596870910708e+01 3.5927197016232322e+00 0 0 0
538 1 -2.1094925736056996e-06 8.9100851499868270e+00 1.5112778483017463e+01 4.4793175157278959e+00 0 0 0
577 1 4.6313903269056706e-06 7.5471805107583343e+00 1.7659286677229247e+01 3.6115361930143952e+00 0 0 0
580 1 1.7817992634611207e-06 1.0108906479302561e+01 1.7640929205108165e+01 3.5980003691272175e+00 0 0 0
581 1 -2.1823594919080068e-06 8.8457754569741791e+00 1.7616460293660911e+01 4.4416032452927299e+00 0 0 0
584 1 -2.0491124726133708e-06 1.1400402184828900e+01 1.7640473099160818e+01 4.4504452042951383e+00 0 0 0
585 1 3.9859021694878816e-06 1.0141207960896264e+01 1.5137622060530969e+01 3.5233886201071081e+00 0 0 0
588 1 -2.1127122222679002e-06 1.2630888605796283e+01 1.5115263817925124e+01 3.5753739629629822e+00 0 0 0
589 1 -2.4983231488256974e-06 1.1356389537797305e+01 1.5087054308511375e+01 4.4599626445445884e+00 0 0 0
615 1 3.4125805166082660e-06 1.2671057392503368e+01 1.7660883066484363e+01 3.5986953085027547e+00 0 0 0
518 1 2.9230522929469174e-06 1.6415670151022024e+01 1.3122010411510843e-02 4.4869252532534407e+00 0 0 0
166 1 1.1236755872610746e-05 7.7544706086815296e-02 1.3840984800356619e+01 2.6412589147419911e+00 0 0 0
207 1 -4.1768134109103822e-06 2.0122192705477055e+01 1.7668500214608336e+01 3.8107565880676113e-03 -1 0 0
208 1 -1.6095302122376858e-06 2.0146416214996442e+01 1.8979933042730071e+01 2.6928608072533686e+00 -1 0 0
209 1 6.5860636300151677e-06 2.0151222855819309e+01 1.6410002811783080e+01 2.7439204023602923e+00 -1 0 0
211 1 -3.4444785292928732e-06 2.4801125293947734e-02 1.5129091267799625e+01 1.3868289272555260e-02 0 0 0
261 1 4.4081912264298977e-06 1.7649075707117625e+01 4.8166588851493941e-02 -6.0546635689515391e-02 0 0 0
262 1 -2.2287965512348876e-07 1.6393801582853154e+01 6.1890759180460719e-02 8.5126770225951520e-01 0 0 0
462 1 -6.1058370278914113e-06 1.3870829135073231e+01 5.8082659180353602e-02 4.4164965329390213e+00 0 0 0
517 1 3.0619604773161622e-07 1.7631053775626732e+01 2.0127142348366899e+01 3.6302514589121131e+00 0 -1 0
520 1 -9.5372443760950362e-07 1.8909333380206952e+01 4.2445763042344709e-03 4.5118747518671825e+00 0 0 0
103 1 -1.7276395786617481e-06 1.3866101945259581e+01 1.3866101945258674e+01 -1.6670824474190509e+00 0 0 0
105 1 1.6239604264605630e-06 1.5126717228125621e+01 1.3866101945261240e+01 -9.9235688506887831e-01 0 0 0
115 1 2.3203717670845974e-06 1.3866101945259386e+01 1.8908320834445256e+01 -1.6670824474197787e+00 0 0 0
116 1 2.4706821326276721e-06 1.3866101945259333e+01 1.6387211389851686e+01 -1.6670824474196524e+00 0 0 0
117 1 -9.0083034888125233e-07 1.5126717228124862e+01 1.8908320834445508e+01 -9.9235688506876973e-01 0 0 0
118 1 -5.9630284593741513e-07 1.5126717228124953e+01 1.6387211389853473e+01 -9.9235688506885056e-01 0 0 0
119 1 -2.1545792930947320e-06 1.6387211389852748e+01 1.6387211389853572e+01 -1.6671303954769399e+00 0 0 0
120 1 -3.4183778305791105e-06 1.6387211389852936e+01 1.3866101945261761e+01 -1.6671303954777310e+00 0 0 0
121 1 2.0263290290822771e-06 1.7647705551580074e+01 1.6387211389852730e+01 -9.9235688506832287e-01 0 0 0
122 1 4.8862266666345487e-06 1.7647705551579655e+01 1.3866101945260539e+01 -9.9235688506829856e-01 0 0 0
123 1 -3.0166688494737352e-06 1.8908320834445043e+01 1.3866101945258292e+01 -1.6670824474189787e+00 0 0 0
125 1 8.8575514590749816e-07 1.6387211389852634e+01 1.8908320834445050e+01 -1.6671303954767767e+00 0 0 0
126 1 -8.8176595829002349e-07 1.7647705551580003e+01 1.8908320834444766e+01 -9.9235688506836017e-01 0 0 0
127 1 2.9992216884246091e-06 1.8908320834445192e+01 1.8908320834445469e+01 -1.6670824474194301e+00 0 0 0
128 1 -1.9746735995653981e-07 1.8908320834445242e+01 1.6387211389851608e+01 -1.6670824474194281e+00 0 0 0
336 1 -3.1297701202706470e-06 1.3903437997673997e+01 1.5151247633482173e+01 8.2931079250464923e-01 0 0 0
338 1 1.1913068601795149e-06 1.3938909023175105e+01 1.3870476861530028e+01 1.7696978956332092e+00 0 0 0
342 1 1.9058140952318797e-06 1.5160270160928594e+01 1.3854843085880125e+01 2.7206692965191785e+00 0 0 0
360 1 4.0144054314256916e-06 1.3849449708455872e+01 1.8871599657382621e+01 1.7247513105010515e+00 0 0 0
361 1 3.2727676876516377e-06 1.3872583670777592e+01 1.6392039575608344e+01 1.7729658873504015e+00 0 0 0
362 1 -1.9611042650816636e-07 1.5141995313012487e+01 1.7681621929372021e+01 2.5871485436918688e-02 0 0 0
363 1 -3.0998990577184843e-06 1.3801250822377773e+01 1.7642701705458411e+01 8.6892185435817859e-01 0 0 0
364 1 -2.4201241735963877e-06 1.5151571543430988e+01 1.8923943968662858e+01 2.6579637822167541e+00 0 0 0
365 1 4.8737811514300468e-06 1.5160035159660106e+01 1.6406794187077306e+01 2.6158221831392567e+00 0 0 0
366 1 -1.2857788500977122e-06 1.6396202689872631e+01 1.7697775038000859e+01 8.6092253594755641e-01 0 0 0
367 1 2.2931383352476429e-07 1.5166152166096721e+01 1.5101159351246563e+01 -1.0204769129959566e-02 0 0 0
368 1 -3.1625701002944625e-06 1.6400138428349113e+01 1.6428129590173988e+01 1.7181065508745823e+00 0 0 0
369 1 -7.5235192173189560e-06 1.6405494025087780e+01 1.3877198148201471e+01 1.8197035064105593e+00 0 0 0
370 1 -1.9402802942985700e-06 1.7648111011490901e+01 1.5164268536743755e+01 3.7429420657914797e-02 0 0 0
371 1 4.9984303542003073e-06 1.6370955637980849e+01 1.5142244684676793e+01 8.4576889934353061e-01 0 0 0
372 1 5.0488868905653375e-06 1.7667267031304227e+01 1.6430009803910625e+01 2.6513556008892993e+00 0 0 0
373 1 1.0144308977048546e-05 1.7676294153448932e+01 1.3878927474198347e+01 2.6969703270196566e+00 0 0 0
374 1 6.0686622763486294e-06 1.8884182378767242e+01 1.5179998591844134e+01 8.9761405109168557e-01 0 0 0
376 1 -9.1363620089549955e-06 1.8965011639461782e+01 1.3892117297746292e+01 1.7749598976797150e+00 0 0 0
379 1 -2.1457997115184627e-06 1.6460815468259405e+01 1.8973110868012881e+01 1.7640955176888922e+00 0 0 0
380 1 3.1423845434396009e-06 1.7660263116212832e+01 1.8909298315795258e+01 2.7202231205766911e+00 0 0 0
381 1 1.7523319011128328e-06 1.7671328305882380e+01 1.7687998585511760e+01 1.0713513009478582e-02 0 0 0
382 1 -1.2371307768514579e-06 1.8938380325607202e+01 1.8948845068698816e+01 1.7857751957400503e+00 0 0 0
383 1 -5.3582653132943548e-06 1.8896617047081843e+01 1.6428766978768387e+01 1.7914218373369530e+00 0 0 0
384 1 1.9620423342186938e-06 1.8880051365196479e+01 1.7685011129699458e+01 9.0070747307333476e-01 0 0 0
592 1 1.3486230771168447e-06 1.3868099827081531e+01 1.5122534893341635e+01 4.4849263070953151e+00 0 0 0
618 1 -1.1880084130002302e-06 1.5135458307487379e+01 1.7690940541582318e+01 3.5076711400160998e+00 0 0 0
619 1 6.7372691019289264e-08 1.3903934250044633e+01 1.7711248861476189e+01 4.4383981213390262e+00 0 0 0
622 1 3.6210037919408575e-06 1.6380794866242894e+01 1.7665214812081587e+01 4.4488057630370035e+00 0 0 0
623 1 -3.9495201049678395e-06 1.5140235885804405e+01 1.5123545103048050e+01 3.5354684705991373e+00 0 0 0
626 1 -9.8107752709593745e-06 1.7654550438348760e+01 1.5126730508430848e+01 3.5870789676770274e+00 0 0 0
627 1 1.0174657070272217e-05 1.6390095649881534e+01 1.5156980333960052e+01 4.5032620219504302e+00 0 0 0
630 1 1.6164674296652521e-05 1.8900371358457573e+01 1.5085286977845094e+01 4.4874196482454911e+00 0 0 0
637 1 -3.6315961530702093e-06 1.7714937134400717e+01 1.7637779550733942e+01 3.5956876948208776e+00 0 0 0
640 1 4.5380281309085773e-06 1.8936582968548155e+01 1.7640212164834878e+01 4.4956263681350830e+00 0 0 0
390 1 -2.7585419230088537e-06 1.2946480987245834e+00 1.2301187266499076e+00 5.4156814386135581e+00 0 0 0
393 1 -2.7895095332526955e-07 2.5018081605932956e+00 1.2496590761561637e+00 6.2444826331554228e+00 0 0 0
400 1 -5.6774543563738315e-06 1.2410609485060737e+00 6.3308127137966599e+00 5.3535808833682177e+00 0 0 0
401 1 -2.0945899711518937e-06 1.2533647652022577e+00 3.7591826371168566e+00 5.4127633035244607e+00 0 0 0
404 1 -2.3289270068970520e-07 2.4886466948248396e+00 6.3371856230494776e+00 6.2270410515047629e+00 0 0 0
405 1 -3.5714348652112682e-06 2.5299398475989028e+00 3.8336172290210828e+00 6.2921649014703682e+00 0 0 0
408 1 8.6301993225138439e-06 3.7805671439868429e+00 3.8288659990123719e+00 5.3982804550068844e+00 0 0 0
409 1 4.2693887803090947e-06 3.8142112198089499e+00 1.2542792488303840e+00 5.4158886034624985e+00 0 0 0
412 1 -7.5543299401478297e-06 5.0279700225813651e+00 3.7898439510008579e+00 6.2708113075870733e+00 0 0 0
413 1 -4.7552079185234045e-06 5.0269508713786779e+00 1.2539021617662403e+00 6.3065803035819314e+00 0 0 0
416 1 5.4825777678200594e-06 6.3560734280698599e+00 1.2759385126807905e+00 5.3250151215697894e+00 0 0 0
435 1 3.4444513220545714e-06 3.7591512086464567e+00 6.2998680623628687e+00 5.3746349245008354e+00 0 0 0
439 1 -5.7535110865206108e-06 5.0436893373950840e+00 6.2926946865368123e+00 6.2682378427433161e+00 0 0 0
442 1 5.1645933009794770e-06 6.3308079420995487e+00 6.3462722976835799e+00 5.3672018396609964e+00 0 0 0
443 1 8.2670088697450439e-06 6.2834116520224104e+00 3.7833610808578766e+00 5.3361742635755052e+00 0 0 0
644 1 -3.1615514306228811e-07 1.2925637073489655e+00 2.5434253588294027e+00 8.0641642885010612e+00 0 0 0
646 1 9.6537493194684192e-07 1.2678820034629388e+00 1.2476202398232710e+00 9.0001218580431885e+00 0 0 0
649 1 -4.1222320486691343e-06 2.5351780977746929e+00 1.2576496465473936e+00 9.8709472320206224e+00 0 0 0
650 1 -3.1789889392761367e-06 3.8315844466789049e+00 2.0155945355722469e+01 8.0825024439419444e+00 0 -1 0
656 1 -4.9689761879070752e-06 1.2829638637100509e+00 6.3611091591093398e+00 8.9736840951708405e+00 0 0 0
657 1 8.2642348074272453e-07 1.2657919584184487e+00 3.7749063103758815e+00 8.9804546618323062e+00 0 0 0
658 1 1.9138472066189796e-06 2.4812038832928121e+00 5.0594543242322567e+00 7.1647229539454393e+00 0 0 0
659 1 1.7756624900484637e-07 1.2660158453061208e+00 5.0567954324848854e+00 8.1415098991742028e+00 0 0 0
660 1 2.7649169709155384e-06 2.5693353549449949e+00 6.3024769452871006e+00 9.8222945898256224e+00 0 0 0
661 1 -3.5590474717080392e-06 2.5623465337468532e+00 3.7759303827365494e+00 9.8947457662319476e+00 0 0 0
662 1 -7.8207319211407502e-06 3.7793282443822522e+00 5.0410559559720234e+00 8.0745000274300924e+00 0 0 0
663 1 3.1819879421204920e-06 2.5395639773996153e+00 2.5477504730250717e+00 7.1687153462067181e+00 0 0 0
664 1 1.0551994796101603e-05 3.7653467697464889e+00 3.7576222793094503e+00 8.9556670889806220e+00 0 0 0
665 1 3.9097363129587011e-06 3.7929000416321412e+00 1.2711955873858378e+00 8.9866149394115897e+00 0 0 0
666 1 7.8524711741177939e-06 4.9732120374067881e+00 2.5555383721998139e+00 7.1843641688133220e+00 0 0 0
667 1 -8.9891479125557419e-06 3.8143887485305661e+00 2.5461747773157457e+00 8.0190218177358208e+00 0 0 0
668 1 -8.3547885390024268e-06 5.0124604887718318e+00 3.7763859800390889e+00 9.8488682025257877e+00 0 0 0
669 1 -8.6958205845743967e-06 5.0446241589164318e+00 1.2619185775516857e+00 9.8708711519993528e+00 0 0 0
670 1 -6.7383311016304572e-06 6.2998483201797990e+00 2.5763656761417617e+00 8.0497583322608186e+00 0 0 0
671 1 2.1788680251029738e-06 4.9498953735122226e+00 2.0135806087491542e+01 7.1087056351234859e+00 0 -1 0
672 1 8.5892668784071387e-06 6.2847248631690755e+00 1.3197864912909543e+00 8.9759782986353756e+00 0 0 0
691 1 8.8088022759764978e-07 3.7857204370273978e+00 6.3099789099836920e+00 8.9531692590145475e+00 0 0 0
695 1 -7.7696507854951763e-06 5.0257113285169455e+00 6.3239595000091873e+00 9.8129365521766623e+00 0 0 0
697 1 7.1723910486791831e-06 4.9975526404105164e+00 5.0355884270550906e+00 7.0973313452836502e+00 0 0 0
698 1 8.1574319489367798e-06 6.3001748544279321e+00 6.2918621167529958e+00 8.9801856120472205e+00 0 0 0
699 1 8.2527343501381698e-06 6.3033965666887850e+00 3.8363592162508016e+00 8.9076581336584919e+00 0 0 0
701 1 -7.3388928382947435e-06 6.2921405758363571e+00 5.0460208687547166e+00 8.0241085826732181e+00 0 0 0
914 1 -4.9582176146391829e-07 2.5710455949169448e+00 5.0898830990602573e+00 1.0709021000211733e+01 0 0 0
919 1 4.7380912784604534e-06 2.5578548213029686e+00 2.5390600760281745e+00 1.0755196397573481e+01 0 0 0
922 1 5.5094359237901861e-06 5.0355025024871933e+00 2.4838749834447547e+00 1.0785112946186402e+01 0 0 0
927 1 5.4354738248433947e-06 5.0616462765259458e+00 2.3668630757530701e-02 1.0776408141817800e+01 0 0 0
953 1 4.8095295401677958e-06 5.0124419075829199e+00 5.0454081182514212e+00 1.0684058088318583e+01 0 0 0
641 1 -1.3665028868436139e-07 3.3353686287320890e-02 2.5347818747501285e+00 7.1975547555504376e+00 0 0 0
645 1 -2.2061073369004116e-06 2.0166736221993080e+01 2.0139451389745279e+01 7.2090505810955818e+00 -1 -1 0
655 1 -1.7836567794046930e-07 2.0168050038678324e+01 5.0552751541740610e+00 7.2476801392637071e+00 -1 0 0
419 1 -5.4947153400651769e-06 7.5529643588320727e+00 1.2833966449561727e+00 6.2596023643108447e+00 0 0 0
446 1 -5.7017171407408869e-06 7.5432306619671348e+00 6.2892338233847651e+00 6.2397795715387909e+00 0 0 0
447 1 -6.0768571071670702e-06 7.5738384265461827e+00 3.7623009224597346e+00 6.2325196619438215e+00 0 0 0
450 1 9.6299081596493536e-06 8.8516662389807674e+00 3.8049011021208532e+00 5.3361308404769741e+00 0 0 0
451 1 5.1211731130604887e-06 8.8020605046727862e+00 1.3015487689515506e+00 5.3345485179051906e+00 0 0 0
454 1 -1.3604705996568795e-05 1.0091942832327332e+01 3.7946099404868789e+00 6.2615951391842311e+00 0 0 0
455 1 -6.7578918199267017e-06 1.0086751933812456e+01 1.2997054954533052e+00 6.2643248286041766e+00 0 0 0
458 1 4.8937726537293253e-06 1.1340017618980054e+01 1.3369251272624956e+00 5.3946792478830465e+00 0 0 0
461 1 -6.7533652124514296e-06 1.2643898977383284e+01 1.2822779897051917e+00 6.2175170750387085e+00 0 0 0
493 1 7.3986885161666599e-06 8.8171595691971554e+00 6.3249062546012533e+00 5.3797335474153218e+00 0 0 0
497 1 -7.3301355759299188e-06 1.0108505422722297e+01 6.3230968486561441e+00 6.1698363797288147e+00 0 0 0
500 1 4.4897207599318413e-06 1.1379401854917143e+01 6.3727671498942229e+00 5.3330019111575941e+00 0 0 0
501 1 2.6015934540321927e-06 1.1314997327701793e+01 3.7874449346065706e+00 5.3801969321191701e+00 0 0 0
504 1 1.0374189479716790e-06 1.2691420585043817e+01 6.2731042940720654e+00 6.3288481199235713e+00 0 0 0
505 1 -1.5929407029017052e-06 1.2564049271501233e+01 3.8113897557098770e+00 6.2582693200888331e+00 0 0 0
675 1 -9.3380131945067540e-06 7.5189726918465398e+00 1.2857397141720652e+00 9.8113620436950235e+00 0 0 0
676 1 -1.0530939422622099e-05 8.8180099699107508e+00 2.0162144308915249e+01 8.0698117236716609e+00 0 -1 0
700 1 5.3140051131587209e-06 7.5770738487568368e+00 5.0669576427022438e+00 7.1288224497791761e+00 0 0 0
702 1 -8.6911466948871220e-06 7.5823338210176390e+00 6.2960841434367287e+00 9.9098698413883604e+00 0 0 0
703 1 -1.0688036868416599e-05 7.5685434802018001e+00 3.7856013383230165e+00 9.8032635956805159e+00 0 0 0
704 1 -8.9811638262814584e-06 8.7827155719607752e+00 5.1286781224653515e+00 8.0631012824528163e+00 0 0 0
705 1 7.9899022160169457e-06 7.5711478322005394e+00 2.5501743155434018e+00 7.1560540943977280e+00 0 0 0
706 1 1.1231668061115781e-05 8.8201902958907912e+00 3.8503937061854447e+00 8.9819129068202930e+00 0 0 0
707 1 9.6979432091200122e-06 8.7980814577524526e+00 1.2861541226618425e+00 8.9744022414641993e+00 0 0 0
708 1 1.2104455267163642e-05 1.0078282138557716e+01 2.5219755866746296e+00 7.1735283710051689e+00 0 0 0
709 1 -1.0562133152936612e-05 8.8732108129400942e+00 2.5633493977994894e+00 8.0561724748036223e+00 0 0 0
710 1 -8.3876627861558749e-06 1.0074185745289251e+01 3.7831257256350490e+00 9.9013557187763102e+00 0 0 0
711 1 -1.1972752776358814e-05 1.0070570474255559e+01 1.2841327994417067e+00 9.8434734571384777e+00 0 0 0
712 1 -1.0687418058812557e-05 1.1313613964100226e+01 2.5613096351739544e+00 8.0281427304382724e+00 0 0 0
713 1 6.5505599461449610e-06 1.0024766839206466e+01 2.0152937235844927e+01 7.1858849188817553e+00 0 -1 0
714 1 1.1295645713061277e-05 1.1340880291774916e+01 1.2684410639002373e+00 8.9226850950804728e+00 0 0 0
717 1 -8.8775582439779078e-06 1.2600990822544249e+01 1.2660023833491290e+00 9.8261744990524882e+00 0 0 0
749 1 4.8626377464286285e-06 8.8195229700080429e+00 6.3459192742473549e+00 9.0001363265283736e+00 0 0 0
753 1 -6.2539648436646373e-06 1.0084568632425569e+01 6.3260112266096655e+00 9.8686824319249009e+00 0 0 0
755 1 1.0822006403980228e-05 1.0065777806601904e+01 5.1097032155374880e+00 7.1416001282462682e+00 0 0 0
756 1 5.2025369810163646e-06 1.1343934764988354e+01 6.3135678995836155e+00 8.9627674510564859e+00 0 0 0
757 1 8.2149890822513360e-06 1.1370525091507249e+01 3.8397390940245377e+00 8.9193866121910386e+00 0 0 0
758 1 2.9424401393002075e-06 1.2590380537546226e+01 5.0241005142978512e+00 7.1799377368471271e+00 0 0 0
759 1 -8.5154118633344334e-06 1.1286116673910294e+01 5.0662110374516178e+00 8.0661457858902512e+00 0 0 0
760 1 3.5068256811479023e-07 1.2583101714070395e+01 6.3322536152163362e+00 9.8993956079519414e+00 0 0 0
761 1 -4.2817988965667790e-06 1.2643731922411133e+01 3.7842651354581256e+00 9.9024172158160386e+00 0 0 0
763 1 6.5281201889149720e-06 1.2566265319289887e+01 2.5151402902871967e+00 7.1506851839576013e+00 0 0 0
956 1 8.5885607874799208e-06 7.6163879506941106e+00 5.0775149277410527e+00 1.0747299178766717e+01 0 0 0
961 1 8.5920143612556252e-06 7.5375430735999700e+00 2.5271722438921920e+00 1.0734836534847588e+01 0 0 0
964 1 8.4884291460002748e-06 1.0081752193515916e+01 2.4973460762110737e+00 1.0746655750741006e+01 0 0 0
969 1 5.1241301297137668e-06 1.0072628679139346e+01 2.0142413367704183e+01 1.0730140914487563e+01 0 -1 0
1011 1 6.9257639813261648e-06 1.0029122933051200e+01 5.0165255238123514e+00 1.0771549192195506e+01 0 0 0
1014 1 1.1503890770706926e-06 1.2555338066312411e+01 5.0779817124518765e+00 1.0784581097368468e+01 0 0 0
1019 1 4.1319518194609810e-06 1.2584746815188296e+01 2.5068944946286047e+00 1.0677595384819154e+01 0 0 0
386 1 4.9947772899127747e-06 3.7835044626248759e-02 3.7945579309232378e+00 6.3141538671389910e+00 0 0 0
387 1 -5.0617562501364825e-07 1.0735356275777264e-02 1.2569769214090911e+00 6.2713148425252481e+00 0 0 0
397 1 5.1495691505712084e-06 4.8953330678386919e-02 6.3444333714858336e+00 6.2653052502470690e+00 0 0 0
642 1 -3.6981174899295425e-06 6.9735704330145865e-02 3.7971066059315506e+00 9.8538761499529564e+00 0 0 0
643 1 -3.6811494112272084e-07 2.0154554868227006e+01 1.2731530799182178e+00 9.8397677833937713e+00 -1 0 0
653 1 6.9290107222159741e-07 2.0157126716173295e+01 6.3389191573832724e+00 9.8857672809355552e+00 -1 0 0
897 1 4.5880354548379384e-06 2.0162763162313773e+01 2.5642868754345503e+00 1.0733152793299228e+01 -1 0 0
901 1 4.8850931973280210e-08 3.1923957478980469e-02 3.6076691754509387e-02 1.0808805077605999e+01 0 0 0
911 1 2.1367760458875138e-06 2.0152958127434196e+01 5.0432951177462195e+00 1.0775479911911518e+01 -1 0 0
508 1 1.0621613364834759e-06 1.3873301719137272e+01 3.7440814465430812e+00 5.3807510793516098e+00 0 0 0
509 1 4.9126175301529632e-06 1.3921783396132287e+01 1.2272031340701444e+00 5.4002784192463480e+00 0 0 0
512 1 3.3181021737618538e-06 1.5138016791081222e+01 3.7683760007374771e+00 6.2865663605869653e+00 0 0 0
513 1 -1.2202788821789895e-06 1.5174773543667866e+01 1.2616613465964472e+00 6.3138125016980569e+00 0 0 0
516 1 -3.4680491859351783e-06 1.6402413691663774e+01 1.2167478350219241e+00 5.4205647311190566e+00 0 0 0
519 1 3.4667474035664722e-06 1.7653747239823787e+01 1.2738467516775711e+00 6.2942749352064613e+00 0 0 0
557 1 -8.2087594238661925e-09 1.3866077634934250e+01 6.2917214998315867e+00 5.3819105782367753e+00 0 0 0
561 1 2.1665658534282906e-06 1.5114820688863444e+01 6.2332473733895792e+00 6.2932047779999154e+00 0 0 0
564 1 -4.5730861170618070e-06 1.6370574501164377e+01 6.2344744298423178e+00 5.3601937264819348e+00 0 0 0
565 1 -7.1302682163218277e-06 1.6434383406725996e+01 3.7760829411891939e+00 5.3631671286960350e+00 0 0 0
568 1 3.6175566186057521e-06 1.7605902197021138e+01 6.3189864686673500e+00 6.2096770766262459e+00 0 0 0
569 1 4.0381075424976962e-06 1.7681367429450596e+01 3.7988840585366841e+00 6.2855779302698549e+00 0 0 0
572 1 -5.6378922318513555e-06 1.8953680563701045e+01 3.8575299368455127e+00 5.4052187666052891e+00 0 0 0
573 1 -9.3665643283011463e-07 1.8900617480486009e+01 1.2924670332360253e+00 5.4489573424020934e+00 0 0 0
611 1 -8.0045481717528358e-06 1.8962124233246598e+01 6.3584509200150663e+00 5.2898805731964176e+00 0 0 0
718 1 -5.7275317650550806e-06 1.3866693229079056e+01 2.0155091706297181e+01 8.0460021797062229e+00 0 -1 0
762 1 -2.0606844022448196e-06 1.3864260143066641e+01 5.0693747003533574e+00 8.1271448074193842e+00 0 0 0
764 1 9.2452026023325581e-08 1.3862266695789742e+01 3.8097422279171878e+00 8.9782363330038280e+00 0 0 0
765 1 8.0649648113798462e-06 1.3881650355234216e+01 1.2851822516678235e+00 8.9628583112508338e+00 0 0 0
766 1 -1.0459039178053046e-06 1.5140201415280838e+01 2.5555587878659720e+00 7.2012763579607135e+00 0 0 0
767 1 -2.9927876182154171e-06 1.3847666797030694e+01 2.5330767613944367e+00 8.0459898626879340e+00 0 0 0
768 1 -7.0677068860878677e-06 1.5136454358061929e+01 3.8020687322154738e+00 9.8705824309047987e+00 0 0 0
769 1 -3.5585736429792294e-06 1.5146972215078762e+01 1.2407137176822980e+00 9.8769594072141036e+00 0 0 0
770 1 3.5551302905770256e-06 1.6380796176361994e+01 2.5418672293613871e+00 8.0794036094632542e+00 0 0 0
771 1 -7.2970064974867654e-07 1.5167112723680887e+01 1.2320223068814232e-03 7.1730777846018468e+00 0 0 0
772 1 2.5875386317589363e-06 1.6409694130081320e+01 1.2655402428172113e+00 8.9833884930537238e+00 0 0 0
775 1 -1.0486113403293013e-06 1.7666354444824446e+01 1.2161218135651854e+00 9.8632841880704554e+00 0 0 0
776 1 3.0916437938965824e-06 1.8935234722515087e+01 2.0124825083597543e+01 8.0708171777075890e+00 0 -1 0
813 1 8.6373578812518088e-07 1.3918416384414854e+01 6.3455762044784452e+00 8.9802324187880895e+00 0 0 0
817 1 -6.4671896954687312e-06 1.5113861892815224e+01 6.2972742532297206e+00 9.8721275672713205e+00 0 0 0
819 1 -1.0636654695644207e-06 1.5089318135888787e+01 5.0357966543631543e+00 7.1689623613726887e+00 0 0 0
820 1 5.9611664062294927e-06 1.6371239405007124e+01 6.2837737539273721e+00 8.9870577126877738e+00 0 0 0
821 1 5.4188447597430994e-06 1.6391770758797936e+01 3.7785943143490397e+00 8.9595747439235875e+00 0 0 0
822 1 -6.9349037639304080e-07 1.7683847391084786e+01 5.0349124902619424e+00 7.1513029016354626e+00 0 0 0
823 1 -1.9229737517749875e-06 1.6388648817819025e+01 5.0069887824313293e+00 8.0216266294626113e+00 0 0 0
824 1 -5.8502567200061531e-06 1.7625925456671816e+01 6.2937176765397949e+00 9.8758022233009335e+00 0 0 0
825 1 -8.5783267516355871e-06 1.7625612096169469e+01 3.7553444330656927e+00 9.8648391339286725e+00 0 0 0
826 1 -5.8326560021654888e-07 1.8906161684859629e+01 5.0078727501691516e+00 8.0688298042934186e+00 0 0 0
827 1 -5.0443983276954521e-06 1.7685850132149092e+01 2.5301916129460653e+00 7.1617011461847948e+00 0 0 0
828 1 5.1244304457766528e-06 1.8915486923604782e+01 3.7612530573023739e+00 8.9960646276596812e+00 0 0 0
829 1 2.7889155692443031e-06 1.8922146632176990e+01 1.2505542828333192e+00 8.9535170934259138e+00 0 0 0
830 1 -4.2710224502755552e-06 1.8919390003372232e+01 2.5351122096468774e+00 8.0734378843675323e+00 0 0 0
867 1 2.0523299264631946e-06 1.8852196058051923e+01 6.2687027350088425e+00 8.9863740074618299e+00 0 0 0
1022 1 4.7861929409794295e-06 1.5093815289972675e+01 2.4996730937796823e+00 1.0763336640002315e+01 0 0 0
1027 1 1.9097779750973327e-06 1.5208343619581608e+01 2.0151757202567968e+01 1.0733479483584976e+01 0 -1 0
1075 1 6.3235529559868328e-06 1.5116869527921866e+01 5.0252249784598506e+00 1.0788940863351485e+01 0 0 0
1078 1 5.9912991273536257e-06 1.7644180028846723e+01 5.0367826934499362e+00 1.0774987423930325e+01 0 0 0
1083 1 3.4975750136185281e-06 1.7619542546736277e+01 2.5169736953588235e+00 1.0801860318270279e+01 0 0 0
774 1 -6.5350390089146198e-07 1.6418408335616640e+01 5.8252974461238680e-03 8.0712553394310067e+00 0 0 0
426 1 -9.3417543537170896e-06 1.2588317392565314e+00 1.1360051216376656e+01 5.3669707277275318e+00 0 0 0
427 1 -9.1832483506045163e-06 1.2219209666442541e+00 8.8447273770399963e+00 5.3095852684319418e+00 0 0 0
430 1 9.2946007127679429e-06 2.4879766000724386e+00 1.1339068678612449e+01 6.3397251444907834e+00 0 0 0
431 1 6.7173683135503156e-06 2.4914138815890370e+00 8.8171632129932913e+00 6.2394561835059852e+00 0 0 0
434 1 -3.6176080883953179e-06 3.7671967043168428e+00 8.8198072856891212e+00 5.3233448659081084e+00 0 0 0
438 1 -2.3240509363824286e-07 5.0410052162160524e+00 8.8248383732552291e+00 6.2055523059373616e+00 0 0 0
477 1 -4.5334028357088665e-06 3.7710057893674764e+00 1.1354497278824590e+01 5.4146669840021628e+00 0 0 0
481 1 -1.4237889323363921e-06 5.0041879506928879e+00 1.1341692616639206e+01 6.2743855319168418e+00 0 0 0
484 1 2.7071429598542395e-06 6.2727895901572888e+00 1.1363700405044948e+01 5.3834334496969776e+00 0 0 0
485 1 -1.3536204282489986e-07 6.2938943654796304e+00 8.7658927225742982e+00 5.3146753632172237e+00 0 0 0
654 1 7.9486584345409741e-06 1.2544713812703909e+00 7.5305742401552900e+00 8.0844317554433527e+00 0 0 0
680 1 9.4869406397966467e-06 1.2181310358796757e+00 1.2621229479865081e+01 7.9731784199865690e+00 0 0 0
682 1 -1.3931310247147120e-05 1.2229168825803143e+00 1.1375866330170956e+01 8.9055929468979738e+00 0 0 0
683 1 -9.5192652950875862e-06 1.2410524370446783e+00 8.8910361871007826e+00 8.9349555425408305e+00 0 0 0
684 1 -8.0333677384073615e-06 2.4577957221127003e+00 1.0094795100695441e+01 7.1625903661959107e+00 0 0 0
685 1 1.2144706796157471e-05 1.1971848533185334e+00 1.0111028560072837e+01 8.0540499697653622e+00 0 0 0
686 1 8.5060703550766242e-06 2.4805694365880786e+00 1.1339634996555512e+01 9.7922899566663730e+00 0 0 0
687 1 3.7109590608931152e-06 2.4898355467607387e+00 8.7955601640858898e+00 9.8029533139595468e+00 0 0 0
688 1 1.2358814402916484e-06 3.7452440889399821e+00 1.0085700739578281e+01 8.0277213005022912e+00 0 0 0
689 1 -5.8710683878274540e-06 2.5119372059598435e+00 7.5559644569394715e+00 7.1166558714462154e+00 0 0 0
690 1 2.1377808843107114e-06 3.7617049907280391e+00 8.8678165577107197e+00 8.9112193213979634e+00 0 0 0
692 1 2.6197440878034265e-06 5.0795170807249095e+00 7.4822715248448963e+00 7.1487147571394001e+00 0 0 0
693 1 6.2089200593462480e-07 3.7929431603424058e+00 7.5585622286663670e+00 7.9905191020714703e+00 0 0 0
694 1 -4.7265762520680299e-06 4.9935588398745381e+00 8.8412601045945181e+00 9.8692535230293714e+00 0 0 0
696 1 -4.8859688985595397e-06 6.2930707331892899e+00 7.5428933683761255e+00 8.0740699148435517e+00 0 0 0
731 1 -9.6971071441311397e-06 2.5362339714586648e+00 1.2617125743635636e+01 7.1318373215300719e+00 0 0 0
733 1 -7.3310430271874053e-06 3.7799502816714212e+00 1.1359169236964370e+01 8.9207992521059953e+00 0 0 0
734 1 9.4098181108695445e-08 5.0251788085193763e+00 1.2607292046811477e+01 7.1534217547296866e+00 0 0 0
735 1 5.8768577083941616e-06 3.7890332443481971e+00 1.2589852303782756e+01 8.0402643426337157e+00 0 0 0
737 1 6.2858839146512869e-07 5.0119260523027833e+00 1.1345139151077692e+01 9.8111114988596171e+00 0 0 0
738 1 1.9056177510864221e-07 6.3457469261385482e+00 1.2597355883671289e+01 8.0629021092641544e+00 0 0 0
739 1 -7.3173825894430176e-07 5.0463237913112104e+00 1.0099390871974517e+01 7.1188831606353302e+00 0 0 0
740 1 1.1052863908147123e-06 6.3220983821900276e+00 1.1306557914816926e+01 8.9642381634210082e+00 0 0 0
741 1 4.5548839837933787e-06 6.2537913472238218e+00 8.8575088674351363e+00 8.9969996017605496e+00 0 0 0
743 1 -3.1501548900578388e-06 6.2873796580496251e+00 1.0093642596607006e+01 8.0539155351823890e+00 0 0 0
940 1 -6.8155200008118048e-06 2.4778663429959562e+00 1.0051153739322768e+01 1.0727902762415013e+01 0 0 0
945 1 2.8744184497680819e-07 2.5823220990551450e+00 7.5575494975746533e+00 1.0728242867584695e+01 0 0 0
948 1 9.7400325352240469e-06 5.0140046291691016e+00 7.5442107455683765e+00 1.0761821398001311e+01 0 0 0
987 1 -2.0850314344204683e-06 2.4640100935504896e+00 1.2619420695567442e+01 1.0778673531686568e+01 0 0 0
990 1 1.6738499856529128e-06 5.0083531405251671e+00 1.2614264197264125e+01 1.0727902438667288e+01 0 0 0
995 1 3.8350225214477801e-06 4.9596678327356543e+00 1.0056086411889343e+01 1.0770534814978676e+01 0 0 0
651 1 -6.3137552630948199e-06 1.2369348388950638e-02 7.5121005362438540e+00 7.1566203851301831e+00 0 0 0
677 1 -1.5686547226355283e-05 2.0110050877508886e+01 1.2623687712267399e+01 7.1445553209781147e+00 -1 0 0
681 1 -1.1749357672751148e-05 1.7585575064123938e-03 1.0097986147090644e+01 7.1090439858727441e+00 0 0 0
488 1 -2.3922094832826510e-06 7.5614879030692306e+00 1.1310775957931760e+01 6.2685211478377898e+00 0 0 0
489 1 -4.3116039227401350e-08 7.5528654311580272e+00 8.7879354832556480e+00 6.2699966424088585e+00 0 0 0
492 1 2.3668286053756615e-06 8.8071446907198609e+00 8.8328775794050909e+00 5.3682515803785753e+00 0 0 0
496 1 -1.6151661039458690e-06 1.0095407226759940e+01 8.8075578370996723e+00 6.2409948928801393e+00 0 0 0
541 1 2.2507111256323367e-06 8.8271237416454280e+00 1.1320095558682478e+01 5.4071982507060845e+00 0 0 0
545 1 -2.1414573444251415e-06 1.0044848746341019e+01 1.1320681280951678e+01 6.3241048145099619e+00 0 0 0
548 1 2.4253417048667641e-06 1.1311533358673911e+01 1.1339646960862634e+01 5.3659556587427808e+00 0 0 0
549 1 3.3143486906261877e-06 1.1354721394439782e+01 8.8841579420019201e+00 5.3368754576263395e+00 0 0 0
552 1 -1.0941889385754047e-06 1.2592118488067008e+01 1.1434980643006165e+01 6.2041091934901997e+00 0 0 0
553 1 1.7793835183165445e-06 1.2614918189584472e+01 8.8823357570743777e+00 6.2442448992052899e+00 0 0 0
742 1 6.4648226560480716e-07 7.5622313509924455e+00 1.0072370624444204e+01 7.1745907745659752e+00 0 0 0
744 1 -3.4484724729591062e-06 7.5593410051192631e+00 1.1349935066703328e+01 9.8376374396863380e+00 0 0 0
745 1 -4.2010911608528932e-06 7.5460645286755179e+00 8.8446524586251360e+00 9.8419314145363526e+00 0 0 0
746 1 -1.0797903991053252e-06 8.8131947303267761e+00 1.0048204263747627e+01 8.0548497047805494e+00 0 0 0
747 1 2.6369587359130082e-06 7.4905492626362573e+00 7.5205010840212712e+00 7.1836744276978761e+00 0 0 0
748 1 4.1109037332617135e-06 8.8453848260525003e+00 8.8226117129895485e+00 8.9242428593587135e+00 0 0 0
750 1 3.8935287211732110e-06 1.0134073045037031e+01 7.5472602712693408e+00 7.1382105083880729e+00 0 0 0
751 1 2.0085596889788796e-07 8.8486007779144522e+00 7.5921557985822306e+00 8.0297702676075335e+00 0 0 0
752 1 -4.0087861204345382e-06 1.0071016421501536e+01 8.8501887477705807e+00 9.7859861101536900e+00 0 0 0
754 1 -1.4304976073732451e-06 1.1347497109312329e+01 7.5993476207281869e+00 8.0392612752388573e+00 0 0 0
795 1 -6.2948656137101983e-07 7.5671609540325457e+00 1.2574610568244397e+01 7.1302680195950829e+00 0 0 0
797 1 2.3517273995720829e-06 8.8074518906994328e+00 1.1310378799888007e+01 8.9289319036533001e+00 0 0 0
798 1 -2.1580716877909162e-06 1.0088732470935938e+01 1.2661347463598212e+01 7.1192264438252328e+00 0 0 0
799 1 4.6798955608846063e-06 8.8062435808293742e+00 1.2606140396631755e+01 8.0822727428689198e+00 0 0 0
801 1 2.3521425643200562e-06 1.0086415406472307e+01 1.1349751407002602e+01 9.8023244208905851e+00 0 0 0
802 1 3.8613846938383020e-06 1.1320317549428527e+01 1.2614187192079921e+01 8.0255750287057079e+00 0 0 0
803 1 -8.5662395278447159e-08 1.0075150603154704e+01 1.0060705976099811e+01 7.1643073005569082e+00 0 0 0
804 1 -3.5514250777174545e-06 1.1348933090305813e+01 1.1370476953378269e+01 8.8888977547867629e+00 0 0 0
805 1 -1.3765055717845561e-06 1.1379930534153759e+01 8.8810003709975103e+00 8.9180388173331799e+00 0 0 0
806 1 -1.9633414688159239e-06 1.2613663950136150e+01 1.0109893716868912e+01 7.1376976673173731e+00 0 0 0
807 1 2.9207863097762052e-06 1.1371529096686057e+01 1.0070780787661525e+01 7.9772560348163397e+00 0 0 0
808 1 1.8353528178697653e-06 1.2611982420145750e+01 1.1328368041226890e+01 9.7712694023300326e+00 0 0 0
809 1 4.2082853556541097e-06 1.2568318803540908e+01 8.8386084014524364e+00 9.8834813226414777e+00 0 0 0
811 1 -1.5615631461665073e-06 1.2632318082034423e+01 7.6083664126277357e+00 7.1901048738379449e+00 0 0 0
849 1 2.8686110087837230e-07 1.2560348275696837e+01 1.2606966159743347e+01 7.1012665926319656e+00 0 0 0
998 1 3.9307667947163071e-06 7.5390603743315889e+00 1.0097970682408329e+01 1.0770621848773949e+01 0 0 0
1003 1 7.0685669118482632e-06 7.6199410918183998e+00 7.5818162302802801e+00 1.0779641869389751e+01 0 0 0
1006 1 6.1603426148866833e-06 1.0029805670408701e+01 7.5728468968922584e+00 1.0759673715349901e+01 0 0 0
1051 1 4.8102015073003721e-06 7.5679317133897657e+00 1.2645233372260725e+01 1.0743540528080034e+01 0 0 0
1054 1 -7.2826706001437163e-07 1.0082102554797151e+01 1.2622439036031391e+01 1.0672509021455033e+01 0 0 0
1059 1 -1.3010595477165084e-06 1.0102054781931821e+01 1.0110391654303822e+01 1.0650134747126444e+01 0 0 0
1062 1 -3.6222169728045440e-06 1.2632718751286932e+01 1.0092404921204366e+01 1.0823644658870922e+01 0 0 0
1067 1 -2.4243654201983818e-06 1.2586323520108067e+01 7.6029164790518786e+00 1.0737494500756382e+01 0 0 0
1105 1 -7.1701466117151812e-06 1.2601879450644853e+01 1.2640394817850696e+01 1.0708875995894763e+01 0 0 0
396 1 1.1272328340794860e-05 2.0167805082789311e+01 8.7946463827636538e+00 6.2070299368412387e+00 -1 0 0
423 1 1.4008586404550852e-05 2.0129735183001010e+01 1.1413682111727807e+01 6.2184378113002658e+00 -1 0 0
652 1 9.4970558326538814e-06 2.0162604373270600e+01 8.8592503108316549e+00 9.8021466143929121e+00 -1 0 0
679 1 9.0634239264464398e-06 2.0090332388190767e+01 1.1355232464041007e+01 9.8459975848440013e+00 -1 0 0
907 1 -4.7839097760792856e-06 2.0127041058050082e+01 7.5327155217460113e+00 1.0743745856956945e+01 -1 0 0
933 1 -6.9776730518398762e-06 2.0119891120264324e+01 1.2601072353595354e+01 1.0678181318817204e+01 -1 0 0
937 1 -7.3227201072233749e-06 2.0101331846901054e+01 1.0062327430079694e+01 1.0737694575536709e+01 -1 0 0
556 1 -1.3440360850757706e-06 1.3880254955136103e+01 8.8470415541742078e+00 5.3648342870475165e+00 0 0 0
560 1 4.8872360681817601e-06 1.5132174290731182e+01 8.8541642101843365e+00 6.2395895970788686e+00 0 0 0
595 1 9.2340059225180971e-07 1.3825111794764664e+01 1.1411851576898227e+01 5.3056948795781134e+00 0 0 0
599 1 1.5745910079482960e-06 1.5101814989955793e+01 1.1361915387823744e+01 6.2210320951739355e+00 0 0 0
602 1 -7.7310882751494559e-06 1.6330476123577650e+01 1.1359030174126579e+01 5.3800922359960088e+00 0 0 0
603 1 -6.3034756453597496e-06 1.6406716666665119e+01 8.7811527230828350e+00 5.3789217791834583e+00 0 0 0
606 1 9.0066310132797615e-06 1.7619041607958021e+01 1.1334848735541193e+01 6.2741601496791244e+00 0 0 0
607 1 8.3857263893096049e-06 1.7608817659217511e+01 8.8402771220394207e+00 6.2193202240831322e+00 0 0 0
610 1 -9.8817156467994695e-06 1.8928752896262058e+01 8.8557455616527800e+00 5.3525834413212303e+00 0 0 0
633 1 -9.7515349516936742e-06 1.8881703801130428e+01 1.1361742802243487e+01 5.3209235496255332e+00 0 0 0
810 1 5.0504792322385103e-06 1.3888975745273976e+01 1.0068510956826650e+01 8.0797463850905977e+00 0 0 0
812 1 -2.9669991918215418e-06 1.3875415604999192e+01 8.7825526362912161e+00 8.9953764038814050e+00 0 0 0
814 1 -4.2550229889609308e-06 1.5125734220684794e+01 7.5411593287379119e+00 7.1433199208379765e+00 0 0 0
815 1 6.5388894707889628e-07 1.3866584382899273e+01 7.5735331961340799e+00 8.1021529567302508e+00 0 0 0
816 1 6.1817926250664552e-08 1.5086906360170781e+01 8.8976026982661889e+00 9.8898604856156265e+00 0 0 0
818 1 5.7895163553460885e-07 1.6349722591009808e+01 7.5230084078225783e+00 8.0790073241237721e+00 0 0 0
851 1 -6.0284187041610445e-06 1.3855330994849842e+01 1.1314768005052805e+01 8.9007626824852082e+00 0 0 0
852 1 -4.1515056572742427e-06 1.5124925662749279e+01 1.2592406036910011e+01 7.1702611053040810e+00 0 0 0
853 1 7.0162263368238561e-06 1.3864997497751483e+01 1.2605348115883389e+01 8.0002530333663948e+00 0 0 0
855 1 5.1099332292549926e-06 1.5127218513966612e+01 1.1305180535186873e+01 9.8429760615940296e+00 0 0 0
856 1 9.8700104716543634e-06 1.6343605272626188e+01 1.2648590089828842e+01 8.0533238032422485e+00 0 0 0
857 1 -2.4235591703371719e-06 1.5174525636600306e+01 1.0112925579966786e+01 7.1160315209631007e+00 0 0 0
858 1 -6.9315562225832310e-06 1.6328692928546367e+01 1.1338486306285752e+01 8.9609336418812919e+00 0 0 0
859 1 6.3495084368782923e-07 1.6404126503873083e+01 8.7657685385947595e+00 8.9909948014218344e+00 0 0 0
860 1 -7.6679116374475244e-06 1.7650061665177272e+01 1.0073513053624241e+01 7.0975796683675849e+00 0 0 0
861 1 5.2639776136854427e-06 1.6411709372542038e+01 1.0085562488529201e+01 8.0489569619066881e+00 0 0 0
862 1 5.3210859665007505e-06 1.7614494237013716e+01 1.1279156448248228e+01 9.8204526916239256e+00 0 0 0
863 1 3.3630369397076775e-06 1.7649369686084558e+01 8.7783253044128067e+00 9.8353424351091441e+00 0 0 0
864 1 1.1390546811781059e-05 1.8919463925723964e+01 1.0039287687165316e+01 7.9998992936173945e+00 0 0 0
865 1 -4.6084036527915132e-06 1.7608799037550302e+01 7.5932212862190278e+00 7.1473097983699780e+00 0 0 0
866 1 -8.1966534648125032e-06 1.8864635129541295e+01 8.7483224297559801e+00 8.9155467385563778e+00 0 0 0
868 1 3.9684334850355985e-06 1.8880385899181494e+01 7.4899600937972730e+00 8.0524885615208763e+00 0 0 0
887 1 -1.2673079235013757e-05 1.7599658307625056e+01 1.2631199641052238e+01 7.1059447679933863e+00 0 0 0
889 1 -1.1826898226825147e-05 1.8831355561495588e+01 1.1317121631767669e+01 8.9037754412052532e+00 0 0 0
890 1 1.3499982282801220e-05 1.8883149868173604e+01 1.2617237165873268e+01 8.0065573355781261e+00 0 0 0
1070 1 2.6182180964529629e-06 1.5118614438996033e+01 7.5380127128561742e+00 1.0803343304185288e+01 0 0 0
1108 1 -1.6804847902716070e-06 1.5081032865154803e+01 1.2633822952838942e+01 1.0715772072513102e+01 0 0 0
1113 1 -9.8274153961388601e-07 1.5106336483734614e+01 1.0097607600866112e+01 1.0792389856796712e+01 0 0 0
1116 1 -4.3921002424125547e-06 1.7620087606633771e+01 1.0070072481081148e+01 1.0731089181923215e+01 0 0 0
1121 1 4.8098580410913271e-06 1.7651927292638359e+01 7.5325560846444404e+00 1.0800492145615772e+01 0 0 0
1143 1 -6.8619818684968801e-06 1.7630203398455201e+01 1.2597299674672851e+01 1.0704571752833751e+01 0 0 0
647 1 2.6898845946391788e-06 2.5700528691252460e+00 2.4845362817941918e-02 7.1622274490395190e+00 0 0 0
648 1 8.4916397996610698e-07 1.2432821604335209e+00 3.2893118103601182e-02 8.0963174923855235e+00 0 0 0
674 1 -3.6991244700684105e-06 6.2347542663613158e+00 7.5229161687637713e-03 8.0356247279752431e+00 0 0 0
903 1 8.5414437686496584e-07 2.5916222953877317e+00 3.4089699937101869e-02 1.0796523619995162e+01 0 0 0
468 1 -1.0410447722313190e-05 1.2749076296517245e+00 1.6416263280588993e+01 5.3812517505611819e+00 0 0 0
469 1 -8.7368751144798479e-06 1.3055759401251426e+00 1.3806811130968001e+01 5.3790124115644424e+00 0 0 0
472 1 4.8846001220117467e-06 2.4555979709651834e+00 1.6458698275058378e+01 6.3203545877046174e+00 0 0 0
473 1 8.0622162050828524e-06 2.5602940245357533e+00 1.3835479609490264e+01 6.2922688035569143e+00 0 0 0
476 1 -1.4655209095013193e-07 3.8099072202905799e+00 1.3890222955660761e+01 5.4213677412413928e+00 0 0 0
480 1 -1.9158762202348063e-06 5.0864447105581059e+00 1.3886370225419933e+01 6.2683111389503283e+00 0 0 0
521 1 -2.0479558051807833e-06 1.3010566500339276e+00 1.8946313207025678e+01 5.3621322365441184e+00 0 0 0
522 1 9.8025158402461169e-07 2.5387431630585415e+00 1.8984025246846148e+01 6.2525738814378400e+00 0 0 0
524 1 5.0340147942443788e-06 3.7669927733533557e+00 1.8915500726750185e+01 5.3013172395150434e+00 0 0 0
525 1 -4.0295128441371521e-06 3.7380412646555583e+00 1.6375364518639763e+01 5.3567830716620453e+00 0 0 0
528 1 -3.9221254119504574e-06 4.9627578275887361e+00 1.8875932849277138e+01 6.2414427178914034e+00 0 0 0
529 1 8.4186319307584337e-07 5.0006534214362262e+00 1.6370176007926812e+01 6.2820435375358210e+00 0 0 0
532 1 1.6226910257412361e-06 6.2721327040338100e+00 1.6337349486350838e+01 5.3884669817981132e+00 0 0 0
533 1 2.2626663393889460e-06 6.3320210239633399e+00 1.3828084998539959e+01 5.3728048182467747e+00 0 0 0
575 1 4.4033648609308562e-06 6.2940643385154669e+00 1.8881448685733524e+01 5.4027740749260449e+00 0 0 0
722 1 6.8574312698939887e-06 1.2278463914238320e+00 1.7727833324848422e+01 8.0643620224879093e+00 0 0 0
724 1 -5.6025458535027508e-06 1.2329409759368180e+00 1.6468406537978282e+01 8.9588573577319739e+00 0 0 0
725 1 -7.7831236269211848e-06 1.1887926103338644e+00 1.3909794494888192e+01 8.9007083129122950e+00 0 0 0
726 1 -4.3365764032002938e-06 2.4928329703069294e+00 1.5191125199548633e+01 7.1942415491667662e+00 0 0 0
727 1 9.7803809248330512e-06 1.2319824065493903e+00 1.5197210642576959e+01 8.1163754916425539e+00 0 0 0
728 1 1.4645927518864301e-06 2.5069775391526523e+00 1.6447413841258282e+01 9.8726448242100524e+00 0 0 0
729 1 5.8110068908135634e-06 2.4456784124403637e+00 1.3853980912304413e+01 9.8413907523757445e+00 0 0 0
730 1 1.8942705764913509e-06 3.7265212452729659e+00 1.5139534305812118e+01 8.0802818985892895e+00 0 0 0
732 1 -1.7318163411669845e-06 3.7124433612946608e+00 1.3881969745051244e+01 8.9465430944301634e+00 0 0 0
736 1 -2.4105635472315058e-06 4.9937012654261910e+00 1.3886604832864812e+01 9.8777345301419537e+00 0 0 0
777 1 -5.3961914359416089e-06 1.3046206478049183e+00 1.8957926741719373e+01 9.0041460853755471e+00 0 0 0
778 1 5.5197022253444068e-06 2.5247149698707783e+00 1.8922639512796689e+01 9.8984137337695124e+00 0 0 0
779 1 -3.6789721174330657e-06 2.4780606311714353e+00 1.7708859059057762e+01 7.1697191116644756e+00 0 0 0
780 1 9.7688582988986451e-07 3.7583720254650426e+00 1.8920603000496268e+01 8.9976915774458153e+00 0 0 0
781 1 1.6111672169525171e-06 3.6700028073545417e+00 1.6416246257187350e+01 8.9827211709250108e+00 0 0 0
782 1 1.0180139553038991e-06 4.9948076736354245e+00 1.7633207423681146e+01 7.2029607103010074e+00 0 0 0
783 1 -4.5377871506454870e-07 3.6955282899388773e+00 1.7668094658534024e+01 8.0399514620114072e+00 0 0 0
784 1 -2.7017773363059598e-06 5.0572693060277940e+00 1.8937034556212144e+01 9.8363072934522364e+00 0 0 0
785 1 -1.5767979212533728e-06 4.9704745612847292e+00 1.6405032264063436e+01 9.8162801649900029e+00 0 0 0
786 1 -4.2724161094073456e-06 6.2717022922783672e+00 1.7653300301512967e+01 8.0611510250503446e+00 0 0 0
787 1 -2.1831486246864407e-06 5.0184154781579311e+00 1.5133800682205981e+01 7.1562076299588568e+00 0 0 0
788 1 1.6088529519025183e-06 6.2037193354384508e+00 1.6433592409325009e+01 8.9945469965339768e+00 0 0 0
789 1 2.0249962199644661e-06 6.2922017304985456e+00 1.3850441819516355e+01 8.9394958280210535e+00 0 0 0
791 1 2.3411303007140510e-06 6.2817992470681956e+00 1.5140166189174245e+01 8.0712408944537497e+00 0 0 0
831 1 7.1378719228726806e-06 6.3041133568727572e+00 1.8884686021224336e+01 8.9452381571539483e+00 0 0 0
982 1 5.8861383403906669e-06 2.4980297895024144e+00 1.5102779527532315e+01 1.0738526010512194e+01 0 0 0
1035 1 -4.3039837270824931e-06 2.5422001535886523e+00 1.7660270964315515e+01 1.0778370727118824e+01 0 0 0
1038 1 9.7234470865968955e-07 5.0070170252574577e+00 1.7581808350320692e+01 1.0756321583407416e+01 0 0 0
1043 1 2.2942450682395799e-06 5.0026903859685579e+00 1.5093787300310478e+01 1.0771945579655428e+01 0 0 0
719 1 -7.9734252084632217e-06 2.0100806690109902e+01 1.7652251328214984e+01 7.1682028141781364e+00 -1 0 0
723 1 -1.1020099690647581e-05 2.0157214364099641e+01 1.5166921620487892e+01 7.2019477763846398e+00 -1 0 0
673 1 8.0865626256865524e-06 7.5078457221064383e+00 1.1635975282814570e-02 7.1609990703915658e+00 0 0 0
715 1 6.6960642456043800e-06 1.2574468613395920e+01 3.4412188562370716e-02 7.1572181091150675e+00 0 0 0
716 1 -1.1244148744897773e-05 1.1319882749353887e+01 2.0155287923231960e+01 8.0307807887469078e+00 0 -1 0
929 1 4.5784860252292993e-06 7.5276887790606608e+00 1.3540594516882720e-02 1.0744543067010264e+01 0 0 0
971 1 4.0281926732933900e-06 1.2621586054311637e+01 2.0132720167512272e+01 1.0720463292033200e+01 0 -1 0
536 1 -2.4104889347794659e-06 7.5532848485139326e+00 1.6384677639834916e+01 6.2497568564679744e+00 0 0 0
537 1 1.4878627307055154e-06 7.5823557435216209e+00 1.3847615833231997e+01 6.2724473066081936e+00 0 0 0
540 1 -1.0814790091191821e-06 8.8559018615772107e+00 1.3855493953984366e+01 5.3864366087024189e+00 0 0 0
544 1 2.7004627650721767e-06 1.0080925897618236e+01 1.3897857437694896e+01 6.2574181077692312e+00 0 0 0
576 1 -7.7985062505414611e-06 7.5644808463977879e+00 1.8896595503142919e+01 6.2411816800539048e+00 0 0 0
578 1 4.1056864634597856e-06 8.8023526054550896e+00 1.8864076627413599e+01 5.3713909842150729e+00 0 0 0
579 1 -2.6690764730706736e-06 8.8348117398579706e+00 1.6374840314864755e+01 5.3462002564333346e+00 0 0 0
582 1 -1.2701229738848811e-06 1.0055060503256886e+01 1.8924736440020318e+01 6.2216856609496460e+00 0 0 0
583 1 6.3532257567689037e-06 1.0111040260582666e+01 1.6415788005238067e+01 6.2647862572449249e+00 0 0 0
586 1 -8.9369149502752113e-08 1.1373310132215972e+01 1.6401655712166423e+01 5.3387398673485542e+00 0 0 0
587 1 -1.5937865973997350e-08 1.1358376418084577e+01 1.3860835072844342e+01 5.3512169273394203e+00 0 0 0
590 1 4.8191286270025783e-06 1.2588079149428740e+01 1.6380279381807380e+01 6.2452869012796155e+00 0 0 0
591 1 2.8475904387176799e-06 1.2582174970534341e+01 1.3877762344696627e+01 6.2724980377101689e+00 0 0 0
613 1 1.2204504910404798e-06 1.1361137546748518e+01 1.8965650346613174e+01 5.3474423234784414e+00 0 0 0
614 1 -3.4442907537498910e-06 1.2598517211586602e+01 1.8971108510275293e+01 6.2604421864770208e+00 0 0 0
790 1 -4.8614882147454591e-06 7.5297925727079145e+00 1.5152668162787759e+01 7.1725764115885653e+00 0 0 0
792 1 -3.0439405685860498e-06 7.5455811765782883e+00 1.6381361788826510e+01 9.8848654148639241e+00 0 0 0
793 1 -2.2347130220200908e-06 7.5482502528270530e+00 1.3921812633221307e+01 9.8320769395390695e+00 0 0 0
794 1 3.4403771956886324e-06 8.7945292179701084e+00 1.5119028452765907e+01 8.0366707047217396e+00 0 0 0
796 1 -2.3358752387443595e-06 8.8173278198242535e+00 1.3823892038469843e+01 8.9613138340461607e+00 0 0 0
800 1 1.0998740136600556e-06 1.0057623014405394e+01 1.3884678655482976e+01 9.8380661998252137e+00 0 0 0
832 1 -7.7944991978046398e-06 7.5248132659776639e+00 1.8964026890726242e+01 9.8379718198070876e+00 0 0 0
833 1 2.5858709557460271e-06 7.5418815335970635e+00 1.7644563394451495e+01 7.1396604667292358e+00 0 0 0
834 1 7.1623274356362180e-06 8.8166593932303066e+00 1.8936115253006690e+01 8.9331762954719096e+00 0 0 0
835 1 8.9101913246939736e-07 8.8086658405619378e+00 1.6354646374615804e+01 8.9760983565928054e+00 0 0 0
836 1 2.4369629637351776e-07 1.0130971747881997e+01 1.7667201016581629e+01 7.1194665941908868e+00 0 0 0
837 1 -1.2622112013815611e-06 8.8309685030816141e+00 1.7616267541324486e+01 8.0936753710457054e+00 0 0 0
838 1 -7.3728624095932751e-06 1.0057152510394548e+01 1.8879007468926140e+01 9.8519178729575270e+00 0 0 0
839 1 1.9059925730452262e-06 1.0055452946386147e+01 1.6360210692970366e+01 9.8326731369666529e+00 0 0 0
840 1 -4.5969172917624033e-07 1.1362271465712567e+01 1.7651209068388997e+01 8.0318954616805431e+00 0 0 0
841 1 -2.6428523160919873e-06 1.0083351327305117e+01 1.5209082084969831e+01 7.1863373628195042e+00 0 0 0
842 1 -3.4489329944341079e-06 1.1380714001001758e+01 1.6413800451512532e+01 8.9932472950917219e+00 0 0 0
843 1 -6.5683006849047360e-06 1.1313762082696837e+01 1.3881117494641623e+01 8.9224745888495995e+00 0 0 0
844 1 -6.9150625916703897e-06 1.2517095580901223e+01 1.5095957778642635e+01 7.1681254951346887e+00 0 0 0
845 1 4.8387214302942262e-06 1.1284432099606414e+01 1.5179706051693540e+01 8.0714323792098952e+00 0 0 0
846 1 7.6619394894012031e-07 1.2549332894596787e+01 1.6451269156735066e+01 9.8271342572952705e+00 0 0 0
847 1 6.4356468185711247e-06 1.2585709683977141e+01 1.3841130902076610e+01 9.7855454197017693e+00 0 0 0
869 1 8.5143994420904170e-06 1.1360386063813056e+01 1.8899067272030624e+01 8.9920731529325977e+00 0 0 0
870 1 -7.0452522437333211e-06 1.2584001753006863e+01 1.8895331226569425e+01 9.8403275784095285e+00 0 0 0
871 1 3.1966796684804513e-07 1.2617467988556168e+01 1.7653282492146246e+01 7.1142613365983367e+00 0 0 0
1046 1 3.7490231124105221e-06 7.5353882925761377e+00 1.5123229643655696e+01 1.0723933056244267e+01 0 0 0
1089 1 1.1223915636428496e-06 7.5941661842871344e+00 1.7684184370419526e+01 1.0724813004369807e+01 0 0 0
1092 1 1.1178966734836988e-06 1.0049838707234171e+01 1.7670668501403689e+01 1.0724825243343705e+01 0 0 0
1097 1 -4.6248243092736833e-06 1.0058752578081286e+01 1.5157778167268022e+01 1.0752456207081671e+01 0 0 0
1100 1 -4.6128969005478242e-06 1.2570925292221476e+01 1.5158549100626963e+01 1.0716587879704690e+01 0 0 0
1127 1 2.1878382888309614e-06 1.2610314120452458e+01 1.7705914935599701e+01 1.0730727121521408e+01 0 0 0
422 1 1.2739400574632647e-05 2.0158489204976597e+01 1.3875992000664144e+01 6.2519817503020194e+00 -1 0 0
464 1 6.6293556995439111e-06 2.0159390433535147e+01 1.8878411047999116e+01 6.2940823528549910e+00 -1 0 0
465 1 1.0146484546985000e-05 2.0151868828928350e+01 1.6439182886508721e+01 6.2555364619612490e+00 -1 0 0
773 1 -2.5008299026347745e-07 1.7701638731314091e+01 2.0142796751629518e+01 7.2241661923055815e+00 0 -1 0
1029 1 -1.3942610443705260e-06 1.7691816713471848e+01 2.0153160235325274e+01 1.0805190507033625e+01 0 -1 0
678 1 8.2951218402683985e-06 2.0083423525594775e+01 1.3899689111942104e+01 9.7821027183926343e+00 -1 0 0
720 1 2.0145187457314816e-06 2.0141253679860018e+01 1.8927609946016450e+01 9.9625013631013140e+00 -1 0 0
721 1 3.7334237511867407e-06 2.0134652586454944e+01 1.6414987229907897e+01 9.8955856914972760e+00 -1 0 0
975 1 -5.2180043208017314e-06 2.0165589337620549e+01 1.7658743992542171e+01 1.0797399492247733e+01 -1 0 0
979 1 -2.0677771549256523e-06 2.0164530428554794e+01 1.5181058044025731e+01 1.0734756428082742e+01 -1 0 0
594 1 -3.6986630805590525e-06 1.3877630295098234e+01 1.3888814199050328e+01 5.3598737980096081e+00 0 0 0
598 1 6.9668511987023050e-06 1.5105840721676044e+01 1.3877549603450284e+01 6.2605787425425659e+00 0 0 0
616 1 2.5062277428369608e-06 1.3835000643127890e+01 1.8971243195106059e+01 5.3473748046446357e+00 0 0 0
617 1 -1.3406167260810230e-06 1.3883067151210168e+01 1.6420353519141589e+01 5.3223584066460798e+00 0 0 0
620 1 -1.5740122091626778e-06 1.5157792088394684e+01 1.8994594518545000e+01 6.2481349585181070e+00 0 0 0
621 1 7.7272771296487824e-06 1.5092196822643153e+01 1.6403714940720775e+01 6.2398784510007825e+00 0 0 0
624 1 -1.1391605214451774e-05 1.6378550469508976e+01 1.6413081308436386e+01 5.3339285260916931e+00 0 0 0
625 1 -1.0493733733736891e-05 1.6364160628310646e+01 1.3911939657233262e+01 5.3704892053183455e+00 0 0 0
628 1 1.0538364779397758e-05 1.7593465941537698e+01 1.6441058385226178e+01 6.2303984666237637e+00 0 0 0
629 1 1.5403674853878846e-05 1.7645501671612749e+01 1.3893869459844735e+01 6.2901267624595745e+00 0 0 0
632 1 -1.6775604910389236e-05 1.8899221419831022e+01 1.3870671292155800e+01 5.3491970111789620e+00 0 0 0
635 1 -1.0560461969768433e-06 1.6335274131986498e+01 1.8906366980139165e+01 5.3865611626167720e+00 0 0 0
636 1 5.0835777069072201e-07 1.7621038596130369e+01 1.8876804444164904e+01 6.2673924578032203e+00 0 0 0
638 1 -2.5442952660919305e-06 1.8927887014097852e+01 1.8879189089805770e+01 5.3759728749340487e+00 0 0 0
639 1 -1.1331247336365651e-05 1.8937093674816165e+01 1.6437004491214967e+01 5.3744974716100886e+00 0 0 0
848 1 8.1529173710067050e-06 1.3813613952938670e+01 1.5174521447279433e+01 8.0520058946349273e+00 0 0 0
850 1 -8.9338539261869386e-06 1.3816766480818806e+01 1.3863799294643940e+01 8.9156885076759966e+00 0 0 0
854 1 7.0034264065423899e-06 1.5055877578332018e+01 1.3895103708986539e+01 9.8337360179209874e+00 0 0 0
872 1 2.2188560361443325e-06 1.3826355730850681e+01 1.8916883019406001e+01 8.9490469084255579e+00 0 0 0
873 1 -2.7055485280214503e-06 1.3844195033660183e+01 1.6440644328093633e+01 8.9681104579808082e+00 0 0 0
874 1 -2.9336575181157100e-06 1.5117942437662535e+01 1.7717697553703339e+01 7.1705183869504090e+00 0 0 0
875 1 -2.1964498232554730e-06 1.3848571054818324e+01 1.7690176345525519e+01 8.0088575096519037e+00 0 0 0
876 1 -5.3367694348689929e-07 1.5091923637205523e+01 1.8883552078158637e+01 9.9012511091176130e+00 0 0 0
877 1 5.5856265034636917e-06 1.5096459786606507e+01 1.6422064988601104e+01 9.8870069106889282e+00 0 0 0
878 1 1.1055616400356709e-05 1.6391193732056784e+01 1.7669885316253222e+01 8.1224945293174695e+00 0 0 0
879 1 -9.7837196054260193e-06 1.5080332124517811e+01 1.5119329051655955e+01 7.0888588703090480e+00 0 0 0
880 1 -9.2045344424506782e-06 1.6359601233955317e+01 1.6411624242864551e+01 8.9916777230573199e+00 0 0 0
881 1 -6.8203716112224160e-06 1.6293544582187856e+01 1.3923394912727913e+01 8.9389944543693716e+00 0 0 0
882 1 -1.4550331998974983e-05 1.7603777409546197e+01 1.5213113276792223e+01 7.2250827940023790e+00 0 0 0
883 1 8.7332283280787418e-06 1.6341522673878707e+01 1.5149067122520622e+01 8.0560557294217965e+00 0 0 0
884 1 5.2945797096914805e-06 1.7619186261552379e+01 1.6424880506146597e+01 9.9086321200233520e+00 0 0 0
885 1 5.6680249851212283e-06 1.7575282172095218e+01 1.3889599200341996e+01 9.8711474849129832e+00 0 0 0
886 1 8.3428841250888318e-06 1.8849725520086718e+01 1.5188321766892802e+01 8.0712066321773168e+00 0 0 0
888 1 -4.9777934610518798e-06 1.8819830416747084e+01 1.3904056396627857e+01 8.9483512549770765e+00 0 0 0
891 1 -3.5730593831394304e-06 1.6400980920423198e+01 1.8895161408403798e+01 8.9952418154294129e+00 0 0 0
892 1 2.2740219863814593e-06 1.7689208682172179e+01 1.8875857661301023e+01 9.8229259418303609e+00 0 0 0
893 1 -7.6948560605116656e-06 1.7589715215409953e+01 1.7639474983421167e+01 7.1632799027897471e+00 0 0 0
894 1 4.0741398055003663e-07 1.8918640869311460e+01 1.8912327426496187e+01 8.9708292476845948e+00 0 0 0
895 1 -8.9508812772426680e-06 1.8875613574546040e+01 1.6391924568215998e+01 9.0191360174469057e+00 0 0 0
896 1 5.4066186973252958e-06 1.8856887732530971e+01 1.7610768279828491e+01 8.0658729697899130e+00 0 0 0
1130 1 -2.1571248088736817e-06 1.5120719206196693e+01 1.7650554284142586e+01 1.0876940860150411e+01 0 0 0
1135 1 -7.4553830095487684e-06 1.5054900685275166e+01 1.5190450255156026e+01 1.0755119343972222e+01 0 0 0
1138 1 -5.1982972725531982e-06 1.7615129130270130e+01 1.5102722435627827e+01 1.0779755177156611e+01 0 0 0
1149 1 -3.4414658564699731e-06 1.7665222670343152e+01 1.7675451254488191e+01 1.0836632111119355e+01 0 0 0
898 1 -2.0564657401265494e-07 1.0735446556950719e-01 3.8561109418901780e+00 1.3543168100647017e+01 0 0 0
899 1 9.8919607271508314e-07 7.8508436268690238e-02 1.3272526814788357e+00 1.3497413584311561e+01 0 0 0
900 1 -2.3534764025712777e-06 1.2883226757082449e+00 2.5782635655533808e+00 1.1671118033355990e+01 0 0 0
902 1 -1.2776179366538170e-06 1.3089518897142063e+00 1.3085387122364640e+00 1.2464911195706497e+01 0 0 0
904 1 6.0201627811688873e-07 1.3249420978150837e+00 2.0145536586338025e+01 1.1594931574304297e+01 0 -1 0
905 1 -4.2579233940003441e-07 2.4724600635015066e+00 1.3496311528165674e+00 1.3541561271980493e+01 0 0 0
909 1 1.1346599880682264e-06 7.4300511980124342e-02 6.3053238541468328e+00 1.3498266970738872e+01 0 0 0
912 1 2.1866996973046623e-06 1.3136940738137446e+00 6.3156082204232868e+00 1.2420014259035820e+01 0 0 0
913 1 2.5595420391789420e-06 1.3208354070172168e+00 3.8600203761888774e+00 1.2482910006156068e+01 0 0 0
915 1 -2.9300767265928978e-06 1.3289759600104771e+00 5.0681035422948311e+00 1.1611949536985364e+01 0 0 0
916 1 -3.2356451789474616e-06 2.4662554384888824e+00 6.3041786964449793e+00 1.3490227185082020e+01 0 0 0
917 1 -1.2815429486039985e-06 2.5392723525695193e+00 3.8612481878399216e+00 1.3648108141779170e+01 0 0 0
918 1 -2.6520554412046936e-06 3.8062924361340347e+00 5.0229868781166980e+00 1.1675138088511774e+01 0 0 0
920 1 3.4226473464607228e-07 3.8227283365693894e+00 3.8474887504631647e+00 1.2651003580996733e+01 0 0 0
921 1 -1.1570364746197997e-06 3.8122476612658378e+00 1.2744544081900611e+00 1.2689409960835381e+01 0 0 0
923 1 -5.2387409845092133e-06 3.8099274078817609e+00 2.5321243045336810e+00 1.1741030134180258e+01 0 0 0
924 1 2.2720097296061394e-06 5.1461551166436568e+00 3.7788162312756395e+00 1.3520486631332050e+01 0 0 0
925 1 -1.6254310347702580e-07 5.1721648461305554e+00 1.2015180293421521e+00 1.3552460283064336e+01 0 0 0
926 1 -5.1838884517799659e-06 6.2976815305607188e+00 2.5123460652714504e+00 1.1611039156093483e+01 0 0 0
928 1 1.4866886088238527e-06 6.3044263042276514e+00 1.2826549899175959e+00 1.2491796840733468e+01 0 0 0
930 1 -2.9648820702682491e-06 6.2946419631661330e+00 2.7416555798204914e-02 1.1577235353277027e+01 0 0 0
947 1 3.0676718864774358e-06 3.8235928616052068e+00 6.3096015074464429e+00 1.2628609646791066e+01 0 0 0
951 1 -4.4712049221974607e-06 5.0935369356446865e+00 6.3270807141907515e+00 1.3503815723729234e+01 0 0 0
954 1 3.7582487736075539e-06 6.3461731766292724e+00 6.2891114752790918e+00 1.2432326109080339e+01 0 0 0
955 1 5.0620086705639455e-06 6.3446942903711534e+00 3.7765202957378037e+00 1.2447155982357449e+01 0 0 0
957 1 -4.0065265370215999e-06 6.2867327655463523e+00 5.0226419452891626e+00 1.1601548920187422e+01 0 0 0
1153 1 -8.5516117110137539e-07 5.2793924463869657e-01 2.5553501472547149e+00 1.4210755183317829e+01 0 0 0
1154 1 -1.8429837687563521e-06 5.1987093152778707e-01 2.0130905606883378e+01 1.4269572279202807e+01 0 -1 0
1157 1 -9.1708235338116463e-08 5.1647847990814000e-01 5.1647297619705288e+00 1.4282650508527997e+01 0 0 0
1158 1 -4.4435727955825847e-07 2.0253818567943940e+00 5.1178620608938115e+00 1.4287009853545188e+01 0 0 0
1159 1 3.7794758522305078e-06 2.0103567885387843e+00 2.5781127403666497e+00 1.4233131139624277e+01 0 0 0
1160 1 -3.5582065502079728e-06 5.5780540164559627e+00 2.5318416982897078e+00 1.4364587384625079e+01 0 0 0
1161 1 -9.3792047724618982e-07 5.5682405159554831e+00 2.0090005579648857e+01 1.4301991415144629e+01 0 -1 0
1168 1 -1.6405910262894560e-06 5.4662057881309289e+00 5.0374164349174890e+00 1.4274629049764899e+01 0 0 0
931 1 -1.2638240036034661e-06 7.6212286544812207e+00 1.2735879017919938e+00 1.3510195983824087e+01 0 0 0
958 1 -4.0257257375008124e-06 7.4942373696564726e+00 6.3815520896163669e+00 1.3515474385562566e+01 0 0 0
959 1 -1.0159877816001763e-06 7.5167979962229792e+00 3.7837671680945064e+00 1.3510597868370025e+01 0 0 0
960 1 -6.3989006071224412e-06 8.8031929020208342e+00 5.0604305814750914e+00 1.1718462089914297e+01 0 0 0
962 1 4.5039085287873669e-06 8.8259010800825184e+00 3.8425191272865900e+00 1.2677152924932580e+01 0 0 0
963 1 2.2068037962259219e-06 8.8876884632713011e+00 1.2601762371708303e+00 1.2609750916635827e+01 0 0 0
965 1 -5.9352575572324612e-06 8.8474747318030538e+00 2.5172931179822231e+00 1.1680373245193874e+01 0 0 0
966 1 -6.8437671306040433e-06 1.0176472551934483e+01 3.8347536503437261e+00 1.3532347985864119e+01 0 0 0
967 1 -9.4506672332464036e-07 1.0145898029161138e+01 1.2949594907580557e+00 1.3480735758956930e+01 0 0 0
968 1 -1.3259396166419436e-06 1.1359106553358989e+01 2.4728190903518432e+00 1.1622875959974758e+01 0 0 0
970 1 2.3695658159763265e-06 1.1334605956431991e+01 1.2629439701699836e+00 1.2422628751837932e+01 0 0 0
972 1 -1.0082022377736995e-07 1.1328792052318621e+01 1.5703472494341095e-02 1.1577458430358739e+01 0 0 0
973 1 5.3706703887006418e-06 1.2514618018341269e+01 1.2743310408091644e+00 1.3425110908412966e+01 0 0 0
1005 1 3.6890986408356676e-06 8.7826762951326511e+00 6.3290723420569739e+00 1.2596232346447714e+01 0 0 0
1009 1 -4.9864882598503731e-06 1.0117873049631843e+01 6.3350953571524080e+00 1.3449087015764931e+01 0 0 0
1012 1 -7.1564705937818609e-06 1.1339769662397766e+01 6.2624154788665880e+00 1.2397177042001328e+01 0 0 0
1013 1 -4.0032937461443245e-06 1.1377670920904887e+01 3.7921763522953649e+00 1.2455124603664666e+01 0 0 0
1015 1 3.9233983647210546e-06 1.1280308637847904e+01 5.0491986901876587e+00 1.1593053490917642e+01 0 0 0
1016 1 1.1952648630358016e-05 1.2560562492256302e+01 6.2350233870346692e+00 1.3480155960032986e+01 0 0 0
1017 1 6.9639950235681058e-06 1.2575509296310390e+01 3.7906096544919650e+00 1.3551144446452787e+01 0 0 0
1169 1 2.7394869761718384e-06 7.0257560624591218e+00 5.0882858050829771e+00 1.4311863246124977e+01 0 0 0
1170 1 1.6770280044059280e-06 7.1775207445590841e+00 2.5316178069820534e+00 1.4335585524224909e+01 0 0 0
1171 1 4.8184271093103718e-06 1.0636059198135252e+01 2.5776178896731956e+00 1.4219902403103765e+01 0 0 0
1172 1 -3.2215481977445029e-07 1.0613707261745857e+01 5.2824693530740818e-02 1.4270446432255490e+01 0 0 0
1183 1 1.1722086211011637e-05 1.0580115053497025e+01 5.1061868984081249e+00 1.4196231521506256e+01 0 0 0
1184 1 -1.1095996057409949e-05 1.2041474854571081e+01 5.0495254030848535e+00 1.4242281051600440e+01 0 0 0
1185 1 -7.8267839573271770e-06 1.2092005878375030e+01 2.5158876219659123e+00 1.4187019017014002e+01 0 0 0
1018 1 3.3065373927311484e-06 1.3860686622649302e+01 5.0714987076180860e+00 1.1705201443191271e+01 0 0 0
1020 1 -5.8846846716176307e-06 1.3879599932881604e+01 3.7426122996455842e+00 1.2639067167508754e+01 0 0 0
1021 1 2.1025017000677156e-06 1.3868704317449067e+01 1.3061735266225509e+00 1.2609383514406822e+01 0 0 0
1023 1 -3.3803951862694212e-06 1.3891255037066701e+01 2.4776417457431381e+00 1.1691633144629888e+01 0 0 0
1024 1 -4.5246966373964220e-06 1.5173316680437850e+01 3.8134296448444025e+00 1.3500314439223274e+01 0 0 0
1025 1 -3.4370957229682743e-06 1.5195103641239648e+01 1.2933049612488909e+00 1.3542427604967362e+01 0 0 0
1026 1 -3.4276636761036969e-06 1.6379300300908401e+01 2.4168538499520542e+00 1.1646359144711154e+01 0 0 0
1028 1 2.3389265291784829e-07 1.6423412217678294e+01 1.1930400264841243e+00 1.2484091896732153e+01 0 0 0
1030 1 2.0745026278115818e-07 1.6450067953401241e+01 2.0162969343782962e+01 1.1646145242561378e+01 0 -1 0
1031 1 4.9211444481398185e-06 1.7571987265963678e+01 1.2293768138830794e+00 1.3657590370733535e+01 0 0 0
1069 1 -2.7640904418246754e-06 1.3860598500819856e+01 6.3135857574580960e+00 1.2626201611522781e+01 0 0 0
1073 1 -1.5145944791945733e-06 1.5185809819614862e+01 6.3048964135874010e+00 1.3521864708405735e+01 0 0 0
1076 1 1.0128640662216124e-05 1.6409307320516547e+01 6.2976452778557679e+00 1.2455785758783261e+01 0 0 0
1077 1 3.8162629331388561e-06 1.6410027505921736e+01 3.7329986155532540e+00 1.2477356270717825e+01 0 0 0
1079 1 -1.0073725782946543e-05 1.6398689711632766e+01 5.0147555704727216e+00 1.1686150000886174e+01 0 0 0
1080 1 -2.3189181191689214e-06 1.7576158515539916e+01 6.2091702199570555e+00 1.3519162144790895e+01 0 0 0
1081 1 1.9761337051879831e-07 1.7541393140882086e+01 3.7339943830762716e+00 1.3616882849751043e+01 0 0 0
1082 1 -5.4175772199816401e-06 1.8931644523408938e+01 5.0702251501062054e+00 1.1724115048384231e+01 0 0 0
1084 1 2.8925012071871643e-06 1.8901447781428232e+01 3.8092509309202462e+00 1.2712900529577578e+01 0 0 0
1085 1 -1.8743763316757021e-06 1.8919893901052774e+01 1.2602614222254389e+00 1.2702754642842832e+01 0 0 0
1086 1 -1.9820884314690001e-06 1.8915491691401037e+01 2.5983807348858594e+00 1.1754004880543681e+01 0 0 0
1123 1 3.9560110465696012e-06 1.8875674145829585e+01 6.2895079499869491e+00 1.2692676288580479e+01 0 0 0
1186 1 2.7615599511616698e-06 1.5587790256477096e+01 2.5574512649699255e+00 1.4295310121988706e+01 0 0 0
1187 1 7.0458126453139989e-07 1.5560097308174962e+01 4.1604024619453870e-03 1.4332834442956564e+01 0 0 0
1199 1 6.6761671139520000e-06 1.5614424619268990e+01 5.0668488507873848e+00 1.4195631149796588e+01 0 0 0
1200 1 -4.9052696111779458e-06 1.7112632536538772e+01 5.0397562212867335e+00 1.4264877643276277e+01 0 0 0
1201 1 -1.9168407207028564e-07 1.7058826003326054e+01 2.5640336379574187e+00 1.4411037864653093e+01 0 0 0
908 1 1.5357163668934044e-06 7.1304266347581163e-02 8.7773447865527991e+00 1.3323483988199719e+01 0 0 0
910 1 3.4611571528047622e-06 1.2995720758774532e+00 7.5546588235355472e+00 1.1550502139565902e+01 0 0 0
935 1 -1.0288312560422512e-06 5.6091344730714830e-02 1.1299934215323544e+01 1.3460272769945343e+01 0 0 0
936 1 2.0082233636170782e-06 1.1810538535335142e+00 1.2580590270187885e+01 1.1649023792531041e+01 0 0 0
938 1 -3.6951618317777125e-06 1.2069916034693500e+00 1.1315127375183609e+01 1.2446439140338784e+01 0 0 0
939 1 -4.2763729769939869e-06 1.2691545494514902e+00 8.8534740175919264e+00 1.2348957049299413e+01 0 0 0
941 1 7.6578972620456428e-06 1.2699657817578514e+00 1.0082339749531826e+01 1.1590739503927418e+01 0 0 0
942 1 -2.4682853792069146e-06 2.4415949802747390e+00 1.1307522932303531e+01 1.3478848752967949e+01 0 0 0
943 1 -5.4631357574804780e-06 2.4860955149580897e+00 8.7740782596580846e+00 1.3430190435687654e+01 0 0 0
944 1 -3.7543409171679093e-06 3.7355450802358261e+00 1.0070139826167875e+01 1.1687771486901894e+01 0 0 0
946 1 8.5081851774890337e-06 3.7536241113157343e+00 8.8336705175526600e+00 1.2573706220852655e+01 0 0 0
949 1 -4.9664284126160426e-06 3.7867394553983220e+00 7.5482502768072699e+00 1.1624815406349022e+01 0 0 0
950 1 -1.1229952523048228e-05 5.0487470399569903e+00 8.8634011282064975e+00 1.3467319827905792e+01 0 0 0
952 1 -1.0424841146216052e-05 6.3136951958257539e+00 7.5861195102167720e+00 1.1623328151161505e+01 0 0 0
989 1 3.7454668765283064e-06 3.7713872264290766e+00 1.1313012007860214e+01 1.2611576051611559e+01 0 0 0
991 1 -2.0146472311402738e-06 3.7189656484776412e+00 1.2637310049183482e+01 1.1695747829736876e+01 0 0 0
993 1 -6.1342367011724946e-06 5.1064167512268925e+00 1.1316787656161143e+01 1.3469892077044491e+01 0 0 0
994 1 -1.5268416563041284e-05 6.2579058713865212e+00 1.2543568657608441e+01 1.1649991800481159e+01 0 0 0
996 1 1.2970095239204487e-05 6.2839975402532522e+00 1.1334158390412606e+01 1.2453423551112087e+01 0 0 0
997 1 9.9298421523997595e-06 6.2530775178773004e+00 8.8728232328418759e+00 1.2442068413631837e+01 0 0 0
999 1 -7.2143572591289667e-06 6.2938214842075801e+00 1.0092190710220413e+01 1.1641425536039199e+01 0 0 0
1156 1 -1.6935181406705332e-06 5.5835757081731263e-01 7.5818167442246809e+00 1.4146134537498760e+01 0 0 0
1163 1 9.1316374710785323e-07 4.9152082399004215e-01 1.2552998474545776e+01 1.4183467231428901e+01 0 0 0
1164 1 -8.1985649847693369e-07 5.1325389720706427e-01 1.0039633271858875e+01 1.4197492881677475e+01 0 0 0
1165 1 3.2893034885984279e-06 2.0351214416157615e+00 1.0006443168594224e+01 1.4252142538649021e+01 0 0 0
1166 1 4.3245949914875456e-06 2.0653057416831033e+00 7.5503129389637653e+00 1.4150972460083800e+01 0 0 0
1167 1 8.0657435891986192e-06 5.4809542922379864e+00 7.6390807026839438e+00 1.4244228882643174e+01 0 0 0
1177 1 8.1051472411154223e-07 1.9977033697938673e+00 1.2530840027179289e+01 1.4206864889473206e+01 0 0 0
1178 1 1.2718038407308795e-06 5.5174229522480411e+00 1.2573168909723014e+01 1.4248346870283125e+01 0 0 0
1179 1 3.4265599206493302e-06 5.4602601991988742e+00 1.0084311713873038e+01 1.4269488559673425e+01 0 0 0
1000 1 -5.5068616400186554e-06 7.4732443434916549e+00 1.1354319112965232e+01 1.3508897450850510e+01 0 0 0
1001 1 -2.2932758333399715e-06 7.4470293883749310e+00 8.8525198232076949e+00 1.3460849712359920e+01 0 0 0
1002 1 -3.3066052820427766e-06 8.7984893784625537e+00 1.0076647956084310e+01 1.1710748455392572e+01 0 0 0
1004 1 3.7117027630958104e-06 8.7941138276315378e+00 8.8009805140287689e+00 1.2530564003896412e+01 0 0 0
1007 1 -7.3499848080901682e-06 8.8099512510420368e+00 7.5779685113797770e+00 1.1657536934310913e+01 0 0 0
1008 1 -4.9000368960394318e-07 1.0112788550868595e+01 8.8157960173730210e+00 1.3498174535391653e+01 0 0 0
1010 1 2.5421275031101843e-06 1.1313889398565877e+01 7.5286808717924787e+00 1.1585302820035814e+01 0 0 0
1053 1 2.6280226049164142e-06 8.8177729776632336e+00 1.1393922875897132e+01 1.2629110057084283e+01 0 0 0
1055 1 -4.3646216118966439e-06 8.7793548741603029e+00 1.2560252560393568e+01 1.1680284027631982e+01 0 0 0
1057 1 2.2066167437587031e-06 1.0153019308766588e+01 1.1336077577111318e+01 1.3426651841249933e+01 0 0 0
1058 1 9.4260963146829959e-06 1.1344390391748663e+01 1.2647101411612503e+01 1.1576183680429251e+01 0 0 0
1060 1 -5.1218459457770637e-06 1.1355435927318576e+01 1.1301762050596091e+01 1.2439224699040068e+01 0 0 0
1061 1 -1.9166837221073041e-06 1.1275481370066975e+01 8.7711770455936939e+00 1.2398192392283482e+01 0 0 0
1063 1 6.4629393304394201e-06 1.1339469288140634e+01 1.0084436697605085e+01 1.1561287691524177e+01 0 0 0
1064 1 8.9583494909934437e-07 1.2560838675341154e+01 1.1319921449125552e+01 1.3467000492514730e+01 0 0 0
1065 1 1.3009658430658003e-06 1.2504795235613853e+01 8.7727224855520447e+00 1.3425063298066263e+01 0 0 0
1180 1 -6.2448837191992815e-06 7.0412600553861759e+00 1.0156231310879328e+01 1.4265679595752800e+01 0 0 0
1181 1 3.2504922522324503e-06 7.0254354442452174e+00 7.6629428288251686e+00 1.4233128596226575e+01 0 0 0
1182 1 1.3091817304034271e-06 1.0552212984468319e+01 7.5817711846362599e+00 1.4323863510534142e+01 0 0 0
1193 1 7.5069678194087787e-06 7.0807398357006255e+00 1.2620115492750958e+01 1.4250484023471122e+01 0 0 0
1194 1 2.1473584558872011e-06 1.0561301499311430e+01 1.2631797349873789e+01 1.4181115261489804e+01 0 0 0
1195 1 -8.0073275097433164e-07 1.0544463766582629e+01 1.0089986891055972e+01 1.4289567971651271e+01 0 0 0
1196 1 2.8254989078614222e-06 1.2116739012194449e+01 1.0043576159203637e+01 1.4224395165436007e+01 0 0 0
1197 1 -2.6891334996651388e-06 1.2154145806348659e+01 7.5437301526931240e+00 1.4242948089889021e+01 0 0 0
1206 1 -2.5914133702803229e-06 1.2137458206805949e+01 1.2649114871770347e+01 1.4243437647410095e+01 0 0 0
1066 1 1.1802689531216118e-06 1.3778063172719158e+01 1.0063074119826000e+01 1.1693785298477701e+01 0 0 0
1068 1 1.2032424313075456e-06 1.3839336381677780e+01 8.8442136143999548e+00 1.2608952581690259e+01 0 0 0
1071 1 -3.0298389464328819e-06 1.3821425422477381e+01 7.5506123770786262e+00 1.1692983011931521e+01 0 0 0
1072 1 -4.2287281300842620e-06 1.5174596674838487e+01 8.8277737902687079e+00 1.3549968239946779e+01 0 0 0
1074 1 -4.1434355533612559e-06 1.6395954159660963e+01 7.5459601597711421e+00 1.1654178077998095e+01 0 0 0
1107 1 -8.9957838539137982e-09 1.3899654806976509e+01 1.1372139925806886e+01 1.2622824666809143e+01 0 0 0
1109 1 1.6592966827655153e-06 1.3883039586708072e+01 1.2660839933365676e+01 1.1626962513909048e+01 0 0 0
1111 1 -5.0204374353304519e-06 1.5181229478250645e+01 1.1394624009812853e+01 1.3518945989022562e+01 0 0 0
1112 1 7.5448821263835955e-07 1.6389794471033873e+01 1.2622668715755818e+01 1.1611650299706467e+01 0 0 0
1114 1 -1.7861231545070507e-06 1.6371430556053411e+01 1.1393243248436315e+01 1.2424473414742700e+01 0 0 0
1115 1 8.4995096753170908e-07 1.6371016198759197e+01 8.7460625641155350e+00 1.2475878197779764e+01 0 0 0
1117 1 6.4767257124732333e-07 1.6338470251762342e+01 1.0127549480072666e+01 1.1663626782199332e+01 0 0 0
1118 1 5.5459285612441999e-06 1.7528680717952227e+01 1.1319363306995012e+01 1.3485212141547866e+01 0 0 0
1119 1 -2.1922032651924876e-07 1.7593676134525587e+01 8.7841640329948696e+00 1.3515335310610677e+01 0 0 0
1120 1 4.8716589248269133e-06 1.8931868676254847e+01 1.0058254602665517e+01 1.1702735950334585e+01 0 0 0
1122 1 -3.3548730232997412e-06 1.8913451769360158e+01 8.7901047926555211e+00 1.2609678252575142e+01 0 0 0
1124 1 -2.0577456616831132e-06 1.8858996565999881e+01 7.5169739784716141e+00 1.1723652420917984e+01 0 0 0
1145 1 -4.1843964476607904e-06 1.8909295095217022e+01 1.1301996326451334e+01 1.2592183443657413e+01 0 0 0
1146 1 2.5012266726949211e-06 1.8885324895767379e+01 1.2556602365032363e+01 1.1666686672140523e+01 0 0 0
1198 1 5.1355096916432033e-07 1.5649181232671333e+01 7.5561038380229322e+00 1.4310249990715770e+01 0 0 0
1207 1 3.0439006204771238e-06 1.5593273112639604e+01 1.2703039285254516e+01 1.4249654139067196e+01 0 0 0
1208 1 5.3939165830396655e-06 1.5677155910446222e+01 1.0086570840013636e+01 1.4327539808678949e+01 0 0 0
1209 1 -1.5600024431871415e-06 1.7224663253536129e+01 1.0072712368945037e+01 1.4246511315618799e+01 0 0 0
1210 1 -3.2889506460183049e-06 1.7201361119654148e+01 7.5212508040043824e+00 1.4344912837540889e+01 0 0 0
1215 1 -5.1125998990046372e-06 1.7164430062696876e+01 1.2670431165353360e+01 1.4235528636545840e+01 0 0 0
906 1 9.1785756157586703e-07 3.8138736644958930e+00 2.0140443606375396e+01 1.1743769240912524e+01 0 -1 0
1155 1 2.4286232526442126e-06 2.1304731649751396e+00 1.7403433213321051e-02 1.4271910193208971e+01 0 0 0
934 1 -4.3695431084207253e-07 1.0267384556422345e-01 1.3826977390838696e+01 1.3483308724204308e+01 0 0 0
976 1 7.4377149165018249e-06 8.2625339681343016e-02 1.8908743968774981e+01 1.3513840309678907e+01 0 0 0
977 1 6.6828110370893602e-06 4.1139022070219876e-02 1.6325026519573488e+01 1.3488080569801388e+01 0 0 0
978 1 3.5619466437780176e-06 1.2741308373192024e+00 1.7609440509521619e+01 1.1695223717994914e+01 0 0 0
980 1 -3.5895137430664452e-06 1.2167577697833059e+00 1.6291282420054852e+01 1.2476186070027124e+01 0 0 0
981 1 1.6329588574504509e-06 1.2565181745861580e+00 1.3844290882129053e+01 1.2445172865897527e+01 0 0 0
983 1 -1.1232851866597355e-06 1.2731276967426877e+00 1.5123293133934560e+01 1.1657028294332425e+01 0 0 0
984 1 -1.5610879684795587e-06 2.4356075658726284e+00 1.6302947914522562e+01 1.3470256228133252e+01 0 0 0
985 1 -6.9047096667864644e-06 2.4919799564014551e+00 1.3789911947594518e+01 1.3563564177687667e+01 0 0 0
986 1 -6.9076359345368815e-06 3.7869550553087103e+00 1.5086351984291712e+01 1.1711893197416066e+01 0 0 0
988 1 8.6585958650303629e-06 3.7805450327183885e+00 1.3904880932894050e+01 1.2624512996823084e+01 0 0 0
992 1 -5.6024619375450280e-06 5.0975838102296596e+00 1.3826070894976985e+01 1.3461355959324617e+01 0 0 0
1033 1 -3.0258697388906118e-06 1.2894980666600155e+00 1.8938887830505816e+01 1.2451697545583180e+01 0 0 0
1034 1 1.2881103816604763e-07 2.5775807643279536e+00 1.8891842000574400e+01 1.3506622813621460e+01 0 0 0
1036 1 -4.5001222554304717e-06 3.8223122584689455e+00 1.8798977666113988e+01 1.2649565379447534e+01 0 0 0
1037 1 8.9612445294065080e-07 3.7583807277727508e+00 1.6324415601602261e+01 1.2681056098548920e+01 0 0 0
1039 1 1.7894022298287988e-06 3.7864317289563441e+00 1.7577992333899694e+01 1.1668720708182308e+01 0 0 0
1040 1 6.9767506769639041e-06 5.1580470621322956e+00 1.8792234442046567e+01 1.3521269288477381e+01 0 0 0
1041 1 1.7244970341342981e-06 5.1415081400118314e+00 1.6343586291285870e+01 1.3540992613250765e+01 0 0 0
1042 1 -1.9994670193289050e-06 6.3540544747509031e+00 1.7654656406764680e+01 1.1600735066006251e+01 0 0 0
1044 1 8.7729145330231735e-06 6.2671017040963957e+00 1.6381535063207657e+01 1.2476083786391047e+01 0 0 0
1045 1 1.4089731492957014e-05 6.2972647108667577e+00 1.3803626642719580e+01 1.2387013557894118e+01 0 0 0
1047 1 -9.4302511758522470e-06 6.3082027659572733e+00 1.5092876163056717e+01 1.1606939584012462e+01 0 0 0
1087 1 -2.6635996452809855e-06 6.3078207235658734e+00 1.8938423112896306e+01 1.2460497805875491e+01 0 0 0
1174 1 -6.4296339285406032e-06 5.2442264830596463e-01 1.7603480883336591e+01 1.4185842880553741e+01 0 0 0
1175 1 -5.6135103845157739e-07 4.4717687875502088e-01 1.5036119820283680e+01 1.4300415962606062e+01 0 0 0
1176 1 5.3120867688618482e-06 2.0072742432111954e+00 1.5047900270691645e+01 1.4301588447380187e+01 0 0 0
1189 1 4.3579945423112291e-06 2.0682766148525249e+00 1.7632108047779219e+01 1.4291480681501785e+01 0 0 0
1190 1 -6.6257596271010709e-06 5.5872522304169596e+00 1.7585766272179320e+01 1.4244556234751574e+01 0 0 0
1191 1 -4.5160808273333872e-07 5.5504081903651432e+00 1.5054108425969906e+01 1.4170045571487698e+01 0 0 0
932 1 3.3963072926183575e-07 8.7878633952633898e+00 2.0147867859640066e+01 1.1680292479758357e+01 0 -1 0
1162 1 1.3579065298272069e-06 7.1676456429802027e+00 1.3045334127568253e-03 1.4217624679712531e+01 0 0 0
1173 1 -2.4739612454390784e-06 1.2109755928879075e+01 2.0159514621349544e+01 1.4315826619282848e+01 0 -1 0
1048 1 -7.0713094853742979e-06 7.4874448022926670e+00 1.6414523986332433e+01 1.3463582979519956e+01 0 0 0
1049 1 -1.6547234297787446e-05 7.4865303683335158e+00 1.3904846245013941e+01 1.3475464140122339e+01 0 0 0
1050 1 -3.8450758913863052e-06 8.8199101517206184e+00 1.5169572012387160e+01 1.1680143977499702e+01 0 0 0
1052 1 1.0509590433530581e-05 8.7954986156293149e+00 1.3884492539489310e+01 1.2618920720450758e+01 0 0 0
1056 1 -1.3167939133413167e-06 1.0057594611413904e+01 1.3955439407078062e+01 1.3518732341037371e+01 0 0 0
1088 1 2.0536928177775013e-06 7.5515620949705218e+00 1.8892874660340052e+01 1.3478417594072036e+01 0 0 0
1090 1 -2.1301784468138114e-06 8.8429503092839852e+00 1.8888448283823355e+01 1.2605811423806932e+01 0 0 0
1091 1 3.0463883750059284e-06 8.8181850292141117e+00 1.6369651266664725e+01 1.2559752284986253e+01 0 0 0
1093 1 3.4428532673299266e-06 8.8523484009562807e+00 1.7677527538413123e+01 1.1700142147448654e+01 0 0 0
1094 1 1.1734095988232167e-06 1.0163499944828104e+01 1.8997290996626553e+01 1.3473563122739215e+01 0 0 0
1095 1 1.2808172544109351e-06 1.0185576296915459e+01 1.6396929643304961e+01 1.3439602051997202e+01 0 0 0
1096 1 4.7919961528917517e-06 1.1328462620486906e+01 1.7738468030378208e+01 1.1624857206588239e+01 0 0 0
1098 1 -1.0127592469426506e-05 1.1362203129329917e+01 1.6425674727805465e+01 1.2461664575946628e+01 0 0 0
1099 1 -6.7859590647298075e-06 1.1364452325471621e+01 1.3878299601419510e+01 1.2451700062705422e+01 0 0 0
1101 1 8.6737454152625283e-06 1.1367084648244091e+01 1.5105512772626959e+01 1.1606473136041000e+01 0 0 0
1102 1 5.4450871415372124e-06 1.2529177104868397e+01 1.6367586760623528e+01 1.3508458513388526e+01 0 0 0
1103 1 7.9493126388571751e-06 1.2547845870160728e+01 1.3874427911250576e+01 1.3460867793498888e+01 0 0 0
1125 1 -7.2247532571333035e-06 1.1365472147611495e+01 1.9022731148911554e+01 1.2420136687097857e+01 0 0 0
1126 1 -4.0591357248848745e-08 1.2575647660336058e+01 1.8981441921579979e+01 1.3545366868718189e+01 0 0 0
1192 1 8.8151976706404468e-06 7.0863916919411993e+00 1.5130052579297406e+01 1.4186029061974045e+01 0 0 0
1202 1 2.6409645045563928e-06 7.0675789955701074e+00 1.7600599011423128e+01 1.4249335624470145e+01 0 0 0
1203 1 -7.6401888527151791e-07 1.0640713726327791e+01 1.7704397627060363e+01 1.4239931668692339e+01 0 0 0
1204 1 3.8508513630484938e-07 1.0577633276495011e+01 1.5181595785663056e+01 1.4300196746975892e+01 0 0 0
1205 1 -3.5316190290265758e-06 1.2106136950830493e+01 1.5053145863702090e+01 1.4267726740547580e+01 0 0 0
1211 1 2.0902266780682775e-06 1.2143119710745403e+01 1.7690466660161203e+01 1.4218519828639568e+01 0 0 0
974 1 -3.4563717118164890e-06 1.3890849095742450e+01 2.0160295520779915e+01 1.1652668177145376e+01 0 -1 0
1032 1 2.5329844978596522e-06 1.8894275859731430e+01 2.0144528439670335e+01 1.1749727454578057e+01 0 -1 0
1188 1 -4.4366435094597993e-06 1.7107591529268696e+01 2.0140219157740532e+01 1.4341317172646116e+01 0 -1 0
1104 1 3.9750424831242463e-06 1.3833631893053649e+01 1.5238245587213237e+01 1.1661383466019608e+01 0 0 0
1106 1 -6.9581961807982278e-08 1.3856220506973580e+01 1.3868410986531256e+01 1.2563500029051136e+01 0 0 0
1110 1 -5.3871952003183118e-06 1.5114381913503324e+01 1.3894299245611611e+01 1.3411382128045291e+01 0 0 0
1128 1 -4.7539473322501175e-06 1.3880821851554945e+01 1.8948266819182134e+01 1.2604068199218894e+01 0 0 0
1129 1 -6.9176761906696271e-06 1.3777958756092534e+01 1.6437032353892395e+01 1.2625437518453642e+01 0 0 0
1131 1 5.8295901838624893e-06 1.3841857667792269e+01 1.7673209804991284e+01 1.1749247554914826e+01 0 0 0
1132 1 3.3106547080215607e-06 1.5152701379225812e+01 1.8943267180503000e+01 1.3488901822371179e+01 0 0 0
1133 1 -1.4025638605623365e-07 1.5163364300165513e+01 1.6499875170564842e+01 1.3443024885580565e+01 0 0 0
1134 1 5.4015422045530380e-06 1.6348396520060611e+01 1.7712853621845721e+01 1.1673388781834666e+01 0 0 0
1136 1 -1.5324568143852638e-06 1.6396439490617396e+01 1.6476055445511641e+01 1.2492949512906966e+01 0 0 0
1137 1 4.0639773255238452e-06 1.6330437847363243e+01 1.3927107469038939e+01 1.2413628986987913e+01 0 0 0
1139 1 3.1906321074182497e-06 1.6316988074114793e+01 1.5199619695522937e+01 1.1590446059083382e+01 0 0 0
1140 1 -1.3376145384454844e-06 1.7574122798805035e+01 1.6486775220107017e+01 1.3449448696556029e+01 0 0 0
1141 1 3.0254550889898527e-06 1.7547016887061790e+01 1.3912319414551735e+01 1.3458968204955099e+01 0 0 0
1142 1 4.8141913757397920e-06 1.8913281936483422e+01 1.5116192970743448e+01 1.1688453115873065e+01 0 0 0
1144 1 -4.3782306447106566e-07 1.8901423690202606e+01 1.3842305392164757e+01 1.2554686289724225e+01 0 0 0
1147 1 -2.4894723124716762e-06 1.6417381534422017e+01 1.8939062951172790e+01 1.2493845948977921e+01 0 0 0
1148 1 5.7540397612651103e-06 1.7572543756928042e+01 1.8878986905575577e+01 1.3568496923612191e+01 0 0 0
1150 1 -6.1606750262082532e-06 1.8908498118247962e+01 1.8868981433489928e+01 1.2651690628612082e+01 0 0 0
1151 1 -4.4470211204587525e-06 1.8883814832690994e+01 1.6382257740225050e+01 1.2608144699622416e+01 0 0 0
1152 1 6.6547887926109812e-06 1.8927996765951590e+01 1.7661426614881176e+01 1.1734735517708298e+01 0 0 0
1212 1 1.2436945366323026e-06 1.5589939935680603e+01 1.7672227419341564e+01 1.4263294244978779e+01 0 0 0
1213 1 2.3376935837141261e-06 1.5572106761616793e+01 1.5201830856151252e+01 1.4193197795729764e+01 0 0 0
1214 1 -3.7132633964390429e-06 1.7129463910778735e+01 1.5172303413303752e+01 1.4231269767058084e+01 0 0 0
1216 1 -3.7665342975786169e-07 1.7105974421355238e+01 1.7671976850808232e+01 1.4274088331720185e+01 0 0 0

Velocities

3 0.0000000000000000e+00 0.0000000000000000e+00 0.0000000000000000e+00
4 0.0000000000000000e+00 0.0000000000000000e+00 0.0000000000000000e+00
7 0.0000000000000000e+00 0.0000000000000000e+00 0.0000000000000000e+00
8 0.0000000000000000e+00 0.0000000000000000e+00 0.0000000000000000e+00
9 0.0000000000000000e+00 0.0000000000000000e+00 0.0000000000000000e+00
10 0.0000000000000000e+00 0.0000000000000000e+00 0.0000000000000000e+00
11 0.0000000000000000e+00 0.0000000000000000e+00 0.0000000000000000e+00
12 0.0000000000000000e+00 0.0000000000000000e+00 0.0000000000000000e+00
13 0.0000000000000000e+00 0.0000000000000000e+00 0.0000000000000000e+00
14 0.0000000000000000e+00 0.0000000000000000e+00 0.0000000000000000e+00
15 0.0000000000000000e+00 0.0000000000000000e+00 0.0000000000000000e+00
24 0.0000000000000000e+00 0.0000000000000000e+00 0.0000000000000000e+00
26 0.0000000000000000e+00 0.0000000000000000e+00 0.0000000000000000e+00
27 0.0000000000000000e+00 0.0000000000000000e+00 0.0000000000000000e+00
28 0.0000000000000000e+00 0.0000000000000000e+00 0.0000000000000000e+00
132 4.5333942118274623e-03 -8.5889850525590738e-03 -2.2583620651089637e-03
134 -4.5640900447454337e-03 2.9794426399238868e-04 3.9659037586718066e-03
137 5.4848491116900574e-03 4.5891371866191551e-03 6.1877512410404879e-03
138 1.0135020586559899e-03 7.4309162204997028e-03 6.4629022668903002e-03
144 1.2016268542909362e-02 -4.6256374154339626e-03 -2.3103581047332904e-03
145 -3.5582055357034304e-03 -1.3765479204041644e-03 2.4778961313850489e-03
146 -3.4637582468837308e-03 -1.1820384776561775e-02 -6.4939620470137738e-03
147 6.7171030887952883e-03 -3.8904134748809003e-03 7.8960407913509427e-04
148 -1.4596116539675125e-03 8.6217471416443654e-03 -6.2625258142835136e-03
149 -2.4544376272894134e-03 -4.5030474251675839e-03 -1.7858878662670296e-03
150 8.4993375351279446e-04 -1.0527647157048644e-03 -2.1386495610002027e-03
151 -1.6676625953508184e-03 -3.8069665968317725e-04 -2.8063158133400626e-03
152 1.0549335948236795e-02 -1.2486962701681174e-03 -7.5662973864434359e-04
153 -1.3441991504701897e-04 -3.0392344673136605e-03 2.3881074975560714e-03
154 -5.0518792044565155e-03 1.1602222976183159e-02 5.1951679491007204e-03
155 -1.7407124257929796e-03 -1.4563452262469515e-03 -6.6475266299127951e-04
156 1.9068888227207681e-03 7.1397194142612964e-03 -2.3706049274261477e-03
157 -5.4661974806262930e-03 -5.1288012064403810e-03 -4.1760247643278020e-03
158 -2.0925606394341222e-03 -4.1307160788881699e-03 -4.7696167531622523e-04
159 3.0423558988139309e-03 -8.9639823028483099e-04 -3.9773287095795527e-03
160 -2.6639595581006009e-03 2.5120640324469237e-03 1.6201561097581223e-03
179 -5.5323551587640792e-03 -1.5404034850158344e-03 -4.6001029370770271e-03
183 -4.2218432474530089e-03 3.3590531140582766e-03 -3.1396966991546881e-03
185 -6.1073147121293737e-03 -3.3910975852534512e-03 -1.5924401637411071e-03
186 5.4417560598795604e-03 4.4085717027447175e-03 -3.9015898068618469e-03
187 -4.9575037757277375e-03 1.1641577328150709e-03 -4.0548688303803778e-03
189 -4.2337474371526521e-03 6.1562670507380049e-03 -6.5225244182787051e-03
388 -7.1252576856257171e-03 -1.3784936637617564e-03 -4.2037560652319507e-04
402 7.0184623393664105e-03 2.2766219721016643e-03 4.7756575775440317e-03
403 -1.0756275974100135e-02 -3.6119775953161477e-03 1.3012417972595612e-03
406 -5.6527587631558431e-03 3.8738743937748923e-03 -6.8298696418222201e-03
407 2.4986182984756233e-03 -7.4265376312588347e-03 -2.7740050123860635e-03
410 2.0058701088618244e-03 -7.1124521510318372e-03 3.7101788190815072e-03
411 -4.8262082793615437e-03 -5.8101730883322340e-03 3.1143738791191483e-03
414 -1.2276049698549052e-04 4.7552610978641137e-03 9.5825526589892981e-04
415 -4.4660613283165011e-03 -6.0359128338714685e-03 -1.0110302479838652e-03
441 -9.2694676110695127e-03 -2.0335475556670351e-03 4.5033893553442540e-03
445 1.4239557514583378e-03 -1.6285614306019314e-03 5.7306349138931895e-03
1 0.0000000000000000e+00 0.0000000000000000e+00 0.0000000000000000e+00
2 0.0000000000000000e+00 0.0000000000000000e+00 0.0000000000000000e+00
6 0.0000000000000000e+00 0.0000000000000000e+00 0.0000000000000000e+00
385 5.7180531499384278e-03 2.5845632967918682e-03 -3.2838346577616973e-03
389 1.3468507844784444e-03 5.0054793374816496e-03 3.4512571180781056e-03
399 1.2449285246694819e-03 5.5998351586563156e-03 -9.9488032751659985e-03
418 -2.7439478611431898e-03 -2.5389524529826225e-03 -4.7371038363447273e-03
16 0.0000000000000000e+00 0.0000000000000000e+00 0.0000000000000000e+00
29 0.0000000000000000e+00 0.0000000000000000e+00 0.0000000000000000e+00
30 0.0000000000000000e+00 0.0000000000000000e+00 0.0000000000000000e+00
31 0.0000000000000000e+00 0.0000000000000000e+00 0.0000000000000000e+00
32 0.0000000000000000e+00 0.0000000000000000e+00 0.0000000000000000e+00
33 0.0000000000000000e+00 0.0000000000000000e+00 0.0000000000000000e+00
34 0.0000000000000000e+00 0.0000000000000000e+00 0.0000000000000000e+00
35 0.0000000000000000e+00 0.0000000000000000e+00 0.0000000000000000e+00
36 0.0000000000000000e+00 0.0000000000000000e+00 0.0000000000000000e+00
52 0.0000000000000000e+00 0.0000000000000000e+00 0.0000000000000000e+00
54 0.0000000000000000e+00 0.0000000000000000e+00 0.0000000000000000e+00
55 0.0000000000000000e+00 0.0000000000000000e+00 0.0000000000000000e+00
56 0.0000000000000000e+00 0.0000000000000000e+00 0.0000000000000000e+00
57 0.0000000000000000e+00 0.0000000000000000e+00 0.0000000000000000e+00
58 0.0000000000000000e+00 0.0000000000000000e+00 0.0000000000000000e+00
163 5.3694870942057518e-03 1.2616892253498552e-03 -1.1870596165894345e-03
188 2.7486770012584158e-03 8.7803381501773345e-03 -4.2058340166685592e-03
190 -3.5957466790130814e-03 -8.7037907472144148e-03 2.1790790320908569e-03
191 5.3442361982555557e-03 -9.7918249937125734e-04 -6.3892484798273852e-04
192 2.3329682368387144e-03 6.9070729903278174e-03 -1.4467456306456235e-02
193 -3.5346794796791139e-03 5.0840960442881653e-05 4.4833365112220839e-03
194 -2.4326287875105984e-03 -1.3484499347443254e-03 -3.1489294469915039e-04
195 4.2280286730135720e-03 1.2152491826772237e-03 -3.7141717329815713e-03
196 -2.8283567236041154e-04 1.9388268701457435e-03 5.6254242264628064e-03
197 -4.3618123530555723e-03 4.7766150103465806e-05 -6.9465272418797949e-03
198 -7.2164115574263523e-03 -3.2028513626265664e-03 -6.1134436300751193e-03
199 2.1056668690406107e-03 4.7608749204457890e-03 6.7488987927819422e-03
200 -6.3842399502989210e-03 1.7679028469130074e-03 4.8273591928533360e-04
201 6.2958421306054764e-03 5.9136870646566047e-03 -3.0539835029900391e-04
202 -5.5741558775267337e-04 3.1306983741584485e-03 1.5727894871892041e-03
205 1.1804222730397009e-03 -1.6038670312525150e-03 4.9535943944190352e-03
237 -7.9499309782534115e-03 6.8121963884343870e-04 1.0672653098428987e-03
241 1.4631670377419769e-03 -6.2380394673687027e-03 -7.0736981859540107e-03
243 -6.5617277976777726e-03 -1.6336289331996168e-03 9.8133366190794125e-04
244 5.6878374619386595e-03 5.0830356841451811e-03 -9.1813161358937656e-04
245 -1.6118826856509794e-03 -4.7855509107220962e-03 -1.7919137518726713e-03
246 5.0325902048493432e-04 -1.5544633431798917e-03 1.2774537962055371e-03
247 -8.6147827874610804e-03 -5.8196013027406646e-04 6.9486831820864221e-03
248 -1.1135736047737654e-02 -5.3983017618469999e-03 5.1061798264616408e-04
249 1.0836774323707780e-02 9.1673230857202623e-03 -4.4547553773199239e-03
251 -5.0499453101223125e-03 5.2408544460166232e-04 -9.7867563328233459e-04
444 -6.7859282962233732e-03 -3.8103236081707100e-03 -3.5186212237802543e-03
448 -1.2665074025149567e-03 -4.7496050547825297e-03 -1.2292925111262320e-02
449 8.4602455689232177e-04 -3.3843867066546004e-03 -5.3957994995340172e-03
452 8.3674899104553332e-03 -2.3789815631937408e-03 -6.3208644376913561e-03
453 6.4983481571201564e-03 8.7326649009523936e-03 -6.1850848016910785e-03
456 -1.4363864161132749e-03 -1.6223817188068177e-03 -2.3386748422458675e-03
457 1.6782075235429682e-03 6.1578474698275616e-03 2.5067365655461376e-03
499 -5.6280982017372749e-04 3.0584749468661680e-04 -5.1796231731548641e-03
502 -3.5123746203337245e-03 -2.8872209758731161e-03 -3.6294730616422155e-03
503 2.4563808534421136e-03 -8.9871962033788340e-03 6.2378715313755352e-04
507 8.4334738738616605e-03 1.8871675516950993e-03 1.0686231617304612e-03
129 9.5284240496790584e-03 2.7423744614327736e-03 4.6729030129643778e-03
130 7.0907099985637835e-03 -7.9263320425455100e-03 -3.1662972071135665e-03
131 -6.9279517891279469e-03 -1.2906337421725886e-03 -1.5712882419953080e-03
133 -1.9261397942208845e-03 -4.8951302760828434e-03 -6.2114047251823840e-03
141 4.7304581722667103e-03 -1.3145796884993571e-02 3.1173314047133537e-04
143 8.8273560700753272e-04 5.8086142754560201e-04 -1.5373921084272137e-03
59 0.0000000000000000e+00 0.0000000000000000e+00 0.0000000000000000e+00
60 0.0000000000000000e+00 0.0000000000000000e+00 0.0000000000000000e+00
61 0.0000000000000000e+00 0.0000000000000000e+00 0.0000000000000000e+00
62 0.0000000000000000e+00 0.0000000000000000e+00 0.0000000000000000e+00
63 0.0000000000000000e+00 0.0000000000000000e+00 0.0000000000000000e+00
64 0.0000000000000000e+00 0.0000000000000000e+00 0.0000000000000000e+00
84 0.0000000000000000e+00 0.0000000000000000e+00 0.0000000000000000e+00
86 0.0000000000000000e+00 0.0000000000000000e+00 0.0000000000000000e+00
87 0.0000000000000000e+00 0.0000000000000000e+00 0.0000000000000000e+00
88 0.0000000000000000e+00 0.0000000000000000e+00 0.0000000000000000e+00
89 0.0000000000000000e+00 0.0000000000000000e+00 0.0000000000000000e+00
90 0.0000000000000000e+00 0.0000000000000000e+00 0.0000000000000000e+00
91 0.0000000000000000e+00 0.0000000000000000e+00 0.0000000000000000e+00
92 0.0000000000000000e+00 0.0000000000000000e+00 0.0000000000000000e+00
112 0.0000000000000000e+00 0.0000000000000000e+00 0.0000000000000000e+00
206 -4.1433340687322415e-03 2.0347588902503342e-03 -9.8357487290281626e-03
250 2.0452406222184441e-03 7.2848485150574594e-03 9.4272556393220630e-03
252 -6.4723008575882555e-04 8.5386540019599250e-03 -1.5908214266207869e-03
253 -4.1256106843852829e-03 4.8290697551325503e-03 -4.7924177036129008e-03
254 -2.6391838554059555e-03 -3.9569647036239988e-03 -8.0710137428815810e-03
255 -7.5071715873787151e-03 -1.3427568790611421e-03 -2.1949738216150744e-03
256 5.4162340558554772e-03 6.7724536567754078e-03 1.0165821858415449e-03
257 8.5180116731988669e-04 -5.0280995438811930e-03 -1.2200280594468763e-04
258 -4.7185002421012258e-03 -3.9169163719212129e-03 2.2621570263381780e-03
259 3.5193980168171223e-04 -2.7384049648455032e-03 -2.0617814886098266e-03
260 -7.0923068506022167e-03 2.0690002030813400e-03 -5.5726847886497901e-03
263 3.4613519777271294e-03 8.3285664379682978e-03 8.9827027364519415e-03
264 1.1057897409113627e-03 -5.3514933488962545e-03 3.1256482349417926e-03
301 -2.2047400219541509e-03 4.6220976056540941e-03 4.3267473978405016e-03
305 -3.2926990227721471e-03 7.3741320815728468e-03 8.2794300832240541e-04
307 -6.2969719186672566e-04 7.0576989139767583e-03 4.6880960168058632e-03
308 -8.4192533658093635e-03 1.6144030640597871e-03 8.0573731025821262e-04
309 5.8977187186727096e-03 -5.6925931330330092e-03 7.1130578012368350e-04
310 -3.3987168971477380e-03 4.6779550903375180e-04 -4.5731484499422891e-03
311 -1.2632603309672745e-02 -3.9203438353227283e-03 -3.8614230819952033e-03
312 -2.8809763497013251e-03 -1.6277778000423583e-03 -5.4159854689039034e-03
313 -4.7052412250145293e-03 3.1995918223569437e-03 1.5209465234396358e-03
314 1.1767919251864346e-03 1.5317684890439910e-03 3.0817360623710535e-03
315 4.5756272618976308e-03 -3.7796849931597599e-03 -5.4954296967076817e-06
316 9.2389795460065603e-04 -4.1956811848690503e-03 -1.7938153135655684e-04
317 5.1112111760679207e-03 -2.0325526597084705e-04 -3.3360883595874437e-03
318 -8.4644795122598183e-04 1.6769714911400539e-03 3.9786386185102045e-03
355 -2.8873673580502281e-04 -4.1395383530302057e-03 -9.9565712552620433e-03
506 -3.5465717061424597e-03 -4.1595288752091904e-04 2.3262368345886237e-03
510 -1.3582746196524268e-03 -6.1672062228666407e-03 4.6692230192181761e-04
511 -5.2889255020512138e-03 -7.0167629048949083e-03 1.2031931484688127e-03
514 -3.1675212811364422e-03 -5.5926826402269191e-03 1.0369086083305022e-02
515 -7.3521629523163002e-03 -1.4915993219262985e-03 1.4122152418412358e-02
563 2.4804926496690928e-03 -3.2830208612834350e-03 -1.5320304497330435e-03
566 -1.1327760623277287e-02 7.2402192420403778e-05 -1.2488589959280827e-03
567 4.7717307223228127e-03 -6.7795193557834300e-03 2.5366718081605002e-04
570 -1.9468399509960136e-03 -4.9210501750093772e-04 3.3205789346495902e-03
571 3.5731629671344580e-03 -9.2342625043140541e-03 2.1060048844203966e-03
574 4.6830000366723315e-03 -5.2095323451756938e-03 -2.1923120296613733e-03
19 0.0000000000000000e+00 0.0000000000000000e+00 0.0000000000000000e+00
20 0.0000000000000000e+00 0.0000000000000000e+00 0.0000000000000000e+00
21 0.0000000000000000e+00 0.0000000000000000e+00 0.0000000000000000e+00
22 0.0000000000000000e+00 0.0000000000000000e+00 0.0000000000000000e+00
23 0.0000000000000000e+00 0.0000000000000000e+00 0.0000000000000000e+00
25 0.0000000000000000e+00 0.0000000000000000e+00 0.0000000000000000e+00
44 0.0000000000000000e+00 0.0000000000000000e+00 0.0000000000000000e+00
46 0.0000000000000000e+00 0.0000000000000000e+00 0.0000000000000000e+00
47 0.0000000000000000e+00 0.0000000000000000e+00 0.0000000000000000e+00
48 0.0000000000000000e+00 0.0000000000000000e+00 0.0000000000000000e+00
142 -6.3701337751407589e-03 -1.5036885037894064e-03 3.2354708466335665e-03
168 -4.3335333101218662e-03 -4.8928304201522194e-03 -5.1152370200154501e-03
170 4.7176148546120635e-04 2.8327391826711060e-03 5.1586095534642438e-03
171 -7.6691520038828899e-03 -1.1420775438319183e-03 -1.6432349761701642e-03
172 1.9549074719739895e-03 -2.0462206692152497e-03 -9.3365267865093242e-03
173 -4.6577085118875523e-03 5.4689927759041281e-03 -2.0993293137897937e-03
174 4.6557585378786672e-03 -2.4672169007188410e-03 -1.4206999872754121e-03
175 -8.3463631676967843e-03 -4.9959842307988511e-04 4.1194945105430441e-03
176 -1.2060601389015625e-03 -1.7815600011699738e-03 -1.3420413666011982e-03
177 -7.7472562337377023e-04 3.5221006068858396e-03 -6.1531299359895899e-03
178 1.8033645528205759e-04 2.1438554716751291e-03 -3.9601522986529615e-03
180 3.4311373547591703e-03 -2.8838933078137517e-03 4.8681645717651026e-03
181 -4.5678025621503256e-03 -3.0288268072771346e-03 -8.2545055088809639e-03
182 3.3823057872744279e-03 -1.0879114250905105e-03 5.7169651347315485e-04
184 -1.0911042199201087e-03 -1.5304282839735343e-03 -2.9258536140346252e-03
219 4.7711940909626240e-03 8.2433669123927052e-04 4.2175354879658638e-04
221 3.9682828000175176e-03 2.9022022430263499e-03 3.2080883062956685e-03
222 -1.8308697779783115e-03 6.5186956417661581e-04 5.0218249010644533e-03
223 -8.6803997470782986e-03 5.6034075110658835e-03 5.0311345348691026e-03
225 4.6914825896294853e-03 -7.4479086032051139e-03 2.8482829177895559e-03
226 -3.0669691923435292e-03 -2.1026899942211495e-03 5.5861792316860724e-03
227 4.9051824160752436e-04 9.0470896680131287e-03 -8.8723742108629195e-04
228 3.8223297832118111e-03 -4.7562287829657169e-03 2.0512903729843369e-03
229 -3.5893637505263166e-04 -3.2302867717468237e-03 -6.0144875680730866e-03
231 6.4396569729861849e-03 -1.1230928215887831e-03 4.6474569468557530e-03
398 1.2766034490551098e-03 4.4324173108472647e-03 -3.5412655873450455e-03
424 -6.1442291501673067e-03 -2.7950178976811189e-04 1.4411720274391708e-03
428 7.7672867275775892e-05 5.6470876686843651e-04 -1.7938631521088374e-03
429 -6.1298794760431307e-03 8.4659431785605865e-03 4.2257307590288524e-03
432 8.5060808484737263e-05 2.6919854308480647e-03 -2.7835298598023707e-03
433 9.7090243579959455e-03 2.8071336363453643e-03 -6.7504662642398430e-04
436 1.2394161068804846e-03 -5.5660041328680779e-03 8.5518374105981714e-03
437 1.2185273868375083e-03 -5.4795385578781611e-03 2.7116204736808078e-03
440 3.6022798578089401e-03 3.0729312294296883e-04 2.7213341175335529e-03
475 -3.7778370887190105e-03 -4.5249363842541843e-05 3.2757018069130657e-03
478 2.9527801881382783e-03 1.2200411975365811e-03 -3.7630366432736427e-03
479 1.4542136148436016e-03 -1.2400960623670670e-03 4.8388623344350927e-03
482 6.6233253904697852e-03 -3.4135032637875960e-03 -2.7223546484942706e-03
483 5.7323053306903898e-04 -1.1998303186963242e-02 2.6701002858421459e-03
487 -3.6160837996140416e-03 -5.9662455517814992e-03 1.5234255299199199e-03
5 0.0000000000000000e+00 0.0000000000000000e+00 0.0000000000000000e+00
18 0.0000000000000000e+00 0.0000000000000000e+00 0.0000000000000000e+00
395 -2.6790745282760727e-03 -3.9830024822104931e-03 -7.7265652774976439e-04
421 5.8395822148582565e-03 -1.0352265470589912e-03 -7.8983871836456202e-04
425 7.5434118098158627e-03 -2.6465113827379839e-03 -3.6536731076104358e-03
49 0.0000000000000000e+00 0.0000000000000000e+00 0.0000000000000000e+00
50 0.0000000000000000e+00 0.0000000000000000e+00 0.0000000000000000e+00
51 0.0000000000000000e+00 0.0000000000000000e+00 0.0000000000000000e+00
53 0.0000000000000000e+00 0.0000000000000000e+00 0.0000000000000000e+00
76 0.0000000000000000e+00 0.0000000000000000e+00 0.0000000000000000e+00
78 0.0000000000000000e+00 0.0000000000000000e+00 0.0000000000000000e+00
79 0.0000000000000000e+00 0.0000000000000000e+00 0.0000000000000000e+00
80 0.0000000000000000e+00 0.0000000000000000e+00 0.0000000000000000e+00
81 0.0000000000000000e+00 0.0000000000000000e+00 0.0000000000000000e+00
82 0.0000000000000000e+00 0.0000000000000000e+00 0.0000000000000000e+00
230 -1.0428634606509514e-02 2.9893479291566412e-03 -8.4960482511412302e-03
232 3.5152884513418169e-03 -5.6312484499267349e-03 2.2654347925762887e-03
233 -3.0007474444535211e-03 6.5763431891278402e-03 2.0848783678916920e-03
234 6.7932372701788948e-04 -2.1230969315397734e-03 -4.7165684069190861e-03
235 -7.1869576107998351e-03 -2.8510645485394352e-03 -1.9557026234514433e-04
236 7.2955506512788100e-03 6.3767827438925128e-03 -1.7456096651899001e-03
238 -3.5394281960619504e-03 -6.9173854710749541e-03 3.4699717904050666e-03
239 -6.5618801639126412e-03 5.6091179816155738e-03 4.8795107653081286e-03
240 1.7431150413855397e-03 -1.4674193787196515e-03 1.0133597857687198e-03
242 -1.4457094978960890e-03 5.3487457439452884e-03 1.7544768410343485e-03
283 9.4016147802409938e-04 -2.2040439690884537e-03 -1.9979404686908345e-03
285 9.7929651925682520e-04 6.5614060059346908e-03 1.7758109763194143e-03
286 3.5091751850740154e-03 2.6271429856918882e-03 4.0512712075462384e-03
287 -2.1504961364952418e-03 3.6470488696524759e-03 3.3559030017954006e-03
289 2.3910317690996673e-03 -1.1599707636637730e-04 -1.0465537772466390e-03
290 -6.4812890822074486e-03 -1.6738165543457755e-03 9.0512602286266283e-03
291 3.4135926857341552e-03 -4.4479843942650012e-03 -4.5051094225455300e-03
292 -1.0758710431577237e-02 -3.7260696614731937e-03 -1.0262121990123369e-02
293 7.1264946086806707e-03 1.6075005526701516e-03 -2.0973618988704120e-03
294 -1.7193144179172236e-03 -4.4916849502004332e-03 1.8641620672608706e-03
295 -1.4313587931397284e-03 -5.7773788522133233e-05 4.8886827194462917e-03
296 2.4810705388182772e-05 2.3799871047972716e-03 4.6666271666314912e-03
297 4.5106993595186180e-03 3.8702109392599994e-03 5.3444789332956670e-03
299 -5.8147217591949536e-03 -3.6967766745231484e-03 2.5253852028319832e-03
337 -1.5029994303979823e-03 -6.8478336082770687e-03 6.6809849111905460e-04
486 4.7440557242848765e-04 -2.6952931379065192e-03 -7.5031411206362430e-04
490 6.8492752783341389e-03 -2.5860857109580703e-03 1.6490756074602304e-03
491 -6.3592903121412895e-03 -1.6256163861663963e-03 2.9614122963710657e-04
494 4.4529710106791147e-03 9.1625186924591904e-03 -1.4827514766300072e-03
495 -1.8408375562126806e-03 -4.3341840526760298e-03 6.5328091385964430e-03
498 -5.2058162708983552e-03 -9.7078383660867764e-04 1.0330189573899461e-02
539 8.9671251227480973e-04 1.1920600892548495e-02 4.7321102488353814e-03
542 1.5213708722513971e-04 -4.3119263223346507e-04 4.8370341709500315e-03
543 -2.4656865625124484e-03 5.7760061614609611e-04 4.2487292818834607e-03
546 -1.8708629988607940e-03 1.0887081081946515e-03 4.5976367073563692e-03
547 5.0496230801116097e-03 2.6901481622362833e-03 -2.2502907664612125e-03
550 4.1870186372561973e-03 -3.5295382836023612e-03 -1.3240716843539598e-03
551 9.0345366117994339e-04 -3.8778475251405797e-03 -1.3035952637883238e-02
555 -1.2505358062638598e-03 -2.9094740960404659e-03 7.5522754678950899e-04
593 5.0694017557825783e-03 -9.6732247339583709e-03 -4.5769579807054704e-03
139 -2.6542970782645133e-03 2.9036164758997605e-03 6.2262453746400196e-03
140 1.5347562318642697e-03 5.8320457739117404e-03 1.6525239275738113e-03
165 9.6971085845426561e-04 6.9368999700162096e-03 6.4853928173329691e-03
167 4.5262794179233299e-03 4.7884893817158077e-04 2.3740443103044844e-03
169 -6.0393108008145900e-03 -4.6395071756141788e-03 2.5617067181288610e-03
83 0.0000000000000000e+00 0.0000000000000000e+00 0.0000000000000000e+00
85 0.0000000000000000e+00 0.0000000000000000e+00 0.0000000000000000e+00
104 0.0000000000000000e+00 0.0000000000000000e+00 0.0000000000000000e+00
106 0.0000000000000000e+00 0.0000000000000000e+00 0.0000000000000000e+00
107 0.0000000000000000e+00 0.0000000000000000e+00 0.0000000000000000e+00
108 0.0000000000000000e+00 0.0000000000000000e+00 0.0000000000000000e+00
109 0.0000000000000000e+00 0.0000000000000000e+00 0.0000000000000000e+00
110 0.0000000000000000e+00 0.0000000000000000e+00 0.0000000000000000e+00
111 0.0000000000000000e+00 0.0000000000000000e+00 0.0000000000000000e+00
124 0.0000000000000000e+00 0.0000000000000000e+00 0.0000000000000000e+00
298 1.7207339552806600e-03 2.8102419874112715e-03 2.2296161454438382e-03
300 -5.7593616979187100e-03 2.5640921489639024e-03 5.4961923713994568e-03
302 -3.5452995430459294e-03 5.0457221109565518e-04 1.2571440604989548e-02
303 -6.0777573655232493e-03 -4.4816371974163369e-03 9.4610993764157950e-04
304 -6.0153208089640305e-03 -5.8118724861381966e-03 2.9232904783974346e-05
306 -1.2090144850992535e-03 -7.2352146645682984e-04 -9.7996905912178453e-04
339 -5.8282030290750953e-03 1.6908473642675440e-03 2.1622368637465418e-03
340 2.8028412290608175e-03 -8.2197576556007233e-04 -4.5749065905891428e-03
341 3.2880466777795368e-04 2.4048775132411147e-03 -3.8024711190053372e-03
343 1.7358775932662792e-03 -3.5425911049381462e-03 3.2362978907398668e-03
344 -1.5061515074778382e-03 -6.1005678167858355e-03 2.3719560943008893e-03
345 3.1416671279766886e-03 -1.3084235304027901e-02 -3.1572901401801206e-03
346 -1.1145207165653035e-02 1.1255137705070466e-02 1.8642026944882138e-03
347 -7.1072419856327024e-04 2.2323826361894581e-03 8.2107186211483486e-03
348 1.1637265549558330e-02 1.7799106610856708e-03 3.7998247278096705e-04
349 -3.0299794342289635e-03 1.7431824100949561e-03 -4.8230423611751814e-03
350 5.3753235946955510e-03 -8.4849276824207481e-03 4.6444214456174591e-05
351 -1.6564491075758095e-03 -8.0453090428410940e-03 -4.6705982157397687e-03
352 4.4628146025720485e-03 5.2512369623413293e-03 -2.5870250608725589e-03
353 1.0203405799407185e-02 5.2791137913775670e-03 5.5495166144983287e-04
354 1.8681631212090983e-03 -6.6128234416787208e-03 4.2692600113738875e-03
356 3.0276659493907150e-03 2.7696022428441882e-03 1.8033623091539505e-03
375 -4.7970194770265706e-03 3.4326296565474509e-03 -4.7170300057469315e-04
377 -7.7507858568412521e-03 -4.4858774554155734e-03 2.2400881287787788e-03
378 -4.1490377283340428e-03 1.2466378294181708e-05 1.9963545319285720e-03
554 -2.6257446671662274e-03 -2.6693647681154003e-03 1.3264667556761074e-04
558 -1.2072226993649002e-02 -7.1158249545285523e-03 1.2912500139132724e-05
559 -4.9123645201424601e-03 2.1025492960248505e-03 7.5188103480458420e-03
562 8.9009205497663346e-03 -1.4778545782177140e-03 1.1415239773211558e-03
596 -4.4584018580861787e-04 -4.0644568505921281e-03 1.3992259202491733e-03
597 -2.4102412685067538e-03 3.9101441336845165e-03 7.5422151473676279e-06
600 2.9024590529133799e-03 8.1586433869083180e-04 -1.1017136062940599e-03
601 1.1006242097486752e-03 -2.0071690002273195e-03 9.4269417015927339e-04
604 -2.2989498059719062e-03 -2.7364174191465973e-03 -2.5950267512292375e-03
605 -9.0001471566772372e-03 -4.4226697756149730e-03 7.8601563430324480e-03
608 -3.6563063868962249e-03 1.0721803298176949e-03 -1.1218986503210588e-02
609 -5.1163622323899850e-03 -7.0985749891161302e-04 -2.9866624039543732e-03
612 6.7956273011639708e-03 -1.8410536327604964e-03 -1.2705416830569136e-03
631 6.7938293188835215e-03 9.0405199165972494e-04 7.7665638492335426e-03
634 -4.3393691793288031e-04 1.2302239664128084e-02 -1.5076901987115161e-03
392 -1.0354926834611018e-03 1.1914911036987905e-03 3.9506519827777632e-03
135 1.1651969293814241e-03 -6.8232522491272832e-03 4.8430781282452163e-03
136 -7.3830599463071394e-03 3.3781578937423036e-04 1.4011067174962248e-03
162 -4.6529098408165052e-04 -4.0678904623750447e-03 1.4325682810232376e-03
391 -2.7657672927251351e-03 2.2576810983360564e-03 2.3878183811131696e-03
394 4.6152170709976969e-03 4.7779695077938633e-03 3.3744103198532710e-03
39 0.0000000000000000e+00 0.0000000000000000e+00 0.0000000000000000e+00
40 0.0000000000000000e+00 0.0000000000000000e+00 0.0000000000000000e+00
41 0.0000000000000000e+00 0.0000000000000000e+00 0.0000000000000000e+00
42 0.0000000000000000e+00 0.0000000000000000e+00 0.0000000000000000e+00
43 0.0000000000000000e+00 0.0000000000000000e+00 0.0000000000000000e+00
45 0.0000000000000000e+00 0.0000000000000000e+00 0.0000000000000000e+00
65 0.0000000000000000e+00 0.0000000000000000e+00 0.0000000000000000e+00
66 0.0000000000000000e+00 0.0000000000000000e+00 0.0000000000000000e+00
67 0.0000000000000000e+00 0.0000000000000000e+00 0.0000000000000000e+00
68 0.0000000000000000e+00 0.0000000000000000e+00 0.0000000000000000e+00
69 0.0000000000000000e+00 0.0000000000000000e+00 0.0000000000000000e+00
70 0.0000000000000000e+00 0.0000000000000000e+00 0.0000000000000000e+00
71 0.0000000000000000e+00 0.0000000000000000e+00 0.0000000000000000e+00
72 0.0000000000000000e+00 0.0000000000000000e+00 0.0000000000000000e+00
93 0.0000000000000000e+00 0.0000000000000000e+00 0.0000000000000000e+00
210 -4.3268074738368276e-03 8.0037110549757307e-03 -1.8520281711567543e-03
212 3.8716670032389847e-03 2.1898581420930980e-03 1.7281625629190531e-03
213 4.1534204448971648e-03 -4.4165665755383898e-03 2.4584056291825857e-03
214 -3.4738767549987318e-03 7.9062937178949085e-04 -4.7433699724335988e-03
215 -1.1469942629649234e-02 5.7450372899307397e-03 3.7497441532114992e-03
216 -9.8901870718741854e-03 -4.6844997560594537e-03 -1.0053398540927376e-02
217 -1.5595964154710132e-03 -4.7751223760352547e-03 4.2709063808013276e-03
218 -3.5972995292107173e-03 5.6282184263617408e-04 -9.3466596284448144e-04
220 9.0696543757912487e-04 2.7704361209253598e-03 -4.3878742777217440e-03
224 6.5839558538196095e-03 -1.1176786688030014e-02 1.9501170795531296e-03
265 -4.5492175455226318e-03 -4.2810109996677254e-03 2.6640137321661591e-03
266 -6.8593158186429576e-03 -2.6705379393912321e-03 5.9417944306412607e-03
267 -8.9249575552194740e-04 1.3666159825823889e-02 5.7594500758069225e-03
268 -2.0231275205551463e-03 -4.6580044761657677e-03 -3.9244364669978353e-03
269 -2.2006822723587417e-03 -8.5397879425313065e-03 -2.7402017971794252e-03
270 -2.5760131398263031e-03 4.6458879096515230e-03 -2.5182871732692619e-03
271 -2.0537372760392851e-03 -3.4788870451395302e-05 9.5008643552587334e-03
272 -1.1503196589146173e-02 3.4603742343779784e-03 1.6595900750128458e-03
273 -2.0196061359203476e-03 -2.0091975056100320e-03 -6.6283145718241988e-03
274 -5.6945754784944059e-03 -2.2001554116966109e-03 -4.6683964850431966e-03
275 -6.6358661622772383e-03 -2.3380450560041700e-03 8.5217676813187295e-04
276 5.3280532629608295e-04 5.6308001986121198e-03 -1.5143343203176988e-03
277 6.6725147044392908e-03 4.6209423781444379e-03 -1.9189723210137699e-03
279 -7.4590195987402517e-03 1.4925064912048821e-03 1.4269024984751810e-02
319 -1.7005492078891367e-03 -1.1794681993096599e-04 -1.6861205316970158e-03
466 1.0794017547119160e-03 -8.3777678924720281e-03 6.2521906572109058e-03
470 6.7668619243945894e-03 1.7957935564829786e-03 3.2114140085664142e-03
471 6.7028004955655461e-03 3.0759224336720271e-03 9.9820833893681958e-04
474 6.4806671283102408e-03 3.0290772004330346e-04 6.0397924592659816e-03
523 -3.3654419302107285e-06 4.6640127477271549e-03 -4.8127885871203265e-03
526 3.2477422368845151e-03 1.3241105759410410e-03 -1.2991675843055102e-03
527 6.5186604136517638e-03 -1.9419840972606176e-03 -6.3417106483303033e-04
530 1.0658665614242560e-03 -8.2206712578493137e-03 -2.0677518267925021e-03
531 5.4736350582821527e-03 1.0496614828368208e-04 5.6938211090829588e-03
535 3.2981061668478796e-03 3.8068879687461585e-03 5.9909542685813704e-03
17 0.0000000000000000e+00 0.0000000000000000e+00 0.0000000000000000e+00
37 0.0000000000000000e+00 0.0000000000000000e+00 0.0000000000000000e+00
38 0.0000000000000000e+00 0.0000000000000000e+00 0.0000000000000000e+00
463 3.3471813020065876e-03 2.4098572205891191e-03 -4.9518510267417869e-03
467 4.5266580906346268e-03 3.5376543380247244e-03 -6.6053871496801857e-03
420 3.0178628541456202e-03 9.6637887608863994e-04 -1.1888316630197361e-03
460 -4.1155402313471281e-03 -1.7367223987862779e-03 2.6384677878926932e-03
161 -3.7568521412081157e-03 4.8893849776851820e-04 6.3691004775803016e-03
164 -2.6004372271834072e-03 -1.9278471078546635e-03 7.4956260783138164e-03
203 2.8450338328858522e-03 -1.6239213774513969e-03 -2.2133081381493619e-03
204 -1.3351652762855046e-03 2.3596784229330211e-03 -1.0801389591437458e-03
417 9.9711839757811067e-05 6.8670486843924175e-03 -7.8524477409843575e-03
459 -5.2963845385346339e-03 -3.0363733050500358e-03 -2.0756741682887765e-04
73 0.0000000000000000e+00 0.0000000000000000e+00 0.0000000000000000e+00
74 0.0000000000000000e+00 0.0000000000000000e+00 0.0000000000000000e+00
75 0.0000000000000000e+00 0.0000000000000000e+00 0.0000000000000000e+00
77 0.0000000000000000e+00 0.0000000000000000e+00 0.0000000000000000e+00
94 0.0000000000000000e+00 0.0000000000000000e+00 0.0000000000000000e+00
95 0.0000000000000000e+00 0.0000000000000000e+00 0.0000000000000000e+00
96 0.0000000000000000e+00 0.0000000000000000e+00 0.0000000000000000e+00
97 0.0000000000000000e+00 0.0000000000000000e+00 0.0000000000000000e+00
98 0.0000000000000000e+00 0.0000000000000000e+00 0.0000000000000000e+00
99 0.0000000000000000e+00 0.0000000000000000e+00 0.0000000000000000e+00
100 0.0000000000000000e+00 0.0000000000000000e+00 0.0000000000000000e+00
101 0.0000000000000000e+00 0.0000000000000000e+00 0.0000000000000000e+00
102 0.0000000000000000e+00 0.0000000000000000e+00 0.0000000000000000e+00
113 0.0000000000000000e+00 0.0000000000000000e+00 0.0000000000000000e+00
114 0.0000000000000000e+00 0.0000000000000000e+00 0.0000000000000000e+00
278 3.4547713125490588e-04 -5.3910990974928297e-03 5.5463217472517664e-03
280 -1.3536916338637887e-03 7.9452065349166871e-03 5.7739661621687907e-03
281 -7.2876941873635422e-03 -1.1773603026607117e-03 -2.8690327223803687e-03
282 -2.3607111928924153e-03 -1.1931214824152671e-03 -6.7171857906309545e-03
284 5.5844483482736570e-03 2.0560175313764357e-03 2.3571398045026410e-03
288 5.5383935840942781e-03 5.4261096323176810e-03 8.6677405670140574e-03
320 1.3369038244605169e-04 -1.4330453935657256e-03 -5.0583557181803742e-03
321 1.0409785148464141e-03 2.7347735656383459e-03 -1.6057383410970894e-03
322 -1.9294107368202061e-03 -8.6370969352212530e-04 -1.6943986820265307e-03
323 4.9927833872196931e-05 6.7955983136365940e-03 -1.4021368111480183e-03
324 -3.1264223775433401e-03 1.8899240312530742e-03 1.0408423607148113e-02
325 -3.1808611867720064e-04 -3.7507446325058939e-03 -3.6260311363599030e-03
326 2.7948541742757117e-03 6.3786067696457007e-03 5.5569468884680466e-03
327 -5.8197760137076752e-03 3.6139599016113224e-03 6.0383630718353525e-03
328 3.1173438241121100e-03 6.4510419817900269e-04 3.8666820439170191e-03
329 5.5826602268889197e-03 8.0546009879754465e-03 2.0207918157814824e-03
330 -1.2239990938631266e-03 -9.8175011549878608e-04 2.9800029900740842e-03
331 -9.0700025159755875e-03 -1.1908352515704386e-03 -3.8838530558331615e-03
332 5.9865550684882500e-03 8.6006351290137621e-03 8.8108419053137023e-03
333 3.7309569123277278e-03 -3.1539751615085030e-03 -1.1448351711139880e-02
334 1.8177848713108612e-03 6.1616360126747457e-03 3.0625750989614017e-03
335 -1.2458541737015857e-03 -1.0971750879441235e-03 3.5083533148018891e-03
357 1.6235077570491517e-04 6.7163843520377179e-04 3.7067349124655785e-03
358 -3.8810130118978577e-03 -2.2617375940711276e-03 -2.4768334057722907e-03
359 -5.1712786846325361e-03 4.5787923616141715e-04 -3.0766167739375580e-03
534 -5.7023333479895482e-03 -1.4191921182083165e-03 1.5823071943654751e-03
538 -2.3242158002897799e-03 5.3030879630874325e-03 1.0681880899267915e-02
577 3.2283018723490327e-03 1.8719978260915558e-04 -3.6568029918116907e-03
580 -4.6288853770776739e-03 -2.0940203880734352e-03 7.1128812689822069e-03
581 3.5965900954987341e-03 -1.3553500852782983e-02 1.5337538152614015e-03
584 -6.5219279985599832e-03 -5.5787523180974644e-03 6.6689236664198238e-04
585 8.7518067187742504e-04 7.5483342289197489e-03 3.3090446239859815e-03
588 -1.1693663000848747e-03 3.3395878939196503e-03 -1.0737523300091728e-02
589 -3.5121019360232113e-03 1.5075510790373138e-03 -1.0485503633088443e-02
615 -1.0825928734151235e-03 -2.3184204753645406e-04 7.7265835006605553e-04
518 -8.5067787874962297e-04 2.2971176858531464e-03 9.2543322423452885e-03
166 1.4267420615250853e-03 3.2527392647312592e-03 -1.1598725851579403e-03
207 -5.1160544837452505e-03 1.3568303059692693e-03 -4.2589589884868932e-03
208 -8.5025440703268337e-03 1.2827453195964978e-03 2.5483971837784699e-04
209 4.6411783834566771e-03 3.6045229548714421e-03 -2.1493946021018760e-03
211 -2.5590698730696177e-03 2.3671757582210639e-04 -1.1930109032315709e-02
261 -2.6330376238099828e-03 -4.0925261443186629e-03 1.2425719571254330e-02
262 4.8663824495831845e-04 -9.4112614547836732e-03 4.6100763347927788e-03
462 -4.6911309219690176e-03 8.4165492126319177e-04 1.0446840196928831e-03
517 3.6631329003250172e-03 -8.5485465547513496e-03 1.0338666369522481e-03
520 -4.4217642637871127e-03 4.2581273178953979e-03 3.3751077723466116e-03
103 0.0000000000000000e+00 0.0000000000000000e+00 0.0000000000000000e+00
105 0.0000000000000000e+00 0.0000000000000000e+00 0.0000000000000000e+00
115 0.0000000000000000e+00 0.0000000000000000e+00 0.0000000000000000e+00
116 0.0000000000000000e+00 0.0000000000000000e+00 0.0000000000000000e+00
117 0.0000000000000000e+00 0.0000000000000000e+00 0.0000000000000000e+00
118 0.0000000000000000e+00 0.0000000000000000e+00 0.0000000000000000e+00
119 0.0000000000000000e+00 0.0000000000000000e+00 0.0000000000000000e+00
120 0.0000000000000000e+00 0.0000000000000000e+00 0.0000000000000000e+00
121 0.0000000000000000e+00 0.0000000000000000e+00 0.0000000000000000e+00
122 0.0000000000000000e+00 0.0000000000000000e+00 0.0000000000000000e+00
123 0.0000000000000000e+00 0.0000000000000000e+00 0.0000000000000000e+00
125 0.0000000000000000e+00 0.0000000000000000e+00 0.0000000000000000e+00
126 0.0000000000000000e+00 0.0000000000000000e+00 0.0000000000000000e+00
127 0.0000000000000000e+00 0.0000000000000000e+00 0.0000000000000000e+00
128 0.0000000000000000e+00 0.0000000000000000e+00 0.0000000000000000e+00
336 6.2300940222163349e-03 -4.0042194268603672e-03 -1.8587847200554934e-03
338 9.2952726354165018e-04 5.5435103246552712e-03 -2.3237573476441262e-03
342 5.5523935471856224e-03 6.8527694164140602e-03 1.7945656536795973e-03
360 4.9160764105267386e-03 -9.0465237974363000e-03 -1.1600667892675135e-03
361 7.0280810243315514e-04 2.1673602059457072e-03 -2.2664961907405815e-03
362 -8.4388122021603063e-03 -9.4983594932282684e-04 -1.7579879822783799e-03
363 -1.4082448542770626e-03 5.3720706856394157e-04 2.8013792956121590e-03
364 -5.0020087903328899e-03 -4.6405965913314017e-03 -5.0770202314678135e-03
365 -1.3297494819172991e-03 -4.9981168464671034e-03 2.6751978279378344e-03
366 -4.4255269169144812e-04 1.5535932872588535e-03 5.8711521703677435e-03
367 2.4845660020891935e-03 -1.7669926894792593e-03 -3.7591687913916890e-03
368 1.8039099290783069e-03 7.1039585391680278e-04 6.1588998158456790e-03
369 -7.6021932576649182e-04 5.2454364865458349e-03 -4.4331357679184397e-04
370 -2.7134265088348398e-03 2.8928703507374704e-03 -1.2434749258598671e-03
371 9.8738508140437838e-03 -1.5701552266177926e-03 -7.2984939257485150e-04
372 4.1516933780957523e-03 -1.6072159510295732e-03 -4.8403599009048523e-03
373 5.3896614076804307e-03 8.8288966749588138e-03 -6.7033898419225886e-04
374 4.0772291971608232e-03 5.6437040678302926e-04 4.9516545591710695e-03
376 8.8923501260701281e-04 -1.9530437679814467e-03 -5.4049109974672110e-03
379 -6.9560423330330750e-03 -4.6958410717996742e-04 -3.0353714312362375e-03
380 -2.9245553362917194e-03 -6.0316144573485274e-03 -2.8586405564786721e-03
381 -4.9729573427465684e-04 3.1650464740501944e-03 -6.3876629753075106e-03
382 2.4087586453066566e-03 -4.2203284280599596e-03 -6.3588825612289029e-04
383 3.0647647765314917e-03 -7.2231963814797101e-03 -1.1956420555004461e-03
384 -7.6680892160516214e-03 3.5396384092935568e-03 -3.4361530248306596e-03
592 8.1089471638023383e-04 4.2734405964122276e-03 -6.7932698802552934e-03
618 6.9888974227389263e-03 -1.8700368797049738e-03 -7.6901973105070090e-04
619 -4.3159889409190421e-03 -2.2003802788427441e-03 1.1590169302861289e-03
622 2.9202347178606505e-03 6.2478527441136005e-04 -1.8427480450286698e-03
623 1.1156506184029295e-03 -2.6530483244036160e-04 1.8435223705594453e-03
626 1.3510827273830719e-03 3.4997507787855766e-03 -3.8967103879171904e-03
627 6.6129289199620845e-03 9.1282103989779751e-03 -9.3732499606015100e-03
630 9.5606943399977572e-04 2.4147805943821130e-03 -2.9956846578809934e-03
637 -2.7757551119700821e-03 2.8487786421761592e-03 -4.0467593658619931e-03
640 -1.6213539303060181e-03 3.9200356686189359e-03 8.2374236025021027e-03
390 -5.4374764479434446e-03 -3.4869944922779313e-03 -1.8767664925367804e-03
393 -1.3516580334333820e-02 -4.7589347979951294e-03 -2.2847109422143570e-03
400 3.2418821744561854e-03 -3.0517461175970399e-03 -1.7046334906068116e-03
401 5.1244102184902678e-03 -4.4805360890827137e-03 1.0942747063441453e-02
404 -8.7275358209236795e-03 3.3789029097390146e-03 8.5280134522779955e-03
405 -1.7744151933008891e-03 -2.1459151127061799e-03 7.8197346900337600e-04
408 3.7199148431169122e-03 2.5825100946168739e-03 3.9885642691515595e-03
409 8.9768070159388139e-04 -5.3986024246922386e-03 -1.6797879634581679e-03
412 4.2455616150834262e-03 -3.5428826661600956e-03 -9.9057021134789348e-04
413 6.3739258267422692e-03 5.2758011241462394e-03 4.4862950779144846e-04
416 2.9754098245168910e-03 -4.0770577082203602e-03 -1.1754963817250766e-02
435 -7.9211565120428811e-04 -1.1645519657165836e-02 -1.9635686280077710e-03
439 -3.5383589380076530e-03 -3.4295325785263434e-05 -7.6195096552887252e-03
442 5.3209370342381483e-03 5.3459461488942900e-03 6.7682820856758256e-04
443 1.5656650341837215e-03 1.6094881434350161e-03 4.0731522847342527e-03
644 -4.1849656490771190e-03 -3.8308745183905789e-03 -2.6442135082858633e-03
646 -2.6324050821721441e-03 5.8318129983893543e-03 5.3672164271372632e-03
649 1.0102913992670885e-03 3.6515507478931232e-03 -9.4273528612532883e-04
650 7.4914025071858336e-03 3.4296575958045424e-03 2.2686782520106286e-03
656 1.3210788775198969e-03 3.5443612540514212e-03 -1.0419736644676201e-03
657 -1.1788057610580350e-03 -6.6624081190029625e-04 1.0031416890319694e-02
658 7.7292282568595526e-04 6.7083858564072766e-03 2.8054692468570982e-03
659 -2.0651533486352705e-03 8.4292288318867023e-03 4.3882178103157865e-03
660 1.7794565259006321e-03 1.7547469279161443e-03 -7.9071075075477662e-04
661 -1.8748518223518425e-03 3.0630202536818620e-03 1.0427165988165159e-02
662 1.8409816267116051e-03 -3.6589584063616144e-03 4.1258927075481840e-03
663 2.6755046163375366e-03 -6.5669080962795423e-03 1.4143485918461578e-03
664 7.2440911271893986e-06 -1.8927838847947923e-06 1.1497205730192504e-03
665 6.7819332632729494e-04 4.5031758436437763e-03 1.1497512875425760e-03
666 3.4221351854853499e-03 -2.0369296960838605e-03 -1.3846260765639354e-03
667 -1.9078501484319356e-03 7.2615002520202117e-03 1.7117170741540980e-03
668 2.8846439684201241e-03 -9.3972600515866147e-04 6.9916033565772969e-04
669 5.5091857634822399e-03 -9.0239807521578334e-05 -7.5021888942165557e-03
670 3.7767849226140729e-03 -4.5396474889644626e-03 -1.3421763158138925e-02
671 -8.6143996722981321e-03 -3.8846470460970927e-04 3.8634458517050703e-03
672 4.6215149243207035e-03 5.0600644492245503e-03 4.8886511655827488e-03
691 9.1801941910388575e-03 1.5751532531478070e-04 8.8329199420280335e-03
695 -1.5451174880596679e-03 -6.6719711552133010e-03 -3.4402902619232664e-03
697 -5.1742691063828786e-03 -6.7976980291300608e-03 1.5742416665863092e-03
698 -6.5892395649400264e-03 1.0110266422019312e-02 -1.8583419535126531e-03
699 3.9608602692369444e-03 3.0545964000683132e-03 1.2270398980321597e-02
701 7.0317765194753456e-03 5.1967993504895820e-03 -1.6333378197478036e-03
914 5.9499178253006792e-03 -4.7740124894988288e-03 -4.7387419895517915e-03
919 5.8779486281456935e-03 -7.7182138960594964e-03 4.1569864618941739e-04
922 -4.8143772629436633e-03 -1.0330469624377666e-03 -4.4093720914379726e-03
927 3.6401656082288764e-03 6.3139266301003158e-03 1.5991541836221901e-03
953 4.3080393064180884e-03 -7.8886720959699206e-03 6.0383890446571277e-03
641 -3.3955424438344081e-03 -7.6649151095420174e-03 -1.0600228160192718e-02
645 4.4330139714133339e-03 2.6392573051961426e-03 3.4442325902219093e-03
655 6.9899490929670291e-04 1.8170147792717672e-03 -3.3259438009484131e-04
419 -1.9336236177900149e-03 -8.1850951765306077e-03 -5.4403009592869185e-03
446 1.9244227025210414e-03 -1.0788007278055947e-02 1.1961626500208561e-03
447 -2.4022993305736236e-04 3.1423951513714727e-03 -2.0605207288094192e-03
450 1.1738994700139318e-03 2.8299588004142393e-03 -2.8716450079825347e-03
451 -7.0731295648999879e-03 1.3921125504231319e-02 4.7058633751048147e-04
454 7.5294871071583704e-03 7.6565954886525832e-03 1.6545983494505869e-03
455 -4.0345840392156237e-03 6.5853237627705773e-03 -4.6628456675269674e-03
458 8.7822488506262755e-03 -1.3210395549389641e-03 -1.6932540813242947e-03
461 -1.3921573678194804e-03 -2.1369160520803604e-03 1.8568957950315036e-03
493 3.9223767384929447e-03 -9.5619258089890084e-04 -7.7932599906940098e-03
497 -5.2426908291778890e-03 -4.8061325620693502e-04 3.1181339393538954e-03
500 -7.6996852619726055e-03 -7.7172950054839057e-04 7.1865055267543261e-03
501 -9.3958110235618682e-03 1.8806562518381979e-03 6.4456015437586098e-03
504 2.4830618185951911e-03 -7.4345461559872060e-03 7.3277657191677019e-03
505 -1.8497350255232531e-03 -1.1395788652370975e-03 -1.1814598131731505e-03
675 -1.4833270709001067e-03 -1.4844320605739370e-04 -6.2881419622818416e-03
676 2.3783483289459562e-03 -3.7238175339271676e-03 -3.8019725119455639e-03
700 -1.3435661496333524e-03 -2.3396339740507661e-03 2.9884687829908239e-03
702 -5.3107273230855760e-04 2.6150825637216079e-03 1.9845864831327985e-03
703 -8.8122957775852440e-03 1.0435756740038681e-02 3.4506929156477490e-03
704 -7.8683551003278524e-03 4.1927762543044148e-03 4.2880754749367190e-03
705 -1.4048507300108073e-03 1.3934164201666642e-03 -1.8834991719495291e-03
706 7.0702104591231895e-03 -4.3132453598460404e-03 -9.4948435363007618e-03
707 1.3395083004872417e-03 -2.2108800296723958e-03 3.6096055403827534e-03
708 1.2120025777304672e-03 8.6240258023717066e-04 -1.2233353718865182e-03
709 6.5871023840157342e-03 4.7129364572133740e-03 6.9690908853474853e-03
710 -3.6647336324458612e-03 4.9596452818074831e-03 3.8880869528042650e-03
711 -5.6691386458397586e-04 -4.4399223365513482e-03 -9.8850271591782862e-03
712 -1.0958018217585084e-03 1.2049986220614583e-02 4.5786111327352306e-03
713 -2.6377901469748109e-03 6.8232421219669250e-04 4.6822187614480957e-03
714 -3.1713002201157496e-03 2.9572422813564144e-03 -7.3894710145689909e-04
717 9.6097221732525592e-04 -4.5940934634344684e-03 4.3821618346435972e-03
749 3.1446759038451972e-04 4.5490699889143163e-04 1.2127184132659891e-02
753 -6.3275658111607482e-03 1.1146207957837453e-05 6.3706773043378838e-03
755 -7.2363026869923953e-03 -4.5110455969797512e-03 -1.6128425667072215e-03
756 6.9984102023637246e-05 -4.1141478043794002e-03 5.1315410288873048e-03
757 -8.2568622739150645e-03 -2.8677534319266462e-03 5.4224933963634469e-03
758 -2.3449791157791754e-03 3.9934530842662486e-03 1.0664338647589356e-02
759 5.3656564204474450e-03 5.1619164292772439e-03 -3.3805276918635316e-04
760 1.2959713445756214e-03 -2.9463396133875236e-03 -9.6963038986780381e-03
761 3.2582503118517040e-03 5.5694806869758494e-03 1.1661167969592395e-03
763 -2.3181450641059713e-05 -5.8166722927931961e-03 -9.7020576681526843e-03
956 7.7113242217207853e-03 -2.0137235172459174e-03 -1.7353132641958300e-03
961 -4.9576075666391290e-03 6.5356860819494296e-03 7.6492477692369958e-04
964 2.5054899122615867e-03 -5.2079854365608327e-03 8.0284172510360127e-03
969 -5.9176384929661551e-03 7.3531099642857364e-03 1.7922186734364307e-03
1011 -1.2164798923952338e-03 -4.1998095206286943e-03 -3.8391834507198160e-03
1014 -5.2648375852294409e-03 1.0613803426188770e-02 -3.8414502696280496e-03
1019 4.8507574203873497e-03 3.2024425555950155e-03 3.6577897604265150e-03
386 -1.7220817108974285e-03 -5.8510333354291552e-04 2.8619966906564456e-03
387 -4.3214335033121398e-03 5.1483207278507723e-03 -5.9927222074881038e-03
397 -1.9774088314425315e-03 1.8681564011928170e-03 -7.2981753866750612e-04
642 4.2780257006729255e-03 -2.2629228737682532e-03 -3.7441440298212137e-03
643 6.7904021735200673e-03 4.3978367811831291e-03 -2.8863038469580122e-03
653 -1.8443388726755922e-03 8.7732796605070693e-03 -5.6700800467875438e-04
897 -6.7877863707232868e-03 -5.0987249065866675e-03 3.9243371765198881e-03
901 -3.3290751124238163e-03 -2.0203922436903333e-04 -2.7901818428757259e-03
911 -1.6849334506493941e-03 2.2764174202106117e-03 1.8396088701346995e-03
508 1.6243519998089435e-03 -2.0898742864101211e-03 -4.5020433201146430e-03
509 -4.9071965341241051e-03 -1.2578243920076464e-03 -8.7054535838502469e-04
512 1.7181151020748775e-03 -1.9851174205633643e-03 -1.6936261631102874e-03
513 1.8365166747408756e-03 3.5770306718108433e-04 -2.0115998453625757e-03
516 9.6652875612131435e-03 -5.8830100366660007e-04 -2.3057325274784993e-03
519 -3.3300719376192448e-03 4.0672369600803745e-04 9.5467562954883595e-03
557 1.1544162551415183e-03 -2.3672422255336246e-03 -3.3281756478564925e-03
561 6.8873113051459312e-03 8.1980744778361962e-04 -5.9295653302358529e-04
564 3.6806191632610861e-03 1.8054528028131995e-03 4.6299964987918784e-03
565 -4.3752949581136024e-03 3.8081792733338730e-03 -2.4365909762626200e-03
568 -3.8068215377824282e-04 -1.8247523763220467e-03 1.7905865688683186e-03
569 -2.4696708359888257e-03 2.2514778339804298e-03 3.0507483697966042e-03
572 -7.4812096080339495e-03 -9.8175095841763734e-04 -3.3818367276999290e-03
573 2.7086174200252520e-03 -4.1383674807167871e-03 -6.5104703762142689e-03
611 3.8746090050072320e-04 -1.7839952307171071e-03 -2.6978434022763924e-03
718 -3.7922551754848766e-03 2.6605503265235047e-03 -1.6925883592168610e-03
762 2.0900347967551945e-03 -6.1956217084923526e-03 2.1612831856812707e-03
764 -4.4154471396247912e-03 3.7272792423437592e-03 -3.8652935959125447e-03
765 1.8759510760904142e-03 -1.1905834848217165e-02 -7.6726575905334030e-04
766 -4.5566890394453993e-03 1.0560794246778956e-03 -5.4823003394100292e-04
767 -5.1603274013983552e-04 -8.2574665898729424e-04 -3.1223566923155131e-04
768 -1.1650943301081853e-03 6.1489300309444080e-03 -2.7000114165761820e-03
769 -6.8190270783785997e-03 4.2681277008238781e-03 2.2105139905019840e-04
770 -1.2808338638516565e-03 3.8196502298601598e-04 -2.0107330203923755e-03
771 2.9628979177857223e-03 1.2267398602918621e-04 4.8529293497108252e-03
772 -5.1434165487104838e-03 4.6033618179937832e-03 4.6587208117049384e-03
775 -1.5476014567718771e-03 6.7335914289522267e-04 -2.8332830656203315e-03
776 -1.2924849146615477e-04 4.3551031867611369e-03 -4.1581903595847760e-03
813 2.7473902352669229e-03 -2.5652306090542766e-03 4.5810097886696630e-03
817 -1.0793965026359721e-02 -2.9745999923163325e-03 1.5537352779399175e-03
819 6.4402284463785177e-06 -4.0108820260587146e-03 9.3835873219863027e-03
820 -2.5873531546454932e-03 1.4589857929825560e-03 -2.7548179986975926e-03
821 2.2594721418776175e-03 7.0118795565836051e-03 2.3485134483552279e-03
822 -4.0034439463898360e-03 3.9948099814562958e-03 5.8294542792486784e-03
823 -4.7426213714140998e-03 -3.3060472608610663e-04 -1.2308616784573250e-03
824 4.1314663263491988e-03 9.9917829714032329e-04 -4.2714095156879042e-03
825 6.3324645236672824e-04 4.1808461684152750e-03 4.8938896998350747e-03
826 4.2380850147750749e-04 -4.1884300640485216e-03 2.8796708323425265e-03
827 1.0476559151737696e-03 -4.7581609930523695e-03 6.0938395385615931e-03
828 -3.6116281251879385e-03 2.2092447982923515e-03 -1.0555741490409481e-03
829 2.5488818957147630e-03 1.6942440077639088e-03 2.9553145403416119e-03
830 -1.1181657478049377e-03 -8.7979898167867107e-04 -4.2489145312816796e-03
867 -3.0103272808545633e-03 -6.5106192534617434e-03 7.1667235827351256e-03
1022 -1.5853434722964855e-03 2.0584569831312355e-03 1.9904053000422095e-04
1027 -4.0380166623980637e-03 -3.0682378253486164e-03 -7.1006497057499087e-04
1075 -2.8840327631778628e-03 1.0412787481788172e-03 -5.1857604206283986e-03
1078 5.0487629482545379e-04 -3.5356516616545527e-03 -7.0274203014816204e-03
1083 3.3565659783901009e-03 1.5510862112186640e-03 6.5558164992572084e-03
774 3.1124572398116088e-03 -7.4727825743234929e-04 6.5399465339616419e-03
426 2.3981043822348816e-03 -1.2816328713952355e-03 -2.0691568886939210e-05
427 -2.4442072952871644e-03 -7.4162654523172598e-04 1.0889077395607447e-02
430 -3.8411514834764258e-04 1.7454095386542417e-04 -6.6532235662961044e-03
431 -2.5103329916917119e-03 -6.4119012994861820e-04 4.5057633525235922e-03
434 6.4072708313335945e-03 1.0264836134568260e-05 4.3153750187358121e-03
438 -1.6832834918914139e-03 -9.7423930510324979e-03 -4.0217468111760019e-03
477 6.7374570437702297e-04 6.1012584393603901e-03 2.6570369219337032e-03
481 4.6582608585762422e-03 -8.3998245829379915e-03 -9.9711702246871193e-03
484 1.2067486486481897e-03 6.1737468817731544e-03 -6.8509956883096527e-03
485 -3.9409325440653364e-05 -5.1255712421888894e-03 -2.2482677512919570e-03
654 -1.0424718581801424e-02 -1.7747518036785167e-03 -4.1014767489647381e-03
680 3.8814171595754037e-04 -4.2813448543891968e-03 6.0067054124161969e-03
682 4.8240382526579979e-03 -2.7172290915163442e-03 -6.3481341136074714e-04
683 -3.6269860103455530e-04 -7.4304034625402018e-03 2.5800958294257092e-03
684 4.6956569264846914e-03 -4.7433672347156255e-03 3.0283078769750282e-03
685 -5.6682440523485910e-03 5.6133990774653413e-03 -2.6201956199632293e-03
686 -3.7074803873123063e-04 -1.0682190113176877e-03 -6.7417943220099365e-04
687 -9.0200975337475543e-04 -1.1584528128660242e-03 -1.8911149952898353e-03
688 -7.0904239081362791e-03 1.2955855984689450e-02 -8.2940276548638600e-03
689 6.4512967755846738e-04 -4.0902499361631147e-03 6.6875186227166716e-03
690 1.3040839710338297e-03 -8.6418494080078307e-03 -3.2193942219999505e-03
692 -1.1308805348966388e-03 -2.2118169958111199e-03 2.0617247442847753e-03
693 6.6071268785955104e-04 5.4412741436877399e-03 2.3909983136662562e-03
694 7.3872509078984402e-03 -2.3527682655542009e-03 2.1201029006760472e-03
696 -1.3245682734465260e-03 -6.0046163807858750e-03 -1.7473360049336517e-03
731 -2.2812498141083299e-04 4.9842870142265193e-04 -5.9116374176119346e-03
733 -1.5083603375847603e-03 -4.6084723013547768e-03 -4.9519782375405570e-04
734 -2.0354402720528107e-03 -6.6702469760354195e-03 -6.2062519239573467e-03
735 -8.6785504879865506e-03 4.0851128727670931e-03 1.4644952172967855e-02
737 3.8007058734528748e-03 -1.1671722890615488e-04 1.4984893523126883e-03
738 -3.2170619399321120e-03 -2.1533329321147352e-03 -4.0902134586060712e-03
739 1.1801654657332967e-03 6.5318584396732004e-03 6.0464432874441608e-03
740 2.0235491034629491e-03 5.9492602447064787e-03 2.7426273285292729e-03
741 -6.3174884951638271e-03 8.4417895673824569e-03 -4.7105229445052015e-03
743 2.4514736967113353e-03 4.4285855490774689e-03 -5.7745973924382262e-03
940 -2.8684121583319069e-03 5.5631455827801742e-03 4.6005097965009503e-03
945 8.5474618792753133e-03 -1.9030295177717360e-03 1.8836945967899005e-03
948 -5.3490941304434264e-03 6.2363938406850611e-05 7.6361497134869866e-03
987 -4.0948839897074702e-03 5.2187223987986222e-04 4.5072047684782844e-03
990 2.3968552057454504e-03 -1.6972452582489535e-03 4.7387849548225216e-03
995 -1.3359191059661248e-03 8.7143452587902653e-03 2.3191810285577248e-03
651 -7.7801819173305585e-03 -9.8469815826411795e-03 -1.8219250459024809e-03
677 -8.6918445944371495e-03 3.0872792684771668e-03 -1.6439394628399455e-03
681 8.3868306644620094e-03 1.4054022396407370e-03 1.1458420787870079e-02
488 -1.0696648642073920e-03 -4.7143229792779239e-04 -6.0408308186802925e-03
489 -2.7325545988830958e-03 2.2026885508292285e-03 1.4785656841714932e-03
492 -3.5691873628572713e-03 6.7759498825644554e-03 5.9734268766269121e-03
496 -9.0762320761638201e-03 9.9181368528913363e-04 -4.0380352457994135e-03
541 9.1573985561550844e-03 -8.4758541265547421e-03 -1.1311849237497676e-03
545 -9.9586135171938622e-03 9.8112371385786212e-04 -2.2087045464163134e-03
548 5.8710745637922566e-04 3.6987287182175120e-03 -3.5285194409410371e-03
549 -3.2140002039510581e-03 2.6049223310651423e-03 -1.0628341410271957e-03
552 -2.8394570947261203e-03 -1.7472812036215927e-03 -1.2628935600645047e-03
553 1.3326454851092819e-03 5.1073659814585238e-03 -1.8660259693580570e-03
742 1.6900048051436284e-03 4.1764757969798569e-03 -2.2412706163722402e-03
744 -2.2116714560079789e-03 -9.0237068031592971e-03 8.0084643408358386e-03
745 -6.7992521457333633e-03 -2.2115999184585465e-03 1.4647820958009367e-04
746 8.0348721376486613e-04 -3.3283337071386260e-03 4.9248691550446248e-03
747 -3.1748930995245169e-03 -3.1750271737532787e-03 8.2859627682818052e-04
748 5.0485022896513869e-03 8.7893705930325323e-03 8.7316931821783215e-03
750 -3.4137548481480732e-03 -1.2655814911529549e-03 -4.9598273360236631e-04
751 3.2005137136213993e-03 -2.5277449278126194e-03 -1.1695796448437698e-03
752 3.0678660709111002e-03 6.7786258823118262e-04 -2.5730243185415227e-03
754 1.5738918254162926e-03 8.1561389021116513e-03 -3.0605012667998502e-03
795 -8.4557634977685241e-03 4.8532536988896762e-03 1.2834140709541077e-03
797 -2.4870950956968432e-03 1.4797116915263857e-03 8.5086745730729094e-03
798 -1.1157781731108260e-03 3.7664765103194026e-03 -5.4927265959183477e-04
799 7.9106807280825803e-04 -3.5465682008159775e-03 -2.7750891667578481e-03
801 -7.4316688684000721e-03 7.3040006538890728e-03 7.1784878575619252e-04
802 1.9560270697813074e-03 8.8509249088851109e-03 1.1404826238569775e-02
803 -1.0670586586574051e-02 -3.5737315159996421e-04 7.7617243167128888e-04
804 -4.9371304303208021e-03 -9.6489192172235572e-04 6.3392593138493179e-03
805 -9.6086010988466616e-04 1.2975162902414232e-03 1.1805777827780801e-03
806 -2.6896078595758312e-03 -3.7536747696466232e-03 5.0682564159546112e-03
807 1.2924320269466693e-02 4.1349862856736542e-03 5.5448746859834107e-03
808 7.9339235011278053e-04 2.6004387498536939e-03 -1.2581667173374447e-03
809 -1.8391954557682071e-03 -7.3447885819924140e-03 -2.7833014773219530e-03
811 -4.6511145819863866e-03 9.1275781692053398e-03 1.6250277360262077e-03
849 -4.0225331156703925e-03 -1.7345351435341333e-04 3.2805414661344987e-03
998 2.9400891339803358e-03 -4.3494848426796004e-03 -2.2410678320628269e-03
1003 5.4605359568448764e-04 3.6854854603946361e-03 -1.0237525289108540e-02
1006 1.7839766402402803e-03 1.7041277771683867e-03 8.5456121819418255e-03
1051 -1.9019259347785780e-03 3.2117343015523186e-03 7.6811712926270082e-04
1054 -6.3945371368362381e-03 1.8146699243031838e-03 6.2952399939250085e-03
1059 -1.3357956357984161e-04 -1.6253894759452082e-03 -5.1381646162934952e-03
1062 4.6774365879522686e-03 -1.2510182818041809e-03 -2.9314813734583828e-04
1067 -1.5601271828893620e-03 -3.5416605180472395e-03 -9.4002541090968512e-04
1105 -2.4649234936346878e-04 -6.6864880985255057e-04 5.0215329688692066e-03
396 3.1133418852791203e-03 6.6400640220905748e-04 -4.2260793417502659e-03
423 6.7413467073191037e-05 -2.7612807187244202e-04 9.4256349611163692e-03
652 -2.0395183714726813e-03 -1.1972148692700906e-03 -3.6249537574559133e-04
679 3.8354047661187229e-03 4.0685601993465910e-03 1.7097732627677320e-03
907 -2.6580322757212495e-03 3.5320372804717318e-03 -2.9894817558974692e-03
933 7.6147861576278579e-03 -4.7805511650649982e-03 -1.8086921013734142e-03
937 8.5280753449990746e-04 -2.3108353364536499e-03 -1.7208620599518151e-03
556 4.9641992194220941e-03 -5.8804836866421018e-05 2.5608974640982203e-03
560 -5.9722298293019040e-03 -7.4698096115301885e-03 -5.2111396803777611e-03
595 2.0302973787903072e-03 -7.4539934630205333e-04 9.3916744764621759e-04
599 1.9484393803857586e-03 1.4385708186197101e-04 -3.0309359385406183e-03
602 -3.3623382125365147e-03 3.5610138101743244e-03 2.1665136587319545e-03
603 4.8035462386686210e-03 4.8967851225451887e-04 -3.0892334504374311e-03
606 -9.1621656822295347e-04 2.8997602755498277e-03 -1.2006590201655699e-03
607 4.7727721975815976e-03 9.4128517585204401e-04 1.0847768905368258e-02
610 -6.8582191472418026e-03 2.6815665289754310e-03 9.7489997751790784e-03
633 4.1058659051327693e-03 2.9992919951961523e-03 -3.9931641296756795e-03
810 -4.8397580192937476e-03 -5.1208575491292589e-03 -2.0183401719739498e-03
812 -4.7533796126715379e-03 1.5706611851029890e-03 6.1654673838086142e-03
814 -1.1139646056919099e-03 2.7609475937871025e-03 6.0948833455891187e-03
815 2.2183708236304203e-03 -5.9202486640023858e-04 -5.0365862390255103e-03
816 -8.8018548912162098e-03 -8.3372644701910636e-03 -6.9203864159219101e-04
818 4.3340099546354113e-03 4.5970958934765157e-03 4.5531920616577698e-04
851 5.6757820418574479e-03 -2.7076862946301076e-03 -8.1759020956951155e-03
852 -2.9489109290466568e-03 -2.3732859143784585e-03 -2.7877819849144482e-03
853 1.8859746852088217e-03 7.8080993225897472e-03 -1.2214571522274208e-03
855 -5.8235280121021445e-03 9.1315808087798461e-04 8.2039565249402892e-03
856 -9.3596969104553542e-03 -8.2885586588918227e-03 6.3289731468923350e-03
857 -1.4440077431907552e-03 2.7582427749818015e-03 7.5993551897099627e-04
858 -3.6429380498785168e-03 -2.2739067936070967e-03 -3.2184929892704272e-03
859 5.2329942895867761e-05 -7.8601968498055019e-03 9.8175788253269287e-03
860 2.0111587391653434e-03 -5.6387463810809741e-03 -2.7726919901890248e-03
861 6.7956507133032674e-03 5.2959450037415676e-03 -5.7976127165742623e-03
862 3.6838066682458076e-03 -7.8366866095681675e-03 -2.2127092463631332e-03
863 -1.4768406431245992e-03 1.0322957506785936e-03 6.8611275558252472e-04
864 1.8725417355445768e-03 1.9142212740624266e-04 -1.3201617840399759e-04
865 -1.0329393301660948e-03 -3.7555771915423254e-03 -1.1733901665201959e-03
866 -6.3127683110051989e-03 1.6963707046084185e-03 2.5537729530530060e-03
868 8.6233936748814457e-04 7.3059091405680626e-03 4.0651252948572793e-04
887 -2.4347677108985870e-03 -1.3490602667568463e-02 7.8535766654557317e-04
889 3.8960397669870364e-03 4.4952384471243414e-03 8.6184050530501415e-03
890 -4.9244871824908002e-03 -5.0741432581241132e-04 4.4432104740844665e-03
1070 2.1298309855655594e-03 -3.0253820798754509e-03 -1.9389010690975205e-03
1108 3.5710558378369787e-03 -9.6774071796713948e-03 -4.4658555023158178e-03
1113 3.6792659719127683e-03 3.8084019450567576e-03 5.0579605908345742e-03
1116 6.4901060244888675e-05 2.5741954289119707e-03 7.4180421153683526e-03
1121 2.9876629039548492e-03 -4.0380866471878231e-03 4.7231977574771176e-03
1143 -1.4122163786845538e-03 8.7954446352573445e-03 -3.0373841501598032e-03
647 1.9921717766424626e-03 -5.6719925147035635e-03 -4.7819492502287637e-03
648 3.1038725784549295e-03 5.4559896603328193e-03 -4.4503440519909334e-03
674 2.4269433440200815e-03 6.5757188714262917e-03 -6.5317791646381639e-03
903 -6.4373577178815497e-03 -7.3643901497873969e-04 7.8842021074624347e-03
468 3.3366426087801820e-03 2.1740297028879523e-03 5.4957915555835599e-03
469 -2.8157215502614560e-03 -1.3796569653110073e-02 -7.9933914199018896e-04
472 -1.3525526747845994e-03 -1.2107727555529680e-03 1.3058097875735379e-03
473 -1.4577911014081804e-03 6.0412736967539876e-03 -1.6706541966366670e-03
476 -1.5758700500710994e-02 1.0340627873077896e-03 8.5364471769710740e-03
480 -4.9409554657921045e-04 -1.4850992068358771e-03 -1.0437832943502518e-03
521 8.2377106398918952e-03 3.6196558505022849e-04 1.4819740478390941e-03
522 -4.1780772657092104e-03 8.2052623277505056e-04 4.6528903485381131e-03
524 -1.1733839745828221e-03 -2.7155416406687933e-03 -2.5716758523908322e-03
525 3.8433271072047161e-03 -2.5976014047132392e-03 1.6187939207062871e-03
528 1.1139219660242115e-02 -7.4108399422192226e-04 -1.8271739466069767e-03
529 -4.4360508003439972e-03 1.6699501221600936e-03 8.0823567263167521e-03
532 7.0164340613289447e-03 2.8717677481443567e-03 3.3297419891220167e-03
533 -2.5496502164432887e-03 -9.7122748783018539e-04 5.4925081642179744e-03
575 -8.6271425737558787e-03 -1.7123585586254503e-03 -1.2336954740596762e-03
722 3.3005204733223279e-03 1.0526385874854416e-03 3.8466888521244305e-03
724 -1.0124850899894758e-03 -6.4318443733969426e-03 -5.7535542960698476e-03
725 -2.9922360962831120e-05 7.0046660354392380e-03 6.4236711475290382e-03
726 5.4942439968790622e-04 -1.3567350832856780e-03 -1.9313862389171198e-03
727 6.4489211542368098e-03 -3.1836762296575437e-03 2.8448272930288727e-03
728 -7.1044345627209243e-04 -1.0271073449784444e-03 2.5399645032210360e-03
729 1.1082231530812777e-02 -4.8773376540940539e-03 2.0244781379271173e-03
730 1.8133556828327057e-03 -7.3794928984523642e-03 -1.4169080786647483e-03
732 -2.8105166800719046e-04 -8.2964219650600524e-05 -1.4950623619283766e-04
736 -5.5063606753561088e-03 -7.5249100204006852e-04 -8.4765254038491090e-03
777 -3.0662493356975458e-03 3.2839363380474931e-03 -5.8253225260886726e-03
778 -4.5828206643910580e-04 -5.4303547431061314e-03 -2.8276079650739333e-03
779 -1.2712743263201581e-03 5.8665029157023972e-04 5.0239961949194347e-04
780 1.1961682209028877e-02 -1.2498656789359137e-03 -3.2049143618703428e-03
781 -2.7283861614193655e-03 3.1993144316036066e-03 -3.3461615485215214e-03
782 1.4115573112169605e-03 -2.3629439784719321e-03 3.0599711665241303e-03
783 1.0305704234066584e-03 4.1116136698795937e-03 -2.1952662933410415e-03
784 -7.8832880330003546e-04 -4.5659620885183201e-03 -6.5189494432880239e-03
785 8.2350058590448388e-03 -6.6515855175203137e-03 -1.7568200791362621e-03
786 9.8448330951674055e-04 -5.1463469433073563e-03 -2.2814537268381306e-03
787 -4.5418508364801231e-03 -1.6591249308651941e-03 1.0760816264420867e-02
788 -1.2767776657744516e-03 -1.6413298867993537e-03 -1.0486932610945384e-02
789 -2.3728181007222522e-03 -6.2874842605165375e-04 8.4471911865099893e-04
791 -4.0953515240951966e-03 -9.7603643102683825e-05 1.0110482111525914e-02
831 -3.1451344484080884e-03 9.6036888468073907e-03 2.6457730986507774e-03
982 4.0320557851597051e-03 2.3794548733916125e-03 8.2033133779423478e-03
1035 -3.3610909303184782e-03 -3.5143832562136053e-03 -3.4356424320645959e-03
1038 6.6860501694789836e-03 -1.1817197390650313e-03 1.3818143510487481e-03
1043 -8.0479871791697601e-03 8.4744300237461214e-04 -5.2219850095698980e-03
719 -5.6119257147631413e-03 -7.6900133669063914e-03 3.0478083118096887e-03
723 -3.3006876719177728e-03 -6.1354436139918105e-03 -7.6796531885437004e-03
673 3.1767455406061628e-04 -6.5013391239337158e-03 -2.2104247536690047e-03
715 -1.8701179379088332e-03 2.4904203157162384e-03 1.4080016144517954e-02
716 -3.3732310831050580e-04 -3.4405253950148388e-03 -6.4206325253424335e-03
929 7.7610045468905849e-04 -2.7417728939564670e-03 -3.9174327895886794e-03
971 -2.8036731301865781e-03 3.3393714220845594e-03 -3.2156819392385370e-03
536 -2.2198135592944360e-03 -7.8858130505594134e-04 -6.8527394991567004e-03
537 5.6330973384440515e-03 5.7798874464228848e-03 2.7043218235002438e-04
540 4.7568204635477533e-04 -2.8255914411633745e-04 -2.5952221703792917e-03
544 -9.1215666366059635e-03 -6.5665619781911681e-03 -4.1653559540996623e-04
576 -2.9010948868379398e-03 -1.1312584920845103e-03 -8.2530771383590561e-03
578 -2.9565395012397079e-03 -2.1055592595059952e-03 3.6175392009507386e-03
579 -1.3146756580688251e-03 4.0287152708768227e-04 -3.8192309137491313e-03
582 2.7865890906935087e-04 -1.5484000012873057e-03 8.3747075154027781e-03
583 -9.4840327136606710e-04 1.1189217959940044e-02 1.1569858367630845e-03
586 -1.7146150327946655e-03 -3.7378876495788096e-03 -1.5454786539530897e-03
587 3.0284065619880403e-03 -4.9837707780801344e-03 -3.3716640068235174e-03
590 -4.3227118271391409e-03 -2.9689299461873762e-03 1.9491646897901009e-03
591 1.0243834158827951e-02 3.3659281191541763e-03 -2.5419749852488558e-03
613 -8.0561777714864156e-04 -3.1682880890264759e-03 -7.3641975687877156e-04
614 -7.5418468546806297e-03 -9.1128190294899776e-03 -4.1594129875553590e-04
790 -7.4681375082918467e-03 -3.6664791528087087e-03 4.7604884865947274e-03
792 5.3759558719989869e-03 -2.4315115788720791e-03 9.3187165326006022e-04
793 -3.1945644157774537e-03 8.9688344762691719e-03 -2.7773480503816214e-03
794 7.4672248848399961e-03 -1.6646147211243178e-03 -1.4227067850497533e-04
796 1.3481276678677669e-03 -9.6208087910545470e-04 3.5901268671781777e-03
800 -1.2790436730963199e-03 -2.1175475322180362e-04 -3.8580491175571399e-03
832 -1.7519803155233993e-03 4.0695197862165172e-04 -9.9024994615111938e-04
833 -8.2485550307869818e-03 3.0535643737338541e-03 6.1773977874656797e-03
834 3.4390752082760568e-03 1.3627166772446292e-03 2.1831286368581980e-03
835 -1.8048237946659997e-04 -1.8999941523173312e-03 -1.7278827095980117e-03
836 -1.6485545966870624e-03 -1.3852775484634853e-02 6.0937809649927958e-03
837 -2.4232644954822629e-03 -2.2513352497767272e-03 -8.5683822576442387e-03
838 -4.4195959394418690e-03 6.9005896037369185e-03 5.9923088192698395e-03
839 1.6224828559961381e-03 2.5536502077330627e-03 3.0635615396439335e-03
840 1.8543565658826738e-03 8.5821298877694185e-04 -2.1277175066708835e-03
841 -1.5627070457839788e-03 1.8577305855324133e-03 -1.3299020541753818e-03
842 4.0473856176026432e-03 6.1821089402621136e-04 5.0449259222460300e-03
843 2.8123609804967921e-03 -2.9822553600416849e-03 -3.0638475067685448e-03
844 -3.0981626534627516e-03 -6.1499941695348278e-04 2.1726459447364596e-03
845 7.8478973325479384e-03 -1.1435809437491957e-03 -4.0336957642729404e-03
846 -6.3197736175592796e-03 7.8565606984260363e-04 7.9052716513056173e-03
847 5.6211314141337660e-04 3.7539537040008073e-03 -6.1964311980481322e-03
869 9.3746805602371759e-03 -5.4168727278976496e-04 3.0967487457014618e-03
870 3.5705418305194050e-03 -1.0831778989378283e-02 -4.3147940244859587e-03
871 5.0083995102460184e-03 -8.3600537385619712e-03 -7.1649996659581966e-03
1046 -4.9869322358190105e-03 9.1876232828237512e-03 9.9011475148610330e-03
1089 3.3237496136856622e-04 -3.0099001742102853e-03 -2.7416160950967778e-03
1092 -7.4245182675555202e-04 2.1784239245625039e-03 -7.2842938284446114e-03
1097 8.4969125832573764e-05 -2.1000439342611496e-03 -6.6864947637723590e-03
1100 4.6459469213748399e-03 4.1701877301950924e-03 -8.5415455544731785e-03
1127 9.8324776998289063e-04 -9.2146131868096252e-04 6.4637979681184156e-03
422 2.0688247260555849e-03 1.1268306341133251e-02 -8.6444927692357534e-03
464 8.8249075553440345e-03 -8.6240593357499833e-03 -1.3861806304087151e-03
465 3.4138792836582404e-03 7.4246785181181904e-03 -5.9424441380993278e-04
773 1.7091885179591328e-03 -9.2350282368231749e-03 -1.1113995061696851e-02
1029 -4.9933917625373785e-03 3.3467287235611899e-03 4.7183427623643187e-03
678 -1.9164293984809635e-04 -1.2308910105135417e-02 -3.9069070772240625e-03
720 9.1728898829237186e-03 2.7049735849494216e-03 1.8229685466311584e-03
721 3.7397789703524703e-04 -2.2969870553664600e-03 -8.5309275945906534e-03
975 5.6864199612657691e-03 -3.2610905285229154e-03 -2.0231679605880776e-03
979 -5.3481068699114892e-03 5.8743901606572550e-04 3.6494001543865303e-04
594 -2.1323732154883844e-03 -5.9958439617403174e-03 -7.7078868067707298e-03
598 -2.8555668044840899e-03 1.5525160284078753e-03 5.4030349942344109e-04
616 2.1927308369216656e-03 4.4441158658481417e-03 -3.7942502272461597e-03
617 -6.1885639677830334e-04 -7.9792057580058261e-03 7.4550409852256290e-03
620 4.0691778572454875e-03 6.8310573771277775e-03 -2.0552700343268795e-03
621 1.6889629468137023e-03 1.0864126837557619e-02 6.3830811997971177e-03
624 -3.2274648173715673e-03 -8.4238960387517602e-04 -2.5275455154285310e-03
625 3.4319421934989429e-03 -8.2493904072934582e-03 3.7012437457371672e-03
628 -3.0639015505029487e-03 -3.4549685992922309e-05 -1.0662228207312047e-03
629 3.7771687981888245e-03 -2.5994003090563859e-03 -4.1433616268096839e-03
632 -2.3216784586289501e-03 1.9672158040482356e-04 -1.4103244552141317e-03
635 2.3064420008245871e-03 -1.3421569604219973e-03 6.0724476074021450e-03
636 -3.3118531292515948e-04 -1.6467955734715085e-03 7.3242673126617088e-03
638 -2.7895518962089963e-03 1.2689260087206528e-03 -1.7895556118034976e-03
639 -3.0778299342197255e-04 9.1850184038621569e-03 1.6533495591085567e-03
848 8.7415252827792236e-03 -1.1345626868592684e-03 -6.7313436814568179e-03
850 9.0331921297335149e-04 -7.4041723862428533e-03 -4.2737915865552608e-03
854 3.0225913842079218e-03 9.0040328876902912e-04 2.9460580118147797e-03
872 -8.7780095535552882e-04 2.6288902874123440e-05 4.7047845835901884e-03
873 1.7434068341024588e-03 1.4838724620785994e-03 2.9565360077695281e-04
874 -2.0909795383532888e-03 6.8574601011188539e-03 -3.2280239805909010e-03
875 6.5185948788827209e-03 6.6158884773185990e-03 1.2338225332288934e-03
876 -2.7423678954716208e-03 -8.1564231677395543e-03 1.1473102255569988e-02
877 -3.4152881769934536e-03 3.3154678066935788e-04 -3.3928858714194420e-04
878 8.8898431944112802e-03 -4.2035777481685141e-03 -2.0890612438097672e-03
879 5.6291883750734933e-03 1.3961193483985455e-04 -3.5544429032366891e-03
880 -3.6266743417615026e-03 1.1629444717871063e-03 7.6395208353145783e-03
881 -2.6626981401085912e-03 1.8377256742636226e-04 3.5654570684755266e-03
882 -6.1765800586162725e-04 8.8490675433351811e-03 2.3202750937812567e-03
883 -6.5417195134131276e-03 -2.8245874494460532e-03 1.4012214760313504e-03
884 9.7973587374171139e-04 -8.4774597037355712e-04 1.4477513187161543e-03
885 1.1114956314780131e-02 -1.4611236086554777e-03 -5.4365646403123098e-03
886 5.0112210064848358e-03 9.8092922847629656e-03 -1.8099841194121639e-03
888 -3.9173981630511862e-03 -6.9081868103866985e-04 4.6319480509592822e-03
891 5.5132511335928159e-03 2.5919673667386283e-03 -6.8717329783453606e-03
892 -1.3629069904798207e-02 9.6632980092429682e-03 1.6271899208737622e-03
893 4.3841296334083272e-03 -8.0704836521861383e-03 3.6496008946812399e-03
894 -3.0218000260479774e-03 1.0838332363817856e-03 -3.8257337992797795e-03
895 -1.4347313175561353e-03 3.2719629573475730e-03 -3.3428926131449433e-03
896 -7.0252557163480124e-03 -1.8843796381787597e-03 -1.1702884692562974e-02
1130 3.5498790542506529e-04 1.1067992037980950e-02 7.4432063753372595e-03
1135 1.4051902403365013e-03 -1.3264979760742523e-03 -3.1860438072439821e-03
1138 -6.2995112682857311e-03 -2.3990063721201168e-03 -1.0960031708706722e-02
1149 4.1985504746141879e-03 -7.3493800147209692e-03 4.0055556059707771e-03
898 -6.9513067390619670e-03 -4.0441070162137846e-03 6.5418021923530374e-03
899 -2.9127955024553084e-03 -3.3620071941408659e-03 7.0256733621977107e-04
900 -5.6776234019160210e-03 6.6562498592654336e-05 1.5021311498032166e-03
902 1.5368275835145845e-03 7.5964064895179557e-03 4.7872981175802872e-03
904 3.7863878056203495e-03 -5.9571455138289953e-04 3.4223843482805122e-03
905 2.0032915361816086e-03 -1.0915610357456890e-03 7.0905559573210880e-03
909 4.1585454492442412e-03 -5.7643210374327073e-03 6.6909730969670839e-03
912 -2.3091882132841731e-03 -7.3614570971726684e-03 -1.2111294880138618e-03
913 -4.5538278094919473e-03 7.2978996332784295e-04 -1.3279480162998139e-02
915 -3.2247527385308671e-03 2.2653971786832819e-03 -2.7190915923149830e-04
916 -4.8779620603286063e-03 -8.5504174468495151e-03 -3.9338118252704923e-03
917 4.6678371533967028e-04 2.8533781172396661e-03 4.5633859750710314e-03
918 -5.6290490198377145e-03 -1.7572633115537132e-03 -8.6623624240256686e-03
920 -3.0262788852426200e-03 1.4142509011099971e-03 -9.8113985875532533e-04
921 1.9731247136568330e-03 -5.1512821287381799e-03 -2.2268389343898529e-03
923 6.6637614466445371e-03 4.9006342448117777e-03 1.0536890758069996e-03
924 -6.9396851533537985e-03 -3.4584365723982539e-03 3.2311466131871203e-03
925 -7.6612225127186658e-03 -1.8306589956407502e-03 -9.6751011530220277e-04
926 1.9488162345372207e-03 -3.0131956902473508e-04 -4.5023947209726835e-04
928 -3.5375786942287458e-04 -6.4832083469081158e-03 -1.5282962781979410e-03
930 -4.5162479241105894e-03 1.5587316563728889e-02 5.5869453041832101e-04
947 -8.6270300960093909e-05 -3.0046468078809129e-03 -2.6575794062721654e-03
951 -4.6613493512651406e-03 -4.1470139669326968e-03 -4.9221515199781444e-03
954 3.3562658804833071e-03 1.0174762318952065e-02 -1.5828143912009931e-03
955 -7.7271461178012365e-03 9.7942811820481862e-04 -1.5162999671040965e-04
957 3.1533321209600189e-03 9.3490637429870359e-03 4.9395714942356977e-03
1153 -4.4565144274940557e-03 -5.8155082453435532e-03 -2.4261603718838559e-03
1154 1.0225570367670936e-03 2.4227721007640149e-03 -9.7217379599040196e-04
1157 2.3476313869123205e-03 -3.6742629209254533e-03 -4.7047239619829630e-03
1158 -4.4969383875897327e-05 -1.3661881354173537e-03 -5.1569164444929209e-03
1159 2.9345270340808750e-03 -1.1649624128228710e-03 6.8236816962646883e-04
1160 -4.7445344679627952e-03 -2.2154412384926218e-03 -3.7640085078642217e-03
1161 -6.4665193868894671e-04 -1.6610681275202751e-03 -6.9363224993756406e-03
1168 5.6861338519191926e-03 4.4531393477933549e-03 -2.4901745508809628e-03
931 2.1554350967983955e-03 -5.0552792110081955e-03 3.9411155003121513e-03
958 1.8055952446900817e-05 3.2409398765148420e-03 5.7142188642407034e-03
959 4.8438652714838538e-03 -1.3565342591274907e-03 2.1178612385906650e-03
960 2.5446971118435642e-03 4.2219487216849753e-03 -4.3323249540316361e-03
962 7.9806076555992002e-05 -2.4630107642988884e-03 -1.0768347826412075e-03
963 -2.2155598232999735e-03 3.2443088242672820e-03 -9.2075765460964774e-03
965 -2.6791219515415817e-03 -4.0137927461403631e-04 8.7647761616040109e-04
966 -2.4466737689394433e-03 -1.4742249431681195e-03 6.7596983526167559e-03
967 3.9178884975741360e-03 7.2672409055252176e-03 2.8698047841517011e-03
968 7.1928206170373751e-04 -4.5371881208247627e-03 -4.2398772981921077e-03
970 3.0219849639152196e-04 -1.0688777903784131e-03 4.5953576315844935e-03
972 1.3003979428007830e-03 4.5209942653614780e-03 -7.3367019059796422e-03
973 -4.4755892000427388e-03 -3.9981490980289273e-03 2.3263961684819837e-03
1005 -5.9958321158776863e-03 -7.2919123088303634e-04 -3.7156529347912265e-03
1009 3.5748554413511553e-03 1.6608376956310526e-03 4.0554382858434745e-03
1012 -1.8060438152817061e-03 -1.7341314126688180e-03 7.0348073976445854e-03
1013 -1.2581444492936918e-03 5.7784919023856724e-03 -2.9431772854583145e-03
1015 -3.8833757756549992e-04 1.8191110539526574e-03 9.7233334051958550e-03
1016 8.1676024008329323e-03 2.2367170220039434e-03 -1.1182224278935764e-02
1017 1.4272904236687249e-02 3.1073902990927664e-03 3.5390630197528004e-03
1169 -7.7348893191145839e-04 7.8213775847895007e-03 -3.6919255954072890e-03
1170 -3.4569595631671803e-03 -3.6588789072782620e-04 3.2758409916082056e-03
1171 -4.1616270443324711e-03 2.4908010843200661e-03 3.5488674853571003e-03
1172 -8.3365799159232389e-04 -7.5345079487686576e-03 8.0461014602034482e-03
1183 -1.1627806980174116e-02 1.4420711182203943e-03 8.9587734665019392e-03
1184 -1.0448314753057823e-02 5.9710931002678030e-03 4.5959952995551880e-04
1185 -4.2803533985784055e-08 -4.3979846640707417e-03 3.2658643623199599e-03
1018 -1.8956926297931592e-02 1.2351141780801019e-03 -4.5130532363930964e-03
1020 -6.4472669333198659e-03 -6.5896833290129053e-03 1.4460983069545562e-04
1021 2.9941444516128467e-03 8.2129656607210879e-04 -9.3369093057069002e-05
1023 6.3290335143219717e-03 3.6776078166131068e-03 4.5620403913757372e-03
1024 4.8205299743811136e-03 -9.9426257768981080e-04 -4.1674334267047513e-03
1025 -8.9506350287996432e-04 1.1272002645584419e-02 3.8393008094577343e-03
1026 6.9087536714860435e-04 -4.2629693412513632e-03 3.8141927500738565e-04
1028 5.2930789228555547e-03 7.5815162228181250e-03 2.3176371263630632e-03
1030 2.5367086109815214e-03 1.0000697555792139e-02 1.1507626774184330e-03
1031 -1.5625030927612475e-03 5.9931250750104928e-03 5.4132326850344983e-03
1069 -5.1908112489460166e-03 6.5592749501585217e-05 1.1871323296451708e-03
1073 9.9713752777728427e-04 -2.3383494266334071e-04 2.1403705062923283e-03
1076 1.9409127987259956e-03 -5.1190240472089510e-03 5.9117540448805879e-03
1077 4.2738333855673501e-03 2.5633344814162995e-04 6.5264299598423729e-04
1079 1.5174077963784483e-03 -1.5870926889761500e-03 2.0260631241745095e-03
1080 1.0683697580042646e-03 -6.3605307144094987e-04 4.9803182413549266e-03
1081 3.3629060350948668e-03 -2.7732095438434074e-03 -4.3350148592235039e-03
1082 -5.9662806246904782e-03 2.4846314764331752e-03 5.5501330518484986e-04
1084 1.6321837500421390e-03 1.1437746157917143e-02 4.3329162389138635e-03
1085 -6.2044829660727590e-03 -8.1013371935716085e-04 1.5159121876091443e-03
1086 6.0830049545554550e-04 -7.1795732859372572e-03 -7.6957770757983303e-03
1123 -3.9307337846578973e-03 2.9218509166364457e-03 -1.2290409915411195e-02
1186 3.7476685204208674e-03 1.8481736366012249e-05 -1.8755883763812737e-03
1187 4.7322919412500254e-03 -5.0490573979329236e-03 4.8890507209975636e-03
1199 -9.1072108396562258e-03 -2.5254013955914685e-03 6.6842386758285853e-03
1200 -1.1873625763657554e-03 1.2451564121835956e-04 6.1095435317316937e-03
1201 -7.4716906966542783e-04 -2.7238828725197289e-04 -4.7356512445617376e-03
908 6.4226149446968599e-03 -3.0561255236314413e-04 8.5348492375887028e-03
910 -3.0337199230229851e-03 9.4132439738744706e-03 -5.4966624851437876e-04
935 -2.1500073381325812e-04 -3.4618407509908768e-04 2.4997073759016938e-03
936 -9.6670351641468149e-04 4.2552733630530082e-03 -2.8488984598026312e-03
938 -7.7369272754107109e-03 -8.8893415521368469e-03 2.9989487953621112e-03
939 -8.1356775653991052e-03 4.5090287838884247e-03 8.7560829476357547e-03
941 -3.8358752222891149e-04 5.3519167216716703e-03 -6.9446280465551872e-03
942 -1.3264550609367251e-03 -2.1667488806263293e-03 -1.7390735204515159e-03
943 8.0293873432153093e-03 -1.4828403322108012e-03 2.6000562493203264e-03
944 7.4391419069724058e-03 8.6694792388969974e-04 -9.5085666917755357e-03
946 4.2838163822459495e-04 -6.2985537486993136e-03 2.0449185305554119e-04
949 -6.4785581441571044e-03 -2.1685916717318950e-03 4.5917159740311046e-03
950 7.2051738026534633e-03 -4.1207768223938332e-03 6.7412981788888245e-03
952 -2.9219602056099526e-03 1.6541621003332259e-03 5.7235988387974767e-03
989 -1.7665520957883495e-03 1.0183430980160754e-03 2.3242456375398429e-03
991 8.6410656719273376e-04 5.2851684821382579e-03 -7.2504699120585015e-03
993 -7.0652264776630723e-03 -3.3775601368263228e-03 -2.1115746122618651e-03
994 -8.0205787849807492e-03 1.4157264676385676e-03 8.9307635486778770e-03
996 7.1724246955823037e-03 -1.2850244677538307e-03 -3.3362764463267672e-03
997 5.6155514747901819e-03 -1.7849679013392081e-03 5.3638682485439822e-03
999 6.7930107284229369e-03 9.5977040615011014e-03 2.3413920567315568e-03
1156 4.4460845494829933e-03 6.6581523775051301e-03 4.4861614900801403e-03
1163 9.5311878025019592e-04 2.1183175813681053e-03 3.8369536356574383e-03
1164 -5.6338029215722962e-03 -6.5814980622645935e-03 4.6805534275470373e-03
1165 8.1710857017206571e-03 5.1764411969957343e-03 -1.2901218011295691e-03
1166 3.4860640138276687e-03 5.3817280791340575e-03 4.1709483798588699e-03
1167 8.7251442788155301e-04 7.1323734744250366e-03 -1.4907580970356642e-03
1177 -1.9953619968221064e-03 1.7378587275665390e-03 4.9721590196040895e-03
1178 1.8482337993571214e-03 -3.3647954684610623e-03 4.8779742748225217e-03
1179 2.3434829360631954e-04 -7.6991284399039722e-03 2.5011189017742417e-03
1000 7.0286344931470403e-03 -1.4949995471291364e-03 8.5537369753109372e-03
1001 8.9186962597154265e-03 4.1745447987045232e-03 3.1067897179293696e-03
1002 -2.4492663318653691e-04 -3.7851130808591502e-03 5.7167914985585639e-03
1004 -2.6103653396632883e-03 -3.5322221295046685e-03 -6.3857720933172086e-03
1007 5.9412854081269100e-03 -3.8426831857422275e-03 -7.2736584182867565e-03
1008 1.0614498241474419e-02 2.0857040871857238e-03 -5.7621291909779925e-03
1010 -8.8732235552640472e-04 -3.1023522892118108e-03 1.2524270108955858e-03
1053 -1.3670540499751964e-03 -7.6774786044496175e-04 1.1657630577192862e-02
1055 1.6192548313216631e-03 -6.6448180737343357e-05 2.9125315266381397e-03
1057 -6.5599793994212761e-03 -9.7221086378287015e-03 -3.6271221421861504e-03
1058 4.1247200014646231e-04 -3.7455483554812347e-03 9.6815645199289035e-04
1060 1.2540983117515655e-03 3.4178730558630187e-03 2.1050941202898740e-04
1061 -1.5822960049049826e-03 -1.1108082604588047e-03 9.8488485097723323e-04
1063 -5.7604384900881555e-04 1.2614540851389839e-03 -5.1018874000888078e-03
1064 -1.2296182238835527e-02 -1.0894110236328355e-03 2.3347729435176899e-03
1065 -1.9336422827585906e-03 -6.4084384478082746e-03 -7.7081020652506171e-03
1180 5.5518153901321435e-03 6.8411332422013671e-04 -2.2872414112181162e-03
1181 2.9228870895990793e-03 -1.3934244991830836e-03 -1.4696283647846393e-03
1182 6.4747056846669487e-04 3.8662314294983582e-03 -6.3611070047523404e-03
1193 4.1015237090088951e-03 5.0594198905074229e-03 -3.2644644554860581e-03
1194 9.7654521651965994e-04 4.5521824963715499e-03 -2.4165676909582230e-03
1195 9.4240829151173364e-04 1.7192710298225560e-03 9.4241036509806655e-04
1196 -8.7245269981029089e-04 -5.4538043135650121e-03 -4.2360015393871296e-04
1197 -1.6746618704234627e-03 -3.1770617691647806e-03 2.1179628134264457e-03
1206 -1.0993806829356415e-02 -9.5285542719004013e-03 -2.7198367670789570e-03
1066 -6.3574393330940674e-03 9.1829590223731260e-04 5.4741555150483222e-03
1068 -2.2310316294411026e-03 -1.6387562336486573e-04 -9.0652421226472095e-03
1071 6.6810866386597381e-03 2.5661624333767448e-04 -7.9510779844254589e-04
1072 3.3421855133946702e-03 5.4967838603182159e-03 1.5098535719081229e-03
1074 2.6129741232059538e-03 -5.4811007375952776e-04 2.8765922454090050e-03
1107 -6.5532084696410045e-03 4.8225492994696123e-04 3.2273895718629170e-03
1109 8.3173712140741205e-04 -2.7043118661611008e-03 7.1167025665037882e-03
1111 1.7880482682205998e-03 -5.5795043091836222e-03 -3.6078372615132763e-03
1112 2.7368770618215721e-03 -3.2058686562742010e-03 -5.9693056456137025e-03
1114 -3.7630963402870070e-03 -4.4781230052337827e-03 1.0776976646888188e-02
1115 -4.2790906236149532e-03 -6.3004168572866198e-03 2.5924435867389507e-03
1117 -3.6426231881118974e-03 7.9526746124340198e-04 3.3090517969119990e-03
1118 6.2443806712939864e-03 1.4366552585364056e-03 4.3413668532975925e-03
1119 -3.3250646040624016e-03 1.7050305526502415e-03 -4.1725231739146362e-03
1120 5.5797148839900187e-03 -4.9822201885356210e-03 -8.3767167324364771e-03
1122 5.8562049625117615e-03 5.7777930786624722e-03 -7.7816213854189709e-03
1124 -3.7155335901455106e-03 -2.2074708670072178e-03 2.4760044665566496e-03
1145 7.2564821208596425e-03 -3.1166579827055594e-03 -2.3413646781347726e-03
1146 -2.8930945076424083e-03 2.5216847756816688e-03 2.7946045348359047e-03
1198 -5.0908504233157315e-03 8.1997625366001014e-04 -3.0083245539930215e-04
1207 -1.2758914062281825e-02 5.0464495241064698e-03 1.2421349287276109e-02
1208 3.8295224661153461e-03 -3.6585201774787799e-04 -2.5395989989598642e-03
1209 -1.6401432594206132e-03 -3.2527471926363780e-03 -6.4474808662695398e-03
1210 -1.2496702408701832e-03 3.1207228222239632e-03 -4.1874713672264896e-03
1215 2.3177467820955930e-03 2.6928702159178006e-03 1.0315200052591351e-02
906 -1.8322401742477791e-03 3.6340250622079253e-04 8.4745705974985357e-03
1155 -1.2307793321553621e-04 -8.0271461319218957e-04 -1.0717313601260362e-03
934 5.8371439801499659e-03 1.9894387461837320e-03 4.7034712904517450e-03
976 -1.2214542171374659e-02 -4.4008781486326847e-03 -1.7525817192422437e-03
977 2.1070977203266660e-03 7.4624427820343649e-03 -1.0364370764106327e-03
978 -1.8375594564379013e-03 6.1840638381433872e-03 1.9333748741370616e-03
980 -5.5923639717988917e-03 6.3922018198984878e-03 -4.4668880529184817e-03
981 6.8100379913912448e-03 1.2704463969287617e-03 -5.4888586743131714e-03
983 -4.5930393995119098e-03 3.8883743741651620e-03 -1.5382436848175088e-03
984 5.4624750602654320e-03 -4.2356684266901812e-03 2.3045877179555131e-03
985 4.5913611247600447e-03 -1.7480418109926440e-03 -3.3218795573634564e-03
986 3.6455129243427196e-03 4.0241754545476812e-03 -4.0008269572818413e-03
988 2.5046985129856241e-03 -4.0046025615948959e-03 -8.2817521709961026e-03
992 1.2310861519158861e-02 -4.6327082682691518e-03 -3.5504755109471483e-03
1033 -1.0649940283459475e-02 1.7091526394648136e-03 -2.2561758822356457e-03
1034 -6.8583303452741137e-04 3.3919532531648104e-05 1.3640982807524532e-03
1036 -4.3318947831508144e-03 2.8621942703569280e-03 -2.6011329788509542e-03
1037 -5.1624983998917072e-03 -7.0042661296648764e-03 -7.5279372732198957e-03
1039 -7.8736319875651517e-04 1.3906706727525064e-02 2.4660876753174986e-03
1040 -1.0304147239829880e-02 -1.5755018581032512e-03 -4.5374335860224550e-03
1041 6.3982810108716799e-03 1.4318688721973590e-03 9.9342708515511233e-03
1042 2.3487084098740571e-03 -1.8363954522421385e-03 1.4808853418038133e-03
1044 -2.4206199516512215e-03 -1.9979963671345803e-03 6.4063752563329971e-03
1045 -2.3190607933587853e-03 3.2220266576133390e-03 4.9232239196222109e-03
1047 2.1547645345483999e-03 4.3027007319188437e-03 4.9603109310344578e-03
1087 -3.4688199514587136e-04 -2.5853220412927519e-03 3.4190529964120125e-03
1174 -4.1947890303967008e-03 2.1417261278796357e-03 -3.3191454322981642e-03
1175 7.9869307320064413e-03 -5.8433180024445291e-03 -3.0905245496496586e-03
1176 6.7584271065643884e-03 -1.0051679122139905e-03 3.5557787568660116e-03
1189 1.3935379947796963e-04 1.2821719052777175e-03 2.6383401858103808e-03
1190 -1.5326271619301726e-03 -6.1091835107258711e-03 6.1505489903615632e-03
1191 2.2898551696963593e-03 1.1630182054655830e-03 -7.8979434120365413e-03
932 1.7755387286199948e-03 1.1425420457588516e-03 -1.4564363726883812e-03
1162 6.0022282797292017e-03 -3.6417385325435013e-03 -2.4057971852468256e-03
1173 5.2475823857333261e-03 -7.0374112788881690e-03 -4.9747042454610635e-04
1048 1.1067806689884546e-03 1.3154998735212390e-03 9.0006761508780160e-04
1049 -7.1165264308496430e-03 1.2614121829155004e-03 -7.6173278863754686e-04
1050 -4.4729278442270596e-03 5.0527958334556236e-03 -6.6308708841772614e-03
1052 7.6916268614479043e-03 9.7998818003321910e-03 5.0938782460013664e-03
1056 -1.4457414949129376e-03 -1.2240503742836016e-02 -5.7088081095876542e-03
1088 8.8660076205066864e-03 2.5177736030663534e-04 7.3046248489350169e-03
1090 -6.8772325112667534e-03 -7.5717566837260799e-03 4.3940236230662717e-03
1091 3.9749368827365792e-03 -2.9196462410190590e-03 -5.7957024208744193e-03
1093 2.5261235980325327e-03 5.1084392300346990e-03 3.5497273521644603e-03
1094 -8.5684723538870852e-04 4.6806778091926281e-03 1.1369850550711687e-04
1095 -1.3926762139010462e-03 5.0180780794684592e-03 -2.8988890807548997e-03
1096 3.5048068681644466e-03 -4.7463913890907180e-03 -3.7740403828903050e-04
1098 8.0122960675449561e-03 -9.2045622347028382e-03 5.6894909385734665e-03
1099 1.5114194243485309e-03 6.2308058445459460e-03 -2.9965407714953487e-03
1101 -1.9985439413145820e-03 2.4837108297789015e-03 4.3625087565306257e-03
1102 -5.1222483905091149e-03 3.7325009321116701e-03 5.7052944869655474e-03
1103 2.8029101972010125e-03 -1.3046126252789962e-03 -7.6914114795672986e-03
1125 5.8157159356397974e-03 -2.6440363478338734e-04 4.4643746786021728e-03
1126 7.6011211500334871e-03 6.2659718336139422e-04 2.7500363385693277e-04
1192 8.4704339832821652e-03 -7.0397026118448845e-05 2.4714508029218154e-03
1202 -3.3156668354523172e-03 1.7965295697471642e-03 5.4918008242129546e-03
1203 1.5631844239420668e-03 -1.3577543946763576e-03 -9.4581168286846859e-03
1204 2.9336066033930222e-03 -1.6966841841864822e-03 -3.7456393107901434e-03
1205 -1.7110812777955584e-03 1.3551770795110178e-04 7.5893756121057682e-04
1211 -1.0884156383204912e-03 5.1192341884372149e-03 1.5963918970798869e-03
974 4.1700500551143703e-03 -1.7657551653716675e-03 -4.1892655742119585e-03
1032 6.3623212374016376e-04 -5.6276122834025095e-04 2.8393274449233772e-03
1188 -2.1635689399904460e-03 -3.7592067237280044e-03 -8.7521161504686210e-03
1104 -3.9561131760497293e-03 -1.7518196855030776e-03 7.5344591659307607e-03
1106 6.8412494387952681e-03 5.8325987222585095e-03 2.5235328217057301e-03
1110 8.0371675319953328e-03 -6.7765664160592172e-04 2.0376128380935683e-03
1128 -6.7843206058587910e-03 1.0264307174058686e-02 -6.8223639118898281e-03
1129 -6.5349692266833117e-03 -2.1298366373597433e-04 -9.3435973879495843e-04
1131 4.1878519173643860e-04 -1.5744981692330476e-03 9.6940447857302603e-04
1132 -4.3776166074621379e-03 4.6014337148099832e-03 7.3444918742983003e-03
1133 2.4505798852667072e-03 1.1889722890150398e-02 -8.3607368775790911e-04
1134 -4.9215415907326214e-03 4.5053609935168520e-03 5.0813819573730500e-03
1136 2.6862271225371092e-03 -1.3813017736667671e-03 -3.5723243916463885e-03
1137 2.0822408015643990e-03 -3.6116474540061221e-03 -1.1132209882842492e-03
1139 1.1746745474941658e-03 2.2423602862081827e-03 1.4217183019262766e-04
1140 -2.4027522477323006e-03 -1.4171865117511634e-04 -6.7216155091202393e-03
1141 3.8018711580423098e-03 4.3055325051262350e-03 3.5585202287215590e-03
1142 3.8091313008194339e-03 6.2430894500340199e-03 4.0245744159173849e-04
1144 -1.0669092101776778e-03 -9.0604788124332483e-04 -1.7553039991145436e-03
1147 8.1638751877200696e-03 -6.7461492222986048e-03 -5.4786192177357449e-03
1148 -2.0797253135468961e-03 1.0580433581460963e-02 -8.5090519871170531e-03
1150 3.8325097570267989e-03 7.3053076429774703e-03 -4.0758127767712878e-03
1151 -1.1351616059616107e-03 6.9292289119300982e-03 6.6657695966035031e-04
1152 -7.0016978726023329e-04 6.1297691638385688e-03 3.1115796503371229e-03
1212 9.3400034649665064e-04 -3.6279754718558060e-03 2.0395930041540436e-03
1213 -6.1344279162941148e-03 3.4423058821713603e-04 2.3092655214678199e-03
1214 -2.3573128026993708e-03 -2.7699595937420332e-03 -1.7207446134890161e-04
1216 4.3850856643254336e-03 -3.9605203462221850e-03 4.8347346540149163e-03
