ITEM: TIMESTEP
0
ITEM: NUMBER OF ATOMS
1296
ITEM: BOX BOUNDS pp pp mm
0.0000000000000000e+00 2.2689985001334318e+01
0.0000000000000000e+00 2.2689985001334318e+01
-2.2283669804811876e+00 2.8523097350159201e+01
ITEM: ATOMS id type x y z vx vy vz
1 1 22.6891 3.78167 -0.994718 0 0 0
2 1 22.6891 1.26056 -0.994718 0 0 0
3 1 1.2597 1.26056 -1.67326 0 0 0
4 1 2.52063 1.26056 -0.99578 0 0 0
5 1 22.6891 8.82389 -0.994718 0 0 0
6 1 22.6891 6.30278 -0.994718 0 0 0
7 1 1.2597 6.30278 -1.67326 0 0 0
8 1 1.2597 3.78167 -1.67326 0 0 0
9 1 2.52063 6.30278 -0.99578 0 0 0
10 1 2.52063 3.78167 -0.99578 0 0 0
11 1 3.78156 3.78167 -1.67378 0 0 0
12 1 3.78156 1.26056 -1.67378 0 0 0
13 1 5.04269 3.78167 -0.996276 0 0 0
14 1 5.04269 1.26056 -0.996276 0 0 0
15 1 6.30388 1.26055 -1.6733 0 0 0
16 1 7.56417 1.26055 -0.994463 0 0 0
17 1 22.6891 13.8661 -0.994718 0 0 0
18 1 22.6891 11.345 -0.994718 0 0 0
19 1 1.2597 11.345 -1.67326 0 0 0
20 1 1.2597 8.82389 -1.67326 0 0 0
21 1 2.52063 11.345 -0.99578 0 0 0
22 1 2.52063 8.82389 -0.99578 0 0 0
23 1 3.78156 8.82389 -1.67378 0 0 0
24 1 3.78156 6.30278 -1.67378 0 0 0
25 1 5.04269 8.82389 -0.996276 0 0 0
26 1 5.04269 6.30278 -0.996276 0 0 0
27 1 6.30388 6.30277 -1.6733 0 0 0
28 1 6.30388 3.78166 -1.6733 0 0 0
29 1 7.56417 6.30277 -0.994463 0 0 0
30 1 7.56417 3.78166 -0.994463 0 0 0
31 1 8.82446 3.78166 -1.6725 0 0 0
32 1 8.82446 1.26055 -1.6725 0 0 0
33 1 10.0847 3.78167 -0.993536 0 0 0
34 1 10.0847 1.26056 -0.993536 0 0 0
35 1 11.3453 1.26055 -1.67176 0 0 0
36 1 12.6062 1.26055 -0.993691 0 0 0
37 1 22.6891 18.9083 -0.994718 0 0 0
38 1 22.6891 16.3872 -0.994718 0 0 0
39 1 1.2597 16.3872 -1.67326 0 0 0
40 1 1.2597 13.8661 -1.67326 0 0 0
41 1 2.52063 16.3872 -0.99578 0 0 0
42 1 2.52063 13.8661 -0.99578 0 0 0
43 1 3.78156 13.8661 -1.67378 0 0 0
44 1 3.78156 11.345 -1.67378 0 0 0
45 1 5.04269 13.8661 -0.996276 0 0 0
46 1 5.04269 11.345 -0.996276 0 0 0
47 1 6.30388 11.345 -1.6733 0 0 0
48 1 6.30388 8.82388 -1.6733 0 0 0
49 1 7.56417 11.345 -0.994463 0 0 0
50 1 7.56417 8.82388 -0.994463 0 0 0
51 1 8.82446 8.82388 -1.6725 0 0 0
52 1 8.82446 6.30277 -1.6725 0 0 0
53 1 10.0847 8.82388 -0.993536 0 0 0
54 1 10.0847 6.30278 -0.993536 0 0 0
55 1 11.3453 6.30277 -1.67176 0 0 0
56 1 11.3453 3.78166 -1.67176 0 0 0
57 1 12.6062 6.30277 -0.993691 0 0 0
58 1 12.6062 3.78166 -0.993691 0 0 0
59 1 13.867 3.78166 -1.67125 0 0 0
60 1 13.867 1.26055 -1.67125 0 0 0
61 1 15.1271 3.78166 -0.992389 0 0 0
62 1 15.1271 1.26055 -0.992389 0 0 0
63 1 16.3872 1.26055 -1.671 0 0 0
64 1 17.6475 1.26054 -0.992664 0 0 0
65 1 22.6891 21.4294 -0.994718 0 0 0
66 1 1.2597 21.4294 -1.67326 0 0 0
67 1 1.2597 18.9083 -1.67326 0 0 0
68 1 2.52063 21.4294 -0.99578 0 0 0
69 1 2.52063 18.9083 -0.99578 0 0 0
70 1 3.78156 18.9083 -1.67378 0 0 0
71 1 3.78156 16.3872 -1.67378 0 0 0
72 1 5.04269 18.9083 -0.996276 0 0 0
73 1 5.04269 16.3872 -0.996276 0 0 0
74 1 6.30388 16.3872 -1.6733 0 0 0
75 1 6.30388 13.8661 -1.6733 0 0 0
76 1 7.56417 16.3872 -0.994463 0 0 0
77 1 7.56417 13.8661 -0.994463 0 0 0
78 1 8.82446 13.8661 -1.6725 0 0 0
79 1 8.82446 11.345 -1.6725 0 0 0
80 1 10.0847 13.8661 -0.993536 0 0 0
81 1 10.0847 11.345 -0.993536 0 0 0
82 1 11.3453 11.345 -1.67176 0 0 0
83 1 11.3453 8.82388 -1.67176 0 0 0
84 1 12.6062 11.345 -0.993691 0 0 0
85 1 12.6062 8.82388 -0.993691 0 0 0
86 1 13.867 8.82388 -1.67125 0 0 0
87 1 13.867 6.30277 -1.67125 0 0 0
88 1 15.1271 8.82388 -0.992389 0 0 0
89 1 15.1271 6.30277 -0.992389 0 0 0
90 1 16.3872 6.30277 -1.671 0 0 0
91 1 16.3872 3.78166 -1.671 0 0 0
92 1 17.6475 6.30276 -0.992664 0 0 0
93 1 17.6475 3.78165 -0.992664 0 0 0
94 1 18.9076 3.78166 -1.67134 0 0 0
95 1 18.9076 1.26055 -1.67134 0 0 0
96 1 20.168 3.78167 -0.993257 0 0 0
97 1 20.168 1.26056 -0.993257 0 0 0
98 1 21.4282 1.26056 -1.67219 0 0 0
99 1 3.78156 21.4294 -1.67378 0 0 0
100 1 5.04269 21.4294 -0.996276 0 0 0
101 1 6.30388 21.4294 -1.6733 0 0 0
102 1 6.30388 18.9083 -1.6733 0 0 0
103 1 7.56417 21.4294 -0.994463 0 0 0
104 1 7.56417 18.9083 -0.994463 0 0 0
105 1 8.82446 18.9083 -1.6725 0 0 0
106 1 8.82446 16.3872 -1.6725 0 0 0
107 1 10.0847 18.9083 -0.993536 0 0 0
108 1 10.0847 16.3872 -0.993536 0 0 0
109 1 11.3453 16.3872 -1.67176 0 0 0
110 1 11.3453 13.8661 -1.67176 0 0 0
111 1 12.6062 16.3872 -0.993691 0 0 0
112 1 12.6062 13.8661 -0.993691 0 0 0
113 1 13.867 13.8661 -1.67125 0 0 0
114 1 13.867 11.345 -1.67125 0 0 0
115 1 15.1271 13.8661 -0.992389 0 0 0
116 1 15.1271 11.345 -0.992389 0 0 0
117 1 16.3872 11.345 -1.671 0 0 0
118 1 16.3872 8.82388 -1.671 0 0 0
119 1 17.6475 11.345 -0.992664 0 0 0
120 1 17.6475 8.82387 -0.992664 0 0 0
121 1 18.9076 8.82388 -1.67134 0 0 0
122 1 18.9076 6.30277 -1.67134 0 0 0
123 1 20.168 8.82388 -0.993257 0 0 0
124 1 20.168 6.30277 -0.993257 0 0 0
125 1 21.4282 6.30278 -1.67219 0 0 0
126 1 21.4282 3.78167 -1.67219 0 0 0
127 1 8.82446 21.4294 -1.6725 0 0 0
128 1 10.0847 21.4294 -0.993536 0 0 0
129 1 11.3453 21.4294 -1.67176 0 0 0
130 1 11.3453 18.9083 -1.67176 0 0 0
131 1 12.6062 21.4294 -0.993691 0 0 0
132 1 12.6062 18.9083 -0.993691 0 0 0
133 1 13.867 18.9083 -1.67125 0 0 0
134 1 13.867 16.3872 -1.67125 0 0 0
135 1 15.1271 18.9083 -0.992389 0 0 0
136 1 15.1271 16.3872 -0.992389 0 0 0
137 1 16.3872 16.3872 -1.671 0 0 0
138 1 16.3872 13.8661 -1.671 0 0 0
139 1 17.6475 16.3872 -0.992664 0 0 0
140 1 17.6475 13.8661 -0.992664 0 0 0
141 1 18.9076 13.8661 -1.67134 0 0 0
142 1 18.9076 11.345 -1.67134 0 0 0
143 1 20.168 13.8661 -0.993257 0 0 0
144 1 20.168 11.345 -0.993257 0 0 0
145 1 21.4282 11.345 -1.67219 0 0 0
146 1 21.4282 8.82389 -1.67219 0 0 0
147 1 13.867 21.4294 -1.67125 0 0 0
148 1 15.1271 21.4294 -0.992389 0 0 0
149 1 16.3872 21.4294 -1.671 0 0 0
150 1 16.3872 18.9083 -1.671 0 0 0
151 1 17.6475 21.4294 -0.992664 0 0 0
152 1 17.6475 18.9083 -0.992664 0 0 0
153 1 18.9076 18.9083 -1.67134 0 0 0
154 1 18.9076 16.3872 -1.67134 0 0 0
155 1 20.168 18.9083 -0.993257 0 0 0
156 1 20.168 16.3872 -0.993257 0 0 0
157 1 21.4282 16.3872 -1.67219 0 0 0
158 1 21.4282 13.8661 -1.67219 0 0 0
159 1 18.9076 21.4294 -1.67134 0 0 0
160 1 20.168 21.4294 -0.993257 0 0 0
161 1 21.4282 21.4294 -1.67219 0 0 0
162 1 21.4282 18.9083 -1.67219 0 0 0
163 1 0.0172457 2.52215 -0.00100877 0.00683401 0.00128152 -0.00105479
164 1 0.015703 3.77475 2.63405 -0.00504366 0.00156507 -0.00462795
165 1 22.6792 1.35206 2.6306 0.0023737 -0.00675725 0.00381833
166 1 1.1994 2.53877 0.84524 0.000513186 3.86722e-05 -0.00138801
167 1 22.6656 0.0610363 -0.00812036 0.0052928 -0.00541425 -0.00472389
168 1 1.20004 1.23816 1.75777 0.000599969 0.000882662 -0.00392757
169 1 2.46596 22.6748 0.0205665 0.00773347 0.00418863 0.00329641
170 1 1.20369 0.0102047 0.888147 0.000689204 -0.00123989 0.0016328
171 1 2.49354 1.3103 2.62205 0.00327743 -0.00321628 0.00345059
172 1 3.73329 22.6776 0.859111 -0.00222705 0.00835607 -0.00286948
173 1 0.0249195 7.54028 -0.0448369 0.00379633 0.00321968 0.00117611
174 1 22.6342 8.84492 2.60152 -0.00192929 0.00400599 0.00120863
175 1 22.6712 6.30492 2.6447 0.0108645 -0.0017382 0.000479342
176 1 1.24032 7.50772 0.824024 -0.00169513 0.00940419 -0.00242991
177 1 22.6697 5.04368 -0.0629191 -0.00313366 -0.000979361 -0.0062235
178 1 1.21589 6.27435 1.74787 0.000383585 0.00318162 0.00142888
179 1 1.26749 3.80786 1.75475 -0.00954247 0.000460245 0.000120945
180 1 2.50931 5.02886 -0.0440993 0.00134537 -0.00369267 0.00453615
181 1 1.27224 5.02181 0.825549 -0.00286856 -0.00610346 0.00115985
182 1 2.51144 6.26682 2.61094 -7.50672e-05 0.0098149 -0.000712809
183 1 2.48891 3.86464 2.68515 -0.00117797 0.00288401 0.00646141
184 1 3.73862 5.02893 0.852245 0.006005 -0.000488676 0.00180934
185 1 2.51755 2.49326 -0.0532089 0.00585497 0.00260251 0.00400445
186 1 3.77899 3.74317 1.72676 -0.00724851 -0.00395079 -0.0079708
187 1 3.72605 1.28162 1.73639 -0.00718499 0.00240208 0.000333991
188 1 5.03779 2.49708 -0.0014794 0.00118627 0.0009208 0.00306581
189 1 3.75296 2.48926 0.795286 0.00212596 0.00111523 0.00652028
190 1 5.00765 3.79232 2.62602 0.00468653 0.00134736 -0.00451422
191 1 4.97161 1.31223 2.64612 0.00436271 0.00326822 0.00534243
192 1 6.26363 2.50822 0.904729 0.00421619 0.00234095 0.00302687
193 1 5.03267 0.0484464 -0.0102183 -0.00860181 0.00282025 0.00422359
194 1 6.28393 1.23671 1.79526 -0.000596933 0.000586403 0.00393621
195 1 7.60025 0.0124036 -0.0570504 0.00258033 -0.00158705 0.00698113
196 1 6.34285 22.6856 0.837203 -0.00920786 -0.00202423 0.00470382
197 1 7.55546 1.24346 2.68118 0.00166798 -0.00376437 -0.00809986
198 1 8.83041 0.024881 0.878616 0.00696806 -0.00799298 -0.00400184
199 1 22.6865 12.634 -0.0320795 -0.000156246 0.00724462 0.00117622
200 1 22.687 13.9231 2.63888 -0.00328578 -0.00196372 0.00249837
201 1 22.6871 11.3403 2.62578 -0.00300848 -0.000783058 0.00868533
202 1 1.27317 12.5722 0.837463 -0.00243295 -0.00380325 -0.00419644
203 1 0.00526499 10.0725 -0.0332468 -0.00392463 -0.000441748 0.00145429
204 1 1.30591 11.316 1.74396 -0.000920335 0.00622717 -0.0127037
205 1 1.23137 8.86115 1.74509 -0.00545623 0.0019589 -0.00309882
206 1 2.53904 10.0918 0.00569878 -0.00233647 -0.00306305 0.000253281
207 1 1.29125 10.0778 0.848318 0.00612468 0.000202019 0.00462989
208 1 2.54615 11.3113 2.65185 -0.000434669 0.00140664 -0.00743041
209 1 2.50141 8.84068 2.71261 0.0103932 0.000535156 -0.00103257
210 1 3.78747 10.1052 0.900864 0.00325321 -0.010715 -0.000490549
211 1 2.47909 7.52473 -0.0113363 0.00323473 -0.00934654 -0.00414385
212 1 3.75526 8.8231 1.80267 0.00781408 0.00441469 0.00564016
213 1 3.75523 6.25541 1.81976 -0.00243281 0.00190426 0.000976389
214 1 5.04824 7.52455 0.00952803 0.00167967 -0.00146796 -0.000211905
215 1 3.75251 7.53607 0.892875 0.00388504 0.00157331 0.00776989
216 1 5.11799 8.85093 2.68244 -0.0020021 0.00369618 -0.00853028
217 1 5.0786 6.30414 2.66593 -0.00585826 0.00334009 0.00170465
218 1 6.30759 7.57918 0.857833 0.00263739 -1.80811e-05 -0.0182152
219 1 4.9945 4.99753 0.0247572 -0.00633352 0.00147657 0.00690233
220 1 6.31423 6.35719 1.70947 -0.00551855 0.00992246 -0.00614453
221 1 6.30436 3.79333 1.79453 -0.011063 0.000614339 -0.00758387
222 1 7.52909 5.0916 -0.0678599 -0.00229485 -0.00347476 0.0121958
223 1 6.26935 5.05417 0.846665 0.00734589 -0.0098746 -0.00385703
224 1 7.59315 6.35955 2.5736 0.00774647 -0.00290737 0.00424365
225 1 7.54423 3.84386 2.64686 0.0028735 -0.00588187 0.00200141
226 1 8.82096 5.09333 0.84162 0.00337735 0.00463721 0.00867296
227 1 7.56481 2.51817 0.0387868 4.49416e-05 0.00125042 0.00650263
228 1 8.80834 3.8045 1.7243 0.00101929 -0.00588439 -0.00315325
229 1 8.80131 1.28461 1.79617 -0.00276762 0.00184514 0.00322206
230 1 10.1112 2.52216 0.00963984 -0.0074434 -0.00581929 0.00125786
231 1 8.87847 2.55892 0.873948 0.0129364 -0.00547208 -0.00772948
232 1 10.0328 3.80172 2.60016 -0.00872773 -0.00840167 0.00473415
233 1 10.0581 1.28235 2.69962 -0.00634301 -0.0070722 0.0106067
234 1 11.3454 2.53851 0.868052 0.00444213 -0.00538684 -0.00909226
235 1 10.0917 0.00734648 0.0268416 0.00228837 0.00720323 0.00816021
236 1 11.3758 1.26176 1.76996 -0.00525092 0.00163774 0.00155931
237 1 12.5839 0.0508374 -0.0106808 0.00631085 -0.00517689 -0.000366942
238 1 11.3919 0.00462497 0.930329 -0.00625643 -0.00474902 0.000403081
239 1 12.6725 1.32152 2.63998 0.0119264 -0.00445071 0.00427612
240 1 13.8121 0.0588447 0.808463 -0.00575504 -0.00123829 0.00813726
241 1 0.000162624 17.6587 -0.0181313 -0.00860235 -0.00816576 -0.00814574
242 1 0.00788573 18.9249 2.68046 0.00661038 0.0139442 0.00379913
243 1 22.6862 16.3613 2.62579 0.000210129 -0.00203919 0.000413752
244 1 1.22882 17.6882 0.81213 -0.00493826 -0.00243898 0.00647697
245 1 0.00269341 15.1246 0.0307914 -0.00864031 0.00614917 -0.00906999
246 1 1.24671 16.4197 1.68843 -0.00200587 -0.00333847 -0.000990445
247 1 1.31453 13.8939 1.70926 -0.000840466 -0.00756408 -0.00100215
248 1 2.58732 15.1126 -0.00793153 0.00625309 0.00138646 -0.00285461
249 1 1.26011 15.1571 0.83203 0.00198051 0.00176481 -0.00524578
250 1 2.51862 16.3704 2.66179 0.00170792 -0.00119261 -0.00243409
251 1 2.61829 13.8748 2.57876 -0.00494391 -0.00413759 0.00766467
252 1 3.83194 15.1769 0.821529 -0.00625004 -0.00379055 0.0014347
253 1 2.52073 12.5874 -0.0429779 0.00238103 -0.000959816 -0.00524637
254 1 3.82263 13.8687 1.74856 -0.010396 -0.00120752 0.0005731
255 1 3.83674 11.3317 1.73806 -0.00621734 -0.000246063 0.0110493
256 1 5.07642 12.5822 -0.00459742 0.0017702 -0.00264884 -0.00227901
257 1 3.83744 12.5819 0.855099 -2.63472e-05 0.00057246 0.00876079
258 1 5.08779 13.8631 2.66337 0.00260788 0.0071277 -0.00813143
259 1 5.04726 11.3523 2.58422 -0.00925829 -0.00209164 -0.00468131
260 1 6.34157 12.5821 0.869705 -0.00334967 -0.00592838 -0.00389095
261 1 5.05712 10.0573 -0.0181085 0.000690351 0.00942532 -0.00457669
262 1 6.33072 11.317 1.73899 -0.00306878 -0.000854596 0.00477882
263 1 6.29973 8.80355 1.71187 0.0027585 -0.00109653 -0.0056926
264 1 7.49047 10.1048 0.0279836 -0.0146245 0.00543747 -0.00601014
265 1 6.2842 10.0259 0.894754 0.0113878 0.000566733 -0.00308752
266 1 7.56565 11.3456 2.57834 0.00343402 0.00704429 0.00036481
267 1 7.63035 8.85321 2.6059 0.00329476 0.00126426 -0.00549595
268 1 8.80258 10.0468 0.84985 -0.00592543 -0.00538084 0.00207977
269 1 7.59475 7.59608 -0.0445727 -0.000549441 -0.00103974 0.000226851
270 1 8.89459 8.82481 1.77098 -0.0041009 -0.00167512 0.00257212
271 1 8.83207 6.35459 1.69718 0.00885088 -0.000950609 -0.00557768
272 1 10.106 7.54864 -0.0135203 0.00756201 0.00102447 -0.00818437
273 1 8.83929 7.59558 0.777887 -0.00508379 -0.00314834 -0.00284988
274 1 10.115 8.85856 2.68994 -0.00749123 -0.00919491 0.00297393
275 1 10.0841 6.30375 2.63025 -0.00312306 0.00444907 -0.00475468
276 1 11.3393 7.53122 0.83107 -0.0103852 0.000450896 -0.00440818
277 1 10.0501 4.97058 -0.0158419 0.000935129 -0.00235896 -0.00184696
278 1 11.3417 6.24869 1.75596 -0.00507362 -0.00769397 0.0075976
279 1 11.3112 3.80654 1.70715 -0.00720889 0.00365645 -0.00209822
280 1 12.6304 5.08623 -0.0184434 -0.00426665 -0.00514544 -0.0025212
281 1 11.34 5.06907 0.848406 0.00174252 -0.00104733 0.0002581
282 1 12.6487 6.33305 2.65286 0.00610467 -0.00506563 -9.33618e-06
283 1 12.6363 3.77419 2.55602 -7.88767e-05 0.000622359 0.00380298
284 1 13.8925 5.07944 0.84385 0.00498486 0.00842937 0.000823452
285 1 12.5788 2.54802 -0.0461258 -0.000813851 -0.00194039 -0.00158444
286 1 13.8799 3.77682 1.69548 0.00556617 0.00508606 -0.0155439
287 1 13.8981 1.32387 1.71713 -0.00836933 0.0022587 -0.00450915
288 1 15.1542 2.54231 2.00053e-05 0.00376354 -0.00703734 0.00181355
289 1 13.8899 2.58535 0.803509 -0.00411241 -0.000859936 -0.00305229
290 1 15.0912 3.80213 2.6011 -0.0103283 -0.00195696 0.00471771
291 1 15.1161 1.29644 2.58007 -0.00533844 -0.00325068 -0.000455901
292 1 16.4401 2.54719 0.879634 0.00562783 0.00664825 0.00441224
293 1 15.0628 22.6889 0.0129135 0.00348706 0.00553078 0.00355232
294 1 16.4129 1.27767 1.74088 -0.000523873 -0.00389409 -0.00309103
295 1 17.6614 0.0127102 0.00611906 -0.00729539 0.00456087 0.00490815
296 1 16.3584 0.012172 0.83872 0.0055536 -0.0052763 -0.000784763
297 1 17.6343 1.25145 2.67237 0.000999734 -0.0118576 0.00130438
298 1 18.878 22.672 0.882123 -0.00756354 -0.00428481 0.00361652
299 1 0.0372112 21.4433 2.68511 -0.00939755 -0.00775269 0.00218407
300 1 0.0125487 20.1523 0.0268356 -0.0013953 -0.00640792 -0.00388872
301 1 1.30163 21.4226 1.71178 0.0070317 0.0030605 -0.0035906
302 1 1.25842 18.9727 1.76023 0.00134526 0.00395312 -0.00793108
303 1 2.52454 20.1128 -0.0444325 -0.0046259 -0.00250363 -0.0141607
304 1 1.26886 20.1896 0.841722 0.00727041 0.000980901 0.00268318
305 1 2.51483 21.3571 2.5998 0.00288862 -0.0061903 -0.0028292
306 1 2.53602 18.8759 2.63647 0.000392433 -0.00568158 -0.00329843
307 1 3.79716 20.1008 0.77419 0.00131538 0.00726777 -0.0108915
308 1 2.48716 17.6131 -0.0277494 -0.00572142 0.000650861 0.0033746
309 1 3.78147 18.8979 1.71237 0.00941953 -0.00410334 0.0032551
310 1 3.83036 16.4408 1.72127 0.00211236 0.00143905 0.00209771
311 1 5.00525 17.6854 -0.0215399 0.00289121 0.0101575 -0.00300027
312 1 3.74809 17.598 0.856558 -0.00367605 -0.0050484 0.00887746
313 1 5.03899 18.9228 2.63322 0.0046993 -0.000118082 0.000194582
314 1 5.09671 16.3955 2.64602 -0.00512243 -0.00292906 -0.00224792
315 1 6.3451 17.6753 0.837937 -0.00203872 -0.00722689 0.00295939
316 1 5.08951 15.1722 -0.0646655 -0.00888225 0.00341795 -0.00631867
317 1 6.33187 16.3986 1.6872 0.00230285 -0.00690642 -0.00171625
318 1 6.35239 13.8636 1.78167 0.00491721 -0.0070708 -0.00176674
319 1 7.59584 15.1601 -0.0556674 0.00308484 -0.0050746 0.00182657
320 1 6.33316 15.1186 0.816951 0.00747175 0.0123047 0.00959241
321 1 7.60517 16.3941 2.57018 0.00559657 0.0018851 0.00216496
322 1 7.60379 13.8888 2.70887 -0.000360743 0.00269331 0.000886622
323 1 8.84025 15.1488 0.821586 0.00272181 -0.00347493 -0.00125381
324 1 7.55564 12.6315 0.016666 -0.00335163 -0.000210496 0.000154767
325 1 8.86783 13.9 1.76444 -0.000493279 0.00906704 0.00623987
326 1 8.85283 11.3209 1.72494 0.00548995 -0.00582307 0.00105066
327 1 10.0769 12.6196 0.0242922 -0.00419117 -0.00755849 0.00728476
328 1 8.86191 12.6008 0.872698 0.000565398 0.00238045 0.00363001
329 1 10.1275 13.874 2.602 -0.00529988 0.0100834 0.00521128
330 1 10.1283 11.4074 2.65436 0.00169957 0.00735581 0.00414824
331 1 11.3472 12.6029 0.842483 0.00027242 -0.00387907 -0.00296781
332 1 10.0607 10.0858 -0.0275005 -0.00662338 -0.00153013 0.00266057
333 1 11.3441 11.3073 1.70926 0.012322 -0.00903218 0.00275659
334 1 11.336 8.80768 1.77149 -0.00276078 -0.00410304 0.00311967
335 1 12.6361 10.1261 -0.0423082 0.000694043 0.00406621 0.00752496
336 1 11.3497 10.0824 0.839726 -0.00514803 -0.00725428 0.00289421
337 1 12.6363 11.3582 2.63802 0.00302613 -0.00385752 0.00189338
338 1 12.5992 8.80541 2.62913 0.00734388 0.00257894 -0.00484644
339 1 13.8405 10.1147 0.824447 -0.00341936 0.00516496 0.000582224
340 1 12.6226 7.54343 -0.0128599 0.00024022 -0.0046757 -0.00534986
341 1 13.8661 8.86409 1.67259 -0.000599247 0.00320165 -0.0066913
342 1 13.9111 6.33574 1.71199 -0.000579464 -8.50323e-05 -0.00124082
343 1 15.1719 7.55777 0.00470487 -0.00299073 -0.000514503 -0.0134825
344 1 13.8827 7.59029 0.830117 -0.000743185 0.0113541 -0.00213022
345 1 15.0769 8.84744 2.5964 0.00169633 -0.00077827 0.0106137
346 1 15.1699 6.33462 2.60905 0.00284538 -0.000611957 -0.00117553
347 1 16.3775 7.59879 0.832881 -0.00434863 0.00075456 -0.00783241
348 1 15.1216 5.05736 -0.0366581 -0.00331335 0.000588719 -0.00509367
349 1 16.392 6.29429 1.69759 0.00163058 0.00155151 -0.0142184
350 1 16.3535 3.81141 1.72521 0.0108169 -0.00554158 0.00429121
351 1 17.5714 5.05683 -0.0185326 -0.00369515 -0.00288427 -0.00880983
352 1 16.3782 5.08269 0.878889 0.00365114 0.00693563 0.0120467
353 1 17.5929 6.2908 2.5622 0.00880047 0.00071042 -0.0005596
354 1 17.6257 3.76679 2.60113 -0.00302024 0.00443839 0.00301067
355 1 18.8644 5.04482 0.840672 0.00997363 -0.0121529 -0.00594339
356 1 17.6891 2.51139 -0.0038462 -0.0095587 -0.000822626 -0.00107912
357 1 18.9409 3.77993 1.73693 -0.00609522 -0.00992075 0.00112748
358 1 18.9128 1.26095 1.74393 0.00285014 0.00109564 0.000292373
359 1 20.1883 2.52947 -0.0301426 -0.00351152 -0.00165397 -0.00651558
360 1 18.9387 2.52579 0.866151 -0.00428859 0.0106977 0.00345918
361 1 20.1354 3.82147 2.65506 -0.00217038 0.00328807 -0.00444183
362 1 20.1789 1.2339 2.64572 -0.00301921 -0.00569344 -0.00174483
363 1 21.4266 2.5956 0.878415 -0.000473745 -0.00332439 0.00277813
364 1 20.138 0.0415255 -0.0354797 -0.00444043 -0.0081094 0.00767783
365 1 21.4371 1.25059 1.73595 0.00787081 0.00367197 -0.00195558
366 1 21.4246 0.0835343 0.862659 -0.0060906 -0.00435932 0.000950057
367 1 3.75101 21.4086 1.74297 0.0038984 -0.00810615 -0.00542047
368 1 5.03856 21.4473 2.65731 -0.00280107 0.00219826 -0.00609973
369 1 5.04062 20.1806 -0.00598327 -0.00426555 -0.00268115 0.000815415
370 1 6.28407 21.4944 1.72862 -0.00472124 -0.00178602 -0.011413
371 1 6.31019 18.8851 1.73942 -0.00711157 1.30381e-07 0.00340281
372 1 7.52548 20.1649 0.0112314 0.00837761 -0.00290245 0.00503861
373 1 6.32835 20.1791 0.833176 0.00389581 0.00307685 0.00709519
374 1 7.55106 21.4178 2.6285 0.0030798 0.00136572 -0.000132036
375 1 7.58783 18.9432 2.65692 0.00792851 -0.00379657 -0.00607492
376 1 8.79639 20.1393 0.873124 -0.0067306 -0.00155541 0.00052103
377 1 7.52334 17.7038 -0.0380777 -0.00136502 0.00148347 -0.00499116
378 1 8.82995 18.8836 1.77132 0.00205683 0.00262676 -0.00352646
379 1 8.82995 16.3855 1.68202 0.000479504 -0.00414519 -0.00133216
380 1 10.0417 17.6174 -0.0539851 -0.00169189 0.000950302 0.00351476
381 1 8.76465 17.6233 0.839277 -0.00232569 0.0119585 0.00343926
382 1 10.062 18.8837 2.60741 -0.0012891 0.000466499 -0.00388674
383 1 10.0869 16.3722 2.61216 0.00585388 0.000948136 0.00345873
384 1 11.299 17.657 0.796914 -0.00303787 -0.00524171 -0.00770879
385 1 10.1029 15.0614 0.005459 0.00085831 -0.00450454 -0.000716011
386 1 11.3265 16.3831 1.71617 -0.000196649 0.00937083 0.00506726
387 1 11.3154 13.8267 1.7229 -0.00365893 0.00159201 0.00170081
388 1 12.5849 15.0224 -0.017212 0.00262378 0.00497671 0.000115767
389 1 11.3404 15.0657 0.845134 0.00203619 0.000264711 -0.000258372
390 1 12.5573 16.3717 2.63305 -0.00331353 0.00647876 0.00414271
391 1 12.579 13.8629 2.62519 -0.00111971 0.00105118 -0.0014233
392 1 13.9036 15.1131 0.820397 -0.0129279 -0.00401223 0.00476779
393 1 12.625 12.622 0.00917022 0.00396887 0.00474849 0.00371777
394 1 13.8415 13.8765 1.73159 0.0106682 0.00078569 -0.00512687
395 1 13.8762 11.3521 1.76487 0.0107752 0.000765606 -0.00143422
396 1 15.1324 12.603 -0.054746 0.00267825 -0.00358144 -0.00289278
397 1 13.9412 12.6034 0.836122 -0.00279215 -0.00220125 -0.00585675
398 1 15.1221 13.8556 2.58954 -0.00201008 -0.00772101 -0.000613781
399 1 15.1554 11.3652 2.66364 -0.00615905 0.005891 -0.00127102
400 1 16.4218 12.6068 0.847788 0.00351145 0.00306404 0.00102395
401 1 15.1201 10.1322 -0.0492881 -0.00352988 -0.00726583 0.00457851
402 1 16.3585 11.4078 1.70148 -0.000666921 0.00774619 -0.0026222
403 1 16.3948 8.84132 1.75776 0.0033972 -0.00722102 -0.00293122
404 1 17.6124 10.0777 0.00510496 0.0068632 0.00123181 -0.0053337
405 1 16.3557 10.1086 0.867632 0.00410902 0.00222094 -0.000440662
406 1 17.6905 11.3597 2.65508 0.00623128 -0.000568503 -0.00761057
407 1 17.626 8.82944 2.69157 -0.00730799 0.00124383 0.00471167
408 1 18.8886 10.0531 0.812013 0.000418534 -0.00900447 -0.00958471
409 1 17.637 7.59475 -0.00441036 0.00341477 0.00398549 -0.00553368
410 1 18.8969 8.83384 1.81936 0.00954927 0.000245285 -0.00707769
411 1 18.8798 6.2717 1.73184 -0.00719269 0.00746617 -0.00416896
412 1 20.1483 7.5972 0.0137139 0.00381672 0.00186947 0.00322404
413 1 18.8921 7.5531 0.888415 -0.00529197 0.00444597 -0.00221016
414 1 20.1187 8.7934 2.64009 0.0184514 0.00250467 0.00242155
415 1 20.1074 6.24498 2.63012 -0.00213017 0.00355542 0.00585867
416 1 21.4325 7.54513 0.817475 0.000414729 -0.00448812 0.000315021
417 1 20.1592 4.98551 -0.0145943 0.00184865 -0.00525809 0.00423825
418 1 21.4052 6.32059 1.72598 0.000647188 -0.00327986 -0.000418769
419 1 21.445 3.81161 1.75691 0.00386818 -0.000424057 -0.0065151
420 1 21.4613 5.0211 0.816092 0.00216532 0.000166448 0.0035219
421 1 8.79787 21.4539 1.78639 0.00652228 0.000925362 0.00153665
422 1 10.0621 21.4699 2.5909 0.00909184 0.00209264 0.00220264
423 1 10.0717 20.2089 -0.00598076 0.00456622 -0.00666091 0.00156853
424 1 11.3444 21.4291 1.75067 -0.00112374 -0.00531711 0.00467506
425 1 11.3026 18.939 1.71034 -0.00263041 0.00454046 -0.00469126
426 1 12.6389 20.1154 -0.0232679 -0.00162005 0.00786197 0.00668799
427 1 11.314 20.1579 0.849372 0.000191257 0.00441188 -0.00199389
428 1 12.6002 21.3893 2.68357 0.00461036 -0.00352724 0.00153245
429 1 12.5444 18.8699 2.64858 0.00502573 -0.00281965 0.00244022
430 1 13.8627 20.1928 0.896767 0.0061127 -0.00185489 0.000207224
431 1 12.5715 17.7002 -0.051868 -0.00254733 -0.0015299 -0.00420876
432 1 13.829 18.9057 1.76999 0.00438257 0.00300649 0.00612121
433 1 13.8175 16.3626 1.77106 0.00394811 -0.00124753 0.00378838
434 1 15.1081 17.6696 0.0235717 0.00796067 -0.0049974 -0.00364212
435 1 13.8155 17.6501 0.857996 0.00592709 0.00609841 0.000135474
436 1 15.1145 18.8843 2.65283 0.00389452 -0.00846298 -0.00418322
437 1 15.1319 16.4106 2.60973 -0.000650176 0.00356236 0.0110849
438 1 16.3944 17.6719 0.865614 0.00297881 -0.000446371 -0.00765101
439 1 15.117 15.1051 -0.0270779 0.00540798 -0.00657187 0.00036461
440 1 16.3662 16.3654 1.76192 0.00466732 -0.000687688 -0.00524501
441 1 16.398 13.8604 1.78174 -0.00227756 0.000345936 0.000587884
442 1 17.6087 15.1387 -0.00312498 0.00415744 -0.00177228 0.00824968
443 1 16.3778 15.1301 0.870181 0.0146938 -0.00336975 0.00454635
444 1 17.6554 16.3842 2.62407 0.00241478 0.00874167 -0.00197452
445 1 17.5813 13.8254 2.68337 -0.000272686 0.00495192 0.00953256
446 1 18.9065 15.1 0.859208 0.00382035 0.00410663 0.0147339
447 1 17.637 12.5937 -0.0192869 0.00441673 -0.00203944 0.00301913
448 1 18.8597 13.8256 1.76433 0.00661114 0.00314742 0.00640753
449 1 18.957 11.378 1.75943 -0.00617981 -0.0034635 -0.00235028
450 1 20.1835 12.6199 -0.0466718 -0.00434745 0.00352658 -0.00209464
451 1 18.9665 12.5794 0.865773 -0.00751164 -0.00982484 0.000136968
452 1 20.0739 13.8542 2.64355 -0.0004202 -0.00265289 -0.00229758
453 1 20.1899 11.3242 2.61304 0.00503112 0.000848467 0.000115833
454 1 21.4268 12.639 0.799227 -0.00382488 0.00460191 0.00341208
455 1 20.1299 10.1049 -0.0296765 -0.00591281 0.000424532 -0.0027212
456 1 21.4417 11.3153 1.72431 0.00142245 -0.00396963 -0.00811557
457 1 21.3589 8.79806 1.6903 -0.003254 -0.00372397 -0.00652915
458 1 21.4151 10.0921 0.823192 -0.00458514 0.0111038 0.00239606
459 1 13.8041 21.4683 1.77788 -0.00381438 0.00397889 0.00124008
460 1 15.0822 21.4154 2.72457 0.00226576 -0.00373595 0.00177475
461 1 15.1726 20.1741 0.000887894 -0.000730349 0.00293326 -0.00507643
462 1 16.3304 21.4082 1.73826 -0.00166463 -0.000369603 0.0029087
463 1 16.3604 18.8977 1.76507 0.0033315 -0.00233223 -0.00772223
464 1 17.6688 20.1616 0.0383564 -0.00787094 0.00478611 0.0110998
465 1 16.4429 20.1182 0.849388 -0.00233486 -0.00372549 -0.000652268
466 1 17.623 21.3913 2.59369 -0.00240632 -0.00395018 -0.00310533
467 1 17.6423 18.9001 2.6869 -0.00270669 0.00347882 -0.00723442
468 1 18.8873 20.1578 0.89911 0.00191839 -0.00732214 -0.0116506
469 1 17.6248 17.6648 -0.0287033 0.00572959 0.00685212 -0.00476129
470 1 18.8713 18.8926 1.76066 0.00830675 -0.00234635 0.00169041
471 1 18.9114 16.3588 1.73818 0.00708846 -0.00177579 0.000653508
472 1 20.1509 17.6351 -0.0452058 -0.0014105 0.00718839 0.00843631
473 1 18.9098 17.6217 0.847075 -0.000180754 -0.000260607 -0.00278508
474 1 20.1396 18.882 2.69396 -0.00664024 0.00403025 -0.00287258
475 1 20.1669 16.3987 2.68673 -0.00533816 0.00332617 -0.00404816
476 1 21.3725 17.6503 0.83355 0.00884485 2.98542e-05 -0.00420258
477 1 20.2089 15.1063 0.00615707 0.00551229 -0.00925268 -0.00563204
478 1 21.426 16.3857 1.72911 0.0096445 0.00207178 -0.00766822
479 1 21.371 13.8561 1.80034 -0.00329777 0.00180805 -0.00443489
480 1 21.3787 15.1096 0.883573 -0.00195481 -0.00013668 -0.00218454
481 1 18.9324 21.4477 1.78297 -0.00187173 -0.00825508 -0.00246025
482 1 20.218 21.4568 2.70957 0.00703798 -0.00158633 -0.00112957
483 1 20.2135 20.1812 0.0570397 0.00420171 0.00966612 -0.00336395
484 1 21.459 21.4505 1.77712 -0.000819429 -0.0040277 -0.00583076
485 1 21.3691 18.8682 1.74165 -0.00491848 -0.0122694 -0.00330457
486 1 21.4815 20.1955 0.897207 -0.00759758 0.00553825 -0.00817658
487 1 22.6828 2.59871 3.54938 0.00145722 0.00262148 -0.00615191
488 1 22.6651 3.75027 6.17256 0.0103451 0.00400221 0.00916525
489 1 0.0447137 1.2326 6.19225 0.00152631 -0.00767339 -0.0047628
490 1 1.29509 2.53986 4.40112 -0.00235519 -0.000414159 -0.00312739
491 1 22.6704 22.658 3.56121 -0.00230958 0.00107231 -0.00613714
492 1 1.29808 1.21391 5.27917 0.00212443 0.00261128 0.00136114
493 1 2.56045 22.67 3.48718 -0.00849208 0.00616205 0.00243567
494 1 1.28597 22.6725 4.38859 -0.000803708 -0.00222721 -0.00193951
495 1 2.4837 1.19132 6.24349 -0.00222024 0.00349809 -0.00540578
496 1 3.73121 0.0402131 4.36401 -0.00170286 -4.98784e-05 -0.00147712
497 1 22.6709 7.56961 3.48371 -0.00773711 -0.00707183 0.00178453
498 1 22.6684 8.8273 6.23804 -0.00551267 -0.00279194 0.000248313
499 1 22.6844 6.35379 6.22051 -0.000683543 -0.0119048 -0.00121134
500 1 1.2398 7.58083 4.40756 -0.00127416 0.00828108 -0.00466116
501 1 0.00316252 5.0618 3.59462 0.0018516 -0.00719915 0.0039566
502 1 1.24861 6.34759 5.33598 -0.00429259 0.00263644 -0.00112265
503 1 1.26164 3.78551 5.3412 -0.00775999 0.00408711 -0.000963626
504 1 2.48595 5.04167 3.5213 -0.0119816 -0.0123131 -0.00469656
505 1 1.31635 5.04864 4.46064 0.0117941 -0.00700133 -0.00100694
506 1 2.53639 6.31515 6.17409 -0.00514575 -0.0024496 -0.00586741
507 1 2.55415 3.84311 6.23432 0.00905484 0.0151621 0.0059905
508 1 3.8467 5.0668 4.41813 -0.00324333 -0.00592109 -0.00450825
509 1 2.50734 2.57108 3.58768 -0.0013768 0.00105721 -0.0085845
510 1 3.78798 3.80005 5.34125 0.00628218 -0.00308488 0.00828937
511 1 3.76426 1.22341 5.32008 0.00699926 0.000168319 0.00848875
512 1 5.00295 2.58896 3.51962 -0.00957811 -0.000898688 -0.000694734
513 1 3.79949 2.55781 4.45906 -0.00818902 0.00109376 0.000166053
514 1 5.05314 3.80424 6.24511 -0.00260425 -0.00113199 0.0023203
515 1 5.02311 1.27543 6.1692 -0.00286732 -0.00589813 -0.00396838
516 1 6.30299 2.57745 4.40928 -0.0103218 0.00348768 -0.000577012
517 1 5.01837 0.055741 3.52558 -0.010762 0.00518335 -0.00393056
518 1 6.27826 1.27104 5.27923 -0.000846209 -0.00135886 0.00234174
519 1 7.6117 0.00724596 3.53396 -0.00147012 0.00388652 0.00105144
520 1 6.25468 0.0188929 4.38546 0.00208205 0.000559015 -0.00257837
521 1 7.58654 1.28423 6.19433 -0.00108683 0.00266354 -0.00212676
522 1 8.84889 22.6839 4.44178 0.00562842 0.00354446 -0.00233501
523 1 0.0326182 12.5814 3.52863 0.000993578 0.000337106 0.00309086
524 1 0.024854 13.8519 6.19304 0.00605253 0.000649947 0.00215864
525 1 0.080246 11.3801 6.19834 0.0058386 -0.00149003 0.00763576
526 1 1.31845 12.5425 4.43868 0.00421676 -0.0117988 0.000398736
527 1 22.6798 10.098 3.52556 0.00398903 -0.000848116 0.000118677
528 1 1.32303 11.309 5.30429 -0.00510128 0.00218736 0.00039796
529 1 1.20379 8.79354 5.328 -0.00198558 -0.00386121 0.00537787
530 1 2.58853 10.0777 3.5451 -0.00509974 -0.0125306 0.00486836
531 1 1.2583 10.0572 4.42475 -0.00277547 -0.000811729 -0.00394443
532 1 2.58488 11.32 6.19321 0.00658717 -0.00668679 -0.0109911
533 1 2.53524 8.90713 6.20794 0.0021655 0.00519002 0.00931657
534 1 3.86036 10.0734 4.42291 -0.00614517 0.00198688 0.00494939
535 1 2.57805 7.5479 3.59294 -0.000424713 0.00316374 -0.000303433
536 1 3.80202 8.84787 5.33775 -0.00155649 -0.00191398 -0.00491917
537 1 3.87489 6.33119 5.32037 0.00615634 0.00217532 5.48979e-05
538 1 5.06138 7.57139 3.54 0.00794592 0.000989854 0.00556882
539 1 3.76581 7.59022 4.47567 -0.00248774 0.00500742 -0.000640498
540 1 5.0638 8.85936 6.20667 0.00422992 0.0028872 0.00304584
541 1 5.04598 6.30236 6.22217 0.00495876 0.000525634 -0.00425652
542 1 6.32689 7.60148 4.42306 -0.00217933 -0.00261078 -0.000973747
543 1 5.1139 5.05958 3.50446 -0.00457339 -0.0002461 -0.00454634
544 1 6.28284 6.33005 5.32262 0.00940193 0.00048594 -0.00438666
545 1 6.31621 3.8135 5.30492 -0.0118772 0.00263341 -0.00597767
546 1 7.58017 5.09521 3.51313 0.00274744 -0.0027178 0.00443327
547 1 6.32882 5.09606 4.42659 0.00420086 0.00324456 -0.00892073
548 1 7.55143 6.34617 6.27024 -0.00288411 -0.00404199 0.00361806
549 1 7.5407 3.78315 6.19539 -0.00121541 -0.0079454 -0.00230385
550 1 8.82038 5.02881 4.46097 0.00168138 0.00609981 -7.99676e-05
551 1 7.60373 2.53916 3.51557 0.000132337 -0.0040484 -0.000458248
552 1 8.77716 3.84286 5.26157 -0.00865459 9.4352e-05 -0.000250371
553 1 8.80729 1.31617 5.35509 -0.00119821 0.00721194 0.00469089
554 1 10.0804 2.5311 3.53041 0.0109862 0.00112518 0.00269243
555 1 8.80347 2.59739 4.43355 0.00196798 0.00503406 0.0010393
556 1 10.1308 3.79026 6.19134 -0.00299455 0.0062969 -0.00942599
557 1 10.1004 1.21518 6.18511 0.000215019 -0.00225801 -0.00387291
558 1 11.3834 2.54639 4.42066 -0.000220767 -0.00272689 0.00297304
559 1 10.0962 0.0361611 3.53727 -0.0115917 0.00278695 -0.00831913
560 1 11.3807 1.27128 5.28192 0.00674171 -0.00649519 0.00215713
561 1 12.679 22.6703 3.54557 0.00533544 0.00699903 -0.00472494
562 1 11.3751 22.6693 4.4507 0.00171579 0.00396289 -0.000137569
563 1 12.6313 1.27989 6.23483 -0.00516328 -0.00106645 0.00786571
564 1 13.8799 0.0364776 4.42102 0.00731459 0.00670952 -0.000354578
565 1 22.6636 17.6136 3.49824 0.00515484 -0.00368517 0.00157648
566 1 22.6804 18.8908 6.27659 -0.00168263 -0.00097773 0.000932758
567 1 22.6655 16.3626 6.22822 0.00373939 0.00388251 0.00767778
568 1 1.2118 17.6283 4.38744 0.00358158 0.000769837 -0.00606114
569 1 22.6436 15.072 3.55646 -0.00846853 -0.00323143 -0.0015389
570 1 1.21011 16.3411 5.3092 -0.0107386 0.00157611 -0.00337533
571 1 1.34302 13.8088 5.28031 0.00555708 0.00148223 -0.000747751
572 1 2.57095 15.152 3.5057 0.00359568 -0.000583868 0.0024122
573 1 1.26481 15.0921 4.37923 0.00274123 0.000129113 -9.63959e-05
574 1 2.47491 16.3372 6.14387 -0.00569352 -0.000539408 -0.000982082
575 1 2.58137 13.8533 6.16868 -0.0069961 -0.00118919 0.00246902
576 1 3.8573 15.0915 4.39299 0.00823907 -0.00263899 -0.0087209
577 1 2.54167 12.5819 3.53848 -0.00667086 0.00589356 -0.00483975
578 1 3.817 13.8681 5.25692 0.000993402 5.79668e-06 0.00406789
579 1 3.82066 11.3125 5.34646 0.00615952 -0.00107107 -0.00628393
580 1 5.05283 12.5917 3.49709 0.00228559 -0.0113575 -0.00768572
581 1 3.82833 12.6246 4.41165 -0.00138651 0.00555187 0.000354225
582 1 5.04477 13.8629 6.19142 -0.00436952 -0.00725002 -0.00481667
583 1 5.01707 11.289 6.23497 0.00314916 0.000276334 0.000441077
584 1 6.29139 12.5879 4.37855 -0.00263607 0.00599338 -0.00299862
585 1 5.08791 10.097 3.52189 0.00174157 -0.00134661 0.00169788
586 1 6.32492 11.3032 5.35108 -0.0093053 0.00669045 0.00238552
587 1 6.33217 8.85563 5.33632 -0.00411472 0.00866248 0.00355661
588 1 7.60212 10.0893 3.52214 0.00677007 -0.00688293 -0.00965333
589 1 6.35172 10.1108 4.46328 -0.000897464 0.00698412 0.0022671
590 1 7.59638 11.3189 6.20136 0.00258741 -0.0107885 -0.000691186
591 1 7.56061 8.81518 6.24267 0.000952397 0.00540457 0.00198102
592 1 8.83858 10.1095 4.36267 0.00614289 0.00303288 -0.00844515
593 1 7.63619 7.59101 3.53586 -0.000309785 -0.00979039 0.00277252
594 1 8.84224 8.85066 5.31866 0.00231433 -0.00111341 -0.000160992
595 1 8.81915 6.334 5.41091 -0.00115939 -0.000187223 0.00102343
596 1 10.0881 7.55609 3.59675 -6.713e-05 -0.000553849 -0.00125945
597 1 8.83981 7.58112 4.46096 -0.00434955 0.00104534 -0.00559053
598 1 10.073 8.80637 6.20313 -0.00110263 -0.00144464 0.00900381
599 1 10.0893 6.31007 6.26617 -0.00621814 0.00968898 -0.00598411
600 1 11.3158 7.50237 4.39033 -0.00628846 0.00577674 0.0042196
601 1 10.0359 5.07616 3.53596 0.000851159 -0.00147717 0.00124245
602 1 11.3307 6.32321 5.33776 0.00332846 -0.00303463 -0.00813211
603 1 11.3516 3.80125 5.28327 0.00094404 -0.00369172 0.00173835
604 1 12.6199 5.01321 3.46616 0.00796163 0.00864543 -0.00229426
605 1 11.2985 5.03883 4.4195 -0.00767342 -0.00165274 -0.00296101
606 1 12.6816 6.33198 6.21825 0.0055005 3.26259e-07 0.00024195
607 1 12.6341 3.77745 6.18254 0.00399695 -0.00782366 -0.00174332
608 1 13.9214 5.07854 4.36424 0.0102499 0.0073519 -0.0043263
609 1 12.6669 2.55802 3.50497 0.00403836 0.00328274 -0.00288327
610 1 13.8628 3.78351 5.31686 -0.00809016 0.00495418 0.000571354
611 1 13.8666 1.27773 5.32077 0.00785322 0.00283238 -0.00936254
612 1 15.0991 2.51765 3.51641 0.00462669 -0.00105462 -0.00154249
613 1 13.8683 2.54024 4.37033 0.0049957 -0.00807549 -0.000677555
614 1 15.1146 3.7727 6.1768 0.00223097 0.00585914 -8.79486e-05
615 1 15.1365 1.26042 6.14284 -0.00179719 0.00186254 0.00741271
616 1 16.3832 2.47418 4.47914 0.00352634 0.00339387 0.00610471
617 1 15.1302 0.0463377 3.56611 -0.00209784 0.00254819 0.00157748
618 1 16.4318 1.25571 5.31909 0.00188593 0.0077299 0.000560661
619 1 17.6331 0.0194884 3.48066 -0.0021088 0.00103446 -0.00258816
620 1 16.455 0.015274 4.40021 0.00212912 0.00367694 -0.000904178
621 1 17.6691 1.19623 6.205 -0.00184553 0.00795957 0.00132475
622 1 18.9269 0.0218608 4.416 0.0087641 -0.00630071 -0.00720044
623 1 0.0328779 21.427 6.24193 0.000122961 0.00197284 -0.00340343
624 1 0.0207985 20.1581 3.60583 0.0105398 -0.0043874 0.00383193
625 1 1.29985 21.4058 5.35602 -0.00669801 0.00565769 0.00128925
626 1 1.25261 18.8802 5.27394 -0.00138401 -0.00299173 0.00256639
627 1 2.5471 20.1228 3.50346 0.00118211 0.00105284 -0.00680559
628 1 1.28433 20.1267 4.4142 -0.00599639 0.00419237 -0.00673111
629 1 2.55494 21.4433 6.20804 0.00381181 -0.000636821 -0.00566783
630 1 2.52863 18.8637 6.20131 -0.00026075 -0.00258557 -0.00758107
631 1 3.79683 20.1833 4.43587 -0.00295326 0.00202236 0.00114616
632 1 2.49827 17.6112 3.51668 0.00983625 -0.00261888 0.000209694
633 1 3.76405 18.9097 5.33553 -0.00380748 0.00913944 0.00396209
634 1 3.78736 16.339 5.23946 -0.00544172 -0.00662814 -0.00441278
635 1 5.05315 17.6598 3.55073 0.00477229 0.000779234 0.00135905
636 1 3.76367 17.6212 4.39445 0.00236338 0.00403204 0.00224862
637 1 4.98414 18.9012 6.20104 0.00976531 -0.00610176 -0.00563
638 1 5.02104 16.3424 6.14215 -0.000852421 0.00247448 -0.00139437
639 1 6.3171 17.646 4.49189 -0.00492944 -0.000939803 -0.00284712
640 1 5.06585 15.1231 3.509 -0.000142151 0.00149781 0.00821855
641 1 6.34935 16.4025 5.34345 -0.000186584 -0.000739121 0.00542968
642 1 6.32025 13.8994 5.28081 -0.00193167 0.00346648 0.000573331
643 1 7.61831 15.1788 3.5089 0.00212594 -0.0110027 -0.00551284
644 1 6.34869 15.169 4.39928 -0.00117491 -0.00495787 0.00724558
645 1 7.58178 16.4008 6.26931 -0.000854103 0.00221273 -0.00199791
646 1 7.52559 13.9172 6.20098 -0.00159351 -0.00643462 -0.00267624
647 1 8.84768 15.1804 4.36665 0.00560691 -0.00181173 0.00457941
648 1 7.54456 12.6101 3.53001 -0.00507379 -0.00310822 0.00713908
649 1 8.78909 13.9265 5.28148 -0.0058859 0.0021798 0.00131084
650 1 8.81795 11.3496 5.26729 0.00374221 -0.00227979 -0.00143073
651 1 10.1131 12.7066 3.60287 -0.00217578 0.0103162 0.00116268
652 1 8.84521 12.5603 4.42681 -0.00488776 -0.00552635 0.000789467
653 1 10.0518 13.8667 6.17706 -0.000595051 -0.00525838 0.00193789
654 1 10.0362 11.3345 6.18397 -0.000803846 0.00242118 -0.00603978
655 1 11.3772 12.6426 4.48368 0.00133966 0.0110095 0.00186158
656 1 10.0816 10.1751 3.52752 -0.00447427 -0.00846935 -0.00329389
657 1 11.3094 11.3752 5.35922 -0.00133951 -0.00312649 -0.00416048
658 1 11.3377 8.79863 5.27136 -0.00106363 -0.00381521 0.00878258
659 1 12.6344 10.0655 3.51723 -0.00903917 -0.000801453 0.00326599
660 1 11.3048 10.1344 4.40809 -0.00298272 -0.00570236 0.00606681
661 1 12.6056 11.3137 6.23832 8.34614e-05 0.00520406 0.00325465
662 1 12.5582 8.84981 6.14279 0.00182807 -0.00218553 -0.00653465
663 1 13.8734 10.0642 4.40351 0.000374982 0.00684882 -0.00738593
664 1 12.605 7.55951 3.53425 0.00287075 0.00601802 -6.65623e-06
665 1 13.9378 8.78527 5.31149 0.00207555 -0.00502012 0.00266398
666 1 13.8532 6.31414 5.31644 -0.00484939 -0.00474788 -0.00445329
667 1 15.1078 7.53628 3.47762 -0.00534885 -0.00103521 -0.00295855
668 1 13.8847 7.5719 4.42342 -0.00545044 0.000537513 0.00211441
669 1 15.0835 8.82132 6.22661 -0.00284585 0.00243339 -0.00177304
670 1 15.1285 6.2708 6.16601 -0.00299364 0.000456344 0.00368626
671 1 16.3235 7.57216 4.40441 0.0029607 0.00751191 0.0026055
672 1 15.1318 5.01124 3.48913 -0.00171943 0.00082291 0.00473919
673 1 16.4077 6.28994 5.2732 0.00221111 0.000362654 -0.0010594
674 1 16.4133 3.75691 5.27164 -0.00201298 0.00265654 0.00391331
675 1 17.5949 4.99371 3.48575 0.00519456 -0.00289379 -0.00287894
676 1 16.3652 5.00105 4.44541 -0.00102098 -0.000759683 -0.00936782
677 1 17.6302 6.28421 6.12895 -0.00437808 -0.00347861 -0.00324528
678 1 17.6568 3.7469 6.26615 -0.00150288 -0.00588375 0.000294437
679 1 18.875 5.01159 4.4151 -0.000793208 -0.0136072 0.00208862
680 1 17.6668 2.51834 3.55441 0.00265992 0.00569368 -0.00515146
681 1 18.883 3.7938 5.37632 0.00147343 0.00739803 0.0072088
682 1 18.907 1.27256 5.31004 0.00796243 0.00494321 -0.00628858
683 1 20.2076 2.52553 3.53585 -0.00144968 -0.005898 0.00345718
684 1 18.9193 2.54627 4.41683 0.00144671 0.000225466 0.00381896
685 1 20.2189 3.824 6.25978 -0.00582115 -0.00552243 0.00148987
686 1 20.1349 1.31535 6.213 0.0060985 -0.00135248 0.000614495
687 1 21.4383 2.53818 4.47294 0.0134984 -0.000592985 -0.0054659
688 1 20.2129 0.0304676 3.53161 0.0110318 0.00398206 -0.00341465
689 1 21.3825 1.28485 5.35367 -0.00644629 -0.00269218 0.000690117
690 1 21.4348 0.0544147 4.44605 -0.000565948 0.000483956 0.00108389
691 1 3.79364 21.492 5.2879 -0.00301894 0.0142366 -0.00415445
692 1 5.01296 21.5026 6.16799 -0.000216676 0.00944267 -0.0015426
693 1 5.04998 20.2124 3.53883 -0.00178624 -0.00183319 0.000462915
694 1 6.25694 21.4583 5.30391 -0.000450991 -0.00898151 0.00909925
695 1 6.23392 18.8953 5.297 0.00678881 -0.00320234 4.83727e-05
696 1 7.53738 20.1533 3.47322 0.0056761 0.00215607 0.00667056
697 1 6.24805 20.1811 4.41931 -0.00430546 0.00375025 -0.00877793
698 1 7.53831 21.4744 6.18028 0.00449062 -0.00246389 -0.00223298
699 1 7.52502 18.9382 6.17421 -0.00184251 0.00645656 -0.00158695
700 1 8.83868 20.1543 4.41311 -0.00051982 -0.00338313 -0.00270567
701 1 7.58848 17.631 3.56687 -0.00678003 0.00416615 0.00453895
702 1 8.7995 18.871 5.31745 -0.00259351 -0.00854492 0.00613909
703 1 8.81551 16.4396 5.3253 -0.000332382 0.00380204 -0.00143166
704 1 10.1076 17.6586 3.53942 -0.0109289 0.000272498 -0.00513927
705 1 8.81402 17.6116 4.44436 0.000498294 0.00158907 -0.00868543
706 1 10.0508 18.9207 6.13217 0.00468976 -0.00256845 0.00550911
707 1 10.0743 16.3688 6.19429 0.00866712 -0.00375648 -0.0079082
708 1 11.3308 17.6652 4.45927 0.00580958 -0.00384791 -0.00941019
709 1 10.1346 15.1351 3.47215 -0.00308291 -0.00122684 -0.00129914
710 1 11.3477 16.3833 5.3471 0.00332098 0.0112395 0.0129611
711 1 11.3119 13.8497 5.32044 -0.00324286 -0.00226478 -0.000529412
712 1 12.5857 15.0989 3.5229 0.000691159 -0.00127446 3.89104e-05
713 1 11.3167 15.1286 4.398 0.00817939 0.00549272 -0.00478261
714 1 12.6318 16.3657 6.21967 0.00413097 -0.00469943 0.000518752
715 1 12.5904 13.8607 6.23862 0.00068471 0.016809 0.00115956
716 1 13.8302 15.116 4.38761 -0.00337028 -0.00780686 0.00195502
717 1 12.616 12.6164 3.51102 -0.0050327 0.00751723 0.00335796
718 1 13.8024 13.8598 5.30294 0.00128185 -0.00998386 -0.00716663
719 1 13.8448 11.2842 5.37264 -0.00651633 0.00321259 0.00705871
720 1 15.1129 12.6318 3.51757 0.0048953 -0.00093681 -0.00847817
721 1 13.8829 12.5851 4.39968 0.00341589 -0.00120167 -0.00392491
722 1 15.0334 13.92 6.22637 -0.00322853 0.00103725 0.00118316
723 1 15.1206 11.2835 6.3091 0.0120637 -0.00101725 -0.000349242
724 1 16.3512 12.5939 4.4214 -0.00287419 0.00149285 0.00631299
725 1 15.144 10.0936 3.54554 0.00359674 0.0044706 -0.00346226
726 1 16.3756 11.2963 5.36657 0.0050194 0.000696749 -0.00572371
727 1 16.3636 8.79961 5.32754 -0.0166425 -0.00280185 -0.00022232
728 1 17.6265 10.1051 3.57757 5.01311e-05 -0.00541997 0.00501179
729 1 16.3528 10.1016 4.4525 0.0138787 0.00597008 0.00750219
730 1 17.6555 11.3157 6.21229 -0.00824552 0.00307993 0.0108442
731 1 17.638 8.80263 6.18765 -0.00681432 0.00638093 -0.00503743
732 1 18.9164 10.1497 4.41974 -0.0033111 0.00769952 -0.00183743
733 1 17.5599 7.56082 3.47886 0.000963182 -0.00355749 0.00569361
734 1 18.9023 8.87177 5.25773 0.00606709 0.00362648 -0.00960562
735 1 18.9098 6.30231 5.26411 -0.00782894 -0.00461632 0.00172647
736 1 20.158 7.5437 3.47425 0.00379272 0.00748969 0.00586598
737 1 18.8968 7.53706 4.37018 -0.00912094 0.00428729 0.00468711
738 1 20.1113 8.80943 6.18428 -0.00880807 -0.0009284 -0.000957676
739 1 20.1809 6.34897 6.16936 0.00110972 0.00180142 0.00212244
740 1 21.4442 7.6066 4.4412 -0.00593499 0.00201008 0.00623793
741 1 20.1191 5.08482 3.58021 -0.00487238 0.00412236 0.00384442
742 1 21.4355 6.31304 5.34398 -0.00953331 0.00280561 -0.00221836
743 1 21.4066 3.79324 5.31966 -0.000385192 0.00137399 -0.00289729
744 1 21.4456 5.02462 4.43683 0.0094848 0.00239602 -0.00518597
745 1 8.79011 21.4053 5.26389 0.00348893 -0.000659231 -0.0091242
746 1 10.1143 21.3884 6.18433 0.00630585 0.00370349 0.00116903
747 1 10.0436 20.1467 3.50396 0.000483209 0.00224966 0.00217658
748 1 11.3864 21.4029 5.31034 0.0063825 -0.00116398 0.00131114
749 1 11.3291 18.8533 5.35678 0.00058296 0.0040785 0.00127986
750 1 12.616 20.0991 3.56345 -0.00102511 0.00115807 -0.00588452
751 1 11.3601 20.1597 4.44194 -0.00709945 -5.59159e-05 -0.00469913
752 1 12.6482 21.4457 6.23944 -0.000542299 -0.000486713 0.000183084
753 1 12.6145 18.9689 6.21298 -0.000428218 -0.000260514 -0.00159955
754 1 13.8549 20.1917 4.46323 0.00699079 -0.0132095 0.00190589
755 1 12.5357 17.6584 3.49892 0.000138452 -0.00479478 -0.000214526
756 1 13.8903 18.8972 5.29124 0.00164248 -0.0079791 -0.00445419
757 1 13.8488 16.3705 5.32128 0.00613975 -0.00182089 0.00546896
758 1 15.109 17.6701 3.59839 0.00220233 0.00171952 0.00577309
759 1 13.8326 17.6734 4.50347 -0.0022627 0.00423085 0.00334147
760 1 15.1309 18.8864 6.2247 -0.00813422 -0.000288528 0.0013682
761 1 15.12 16.3802 6.22331 -0.0030162 0.00284562 0.00117085
762 1 16.3532 17.6272 4.41388 0.00764051 0.00325817 -0.00279582
763 1 15.0943 15.1776 3.48839 -0.00446541 -0.00829878 0.00283624
764 1 16.4071 16.3526 5.33255 -0.00840207 0.00585978 -0.000660855
765 1 16.305 13.8405 5.30035 -0.000484808 -0.00307924 0.00220042
766 1 17.6207 15.1045 3.54652 0.00751112 -0.000106794 0.00476921
767 1 16.341 15.1227 4.33976 -0.00414651 -0.00783027 0.00180985
768 1 17.6559 16.3819 6.21733 -0.00184215 -0.000296297 -0.0115284
769 1 17.6139 13.8081 6.19365 -0.00174386 -0.00822242 0.00702207
770 1 18.8752 15.0798 4.43433 -0.00731524 -0.00687864 -0.00361537
771 1 17.6661 12.642 3.5972 -0.00795072 0.008612 0.00656231
772 1 18.8649 13.9076 5.3808 -0.00119593 -0.00235879 -0.00797733
773 1 18.9079 11.3805 5.34615 0.000853662 0.00490197 0.00529442
774 1 20.189 12.569 3.51002 -0.00253909 0.00332035 -0.0056441
775 1 18.9625 12.6071 4.4332 0.00909484 -0.00480965 -9.73365e-05
776 1 20.1377 13.8517 6.22537 -0.00553456 -0.0014982 0.000112085
777 1 20.1772 11.3989 6.14614 0.000833808 0.000416332 0.0024272
778 1 21.4349 12.6128 4.43827 0.00177449 -0.00128072 -0.00297926
779 1 20.2057 10.1007 3.56273 0.00400511 0.000586657 0.000663668
780 1 21.4399 11.3802 5.35939 0.00625511 0.0033485 -0.00855997
781 1 21.4119 8.87853 5.33966 0.00353737 0.00393231 -0.00215963
782 1 21.4299 10.1362 4.44129 -0.0067801 -0.00502791 0.00236295
783 1 13.8856 21.4895 5.34992 0.00374172 -0.00360349 -0.00586967
784 1 15.1384 21.4559 6.18452 -0.00635195 0.000945818 -0.00513093
785 1 15.1206 20.1369 3.49518 0.00667678 0.00574549 0.00286844
786 1 16.3594 21.3652 5.24839 -0.000828378 0.0057977 -0.00287572
787 1 16.4205 18.8691 5.34646 -0.000685103 0.00150144 -0.00120612
788 1 17.7089 20.2128 3.49478 -0.00125445 0.0037755 -0.00222239
789 1 16.3965 20.1447 4.39726 -0.000593923 -9.81993e-05 0.00352231
790 1 17.6211 21.4043 6.15841 0.00585262 -0.00456257 -0.00362477
791 1 17.6564 18.9086 6.18622 0.00325559 0.0102642 0.0101065
792 1 18.9172 20.1282 4.36552 0.00463242 0.00283297 -0.00177529
793 1 17.6412 17.647 3.56796 -0.00441439 0.00275553 0.00141271
794 1 18.9301 18.9748 5.2835 -0.000336721 -0.000304036 -0.000341202
795 1 18.844 16.3552 5.29999 -0.00478472 0.00166462 0.00248486
796 1 20.1617 17.6428 3.59162 -0.00562454 -0.0139246 -0.0065892
797 1 18.912 17.653 4.41919 -0.000823103 0.00809736 -0.00461714
798 1 20.1707 18.948 6.22275 0.00835985 0.00194806 -0.00208539
799 1 20.101 16.3888 6.19056 0.00545411 -0.00137124 -0.000314378
800 1 21.4386 17.6792 4.43139 0.00449298 0.00646315 0.00152093
801 1 20.1367 15.094 3.52655 -0.00264725 -0.000546899 -0.00191125
802 1 21.4236 16.3421 5.32525 0.00320443 0.00526129 -0.00639315
803 1 21.4795 13.8245 5.32935 -0.00331537 0.00582243 0.000610761
804 1 21.4419 15.072 4.41268 0.00416694 -0.00201123 -0.00269728
805 1 18.9152 21.443 5.30154 0.00238164 0.00354959 0.00799116
806 1 20.1616 21.4319 6.21767 0.00486174 6.3905e-05 -0.00236075
807 1 20.1603 20.1159 3.54183 0.00195288 0.00474068 0.00341338
808 1 21.4963 21.4543 5.36902 0.00186124 0.00403698 -0.00424222
809 1 21.4619 18.9403 5.34773 -0.00669587 -0.00502816 0.00480882
810 1 21.4658 20.2147 4.4594 0.00143693 -0.0011681 -0.00270186
811 1 0.00633735 2.46275 7.09968 -0.00470933 -0.0087277 0.000661138
812 1 0.00959055 3.73747 9.76123 -0.007172 0.00573919 -0.00402091
813 1 22.6717 1.2203 9.77111 0.0067335 0.00246604 -0.00875931
814 1 1.27884 2.5488 7.94306 -0.000134753 0.0126911 -0.000347386
815 1 0.00542641 22.6631 7.09742 -0.00281111 -0.0103799 -0.0111859
816 1 1.25012 1.30675 8.88062 -0.00184867 -0.00208808 0.00706249
817 1 2.52289 22.6761 7.13553 -0.00256086 0.00363123 0.00720017
818 1 1.22203 0.03299 8.00199 -0.00437672 0.00388346 0.00354802
819 1 2.55664 1.30171 9.80976 -0.00320112 0.00499664 0.00337975
820 1 3.78166 22.6638 8.03071 0.000537579 -0.00248848 0.00620074
821 1 0.00908264 7.56719 7.09097 -0.00552648 -0.00337232 -0.0030992
822 1 0.0393125 8.83133 9.75345 -0.00927648 0.00237581 0.0073763
823 1 0.00492603 6.36913 9.82188 -0.00686572 -0.00390257 0.000652426
824 1 1.27249 7.64773 8.00997 0.011045 -0.00113672 0.00352408
825 1 22.6449 5.08663 7.09146 0.00313774 -0.00365967 0.00204138
826 1 1.27379 6.37727 8.84322 -0.00230717 0.00375608 0.000120047
827 1 1.25355 3.79629 8.85065 0.00294336 -0.00216169 0.000427685
828 1 2.53015 5.03971 7.03441 0.0020563 -0.00337134 -0.0033853
829 1 1.30245 5.06929 7.976 0.00317055 0.0100392 0.0121793
830 1 2.54162 6.27203 9.77377 0.00424225 0.00718819 -0.0106832
831 1 2.51156 3.78598 9.76258 0.000910477 -0.0041631 0.00569118
832 1 3.7823 5.10161 7.91402 -0.00464867 0.000586694 0.00409674
833 1 2.54002 2.48601 7.07559 -0.00296626 0.00201514 -0.000717374
834 1 3.79214 3.76082 8.87452 0.00808454 -0.00471374 0.000667629
835 1 3.79661 1.26412 8.91079 -0.00136371 -0.000131199 -0.00360084
836 1 5.03379 2.50086 7.10788 0.00470339 -0.00447276 -0.00336588
837 1 3.7903 2.51306 7.9893 -0.00670541 0.00645947 0.00398905
838 1 5.04249 3.7806 9.73568 -0.00056856 -0.0024114 -0.00661967
839 1 5.02092 1.27037 9.79456 0.00649864 -0.00199571 0.00618707
840 1 6.3167 2.56118 8.00286 -0.000143111 0.00407456 0.00248661
841 1 5.02469 0.0344674 7.08385 -0.00395328 0.0045964 0.000101683
842 1 6.318 1.30617 8.86306 -0.00120632 -0.00674345 -0.00228964
843 1 7.56745 0.00112972 7.11987 -0.00292542 -0.0121622 -0.00512336
844 1 6.30536 0.0380281 7.9428 -0.00390415 -0.00127193 -0.000134445
845 1 7.61773 1.32726 9.7623 -0.00413534 -0.00161875 0.00376336
846 1 8.85586 22.6847 7.9246 0.00508226 -0.00434741 -0.00190371
847 1 0.0449861 12.6214 7.13038 -0.00522546 0.00185609 0.0048623
848 1 22.6813 13.8024 9.77033 -0.0129563 -0.000789405 -0.00165014
849 1 0.0235787 11.3131 9.82816 -0.00242868 0.00504309 0.0063274
850 1 1.29108 12.6147 7.99156 -0.00306483 0.0136439 -0.00349168
851 1 22.6871 10.0921 7.14709 0.003283 3.53622e-05 -0.00399049
852 1 1.28805 11.3642 8.85104 0.00420303 -0.0123377 0.00214604
853 1 1.25903 8.86677 8.87782 0.00452915 -0.00376906 0.0049002
854 1 2.50276 10.0433 7.14642 0.011085 0.00215188 0.00793312
855 1 1.24179 10.0903 8.03631 0.00434077 -0.000982943 0.00223571
856 1 2.61544 11.3777 9.75268 -0.00204269 -3.64009e-05 0.00213186
857 1 2.48583 8.81669 9.79079 0.00133573 -0.006863 0.00285088
858 1 3.82824 10.0937 8.00126 0.00774983 0.00631664 0.00446086
859 1 2.5276 7.64082 7.08121 -0.000722847 0.00452753 -0.00718627
860 1 3.78467 8.77152 8.90477 0.0113613 -0.000858998 0.00280198
861 1 3.72825 6.28482 8.88247 0.00294874 -0.00845316 0.00708865
862 1 5.02192 7.60023 7.06539 0.00674838 0.00341265 0.000526306
863 1 3.80558 7.56825 8.0141 -0.00380425 0.0095953 -0.00585744
864 1 5.0198 8.92168 9.78053 0.00885988 0.00299032 -0.00571294
865 1 5.02162 6.31708 9.82092 0.00205788 0.00833909 0.00436278
866 1 6.25557 7.58255 7.98091 -0.00109635 0.0124008 -0.0017941
867 1 5.00853 5.05976 7.11837 0.00218841 5.38828e-05 0.00587424
868 1 6.28023 6.33895 8.85437 -0.00291371 0.00303612 0.0134343
869 1 6.29213 3.77528 8.85432 -0.00300277 0.00096157 0.000276459
870 1 7.53792 5.01054 7.10902 0.0117063 -0.00835983 -0.00129987
871 1 6.28295 5.04062 8.02674 0.00499122 0.00392337 -0.0007545
872 1 7.57544 6.2619 9.76664 -0.0104982 -0.000441035 -0.00596608
873 1 7.60644 3.71133 9.72933 0.0052094 -0.00298538 -0.0141294
874 1 8.81746 5.00751 7.95143 0.008706 0.00736871 0.000953849
875 1 7.53491 2.52632 7.09856 0.000984602 -0.00263979 -0.00162353
876 1 8.84676 3.74238 8.82696 -0.000801871 0.00651176 0.000439136
877 1 8.84515 1.26246 8.83384 -0.00809942 -0.00155728 0.00196253
878 1 10.0743 2.49808 7.05611 0.000390344 -0.000203872 -0.00514864
879 1 8.82954 2.5185 7.91883 0.00631952 -0.00218107 -0.00967989
880 1 10.1975 3.77211 9.74777 -0.00118216 0.0019915 -0.00360488
881 1 10.1505 1.26503 9.75525 0.00420823 0.00164976 0.00602773
882 1 11.3695 2.53767 7.9688 0.00804293 0.00315357 -0.0110647
883 1 10.1069 22.6438 7.05354 0.00153506 0.00610668 0.00389115
884 1 11.3219 1.29091 8.89166 -0.00076637 0.000449262 -0.00653309
885 1 12.648 0.00564155 7.14829 0.00536529 0.0024542 0.00198308
886 1 11.3167 0.0214583 7.98648 0.00350542 -0.00104437 0.00120957
887 1 12.6066 1.30667 9.74816 -0.00316333 0.00442697 -0.000548249
888 1 13.9061 0.0134843 7.98484 0.0055638 0.00609522 -0.00721817
889 1 0.00941905 17.6046 7.14282 0.000964992 -0.00159652 0.0115024
890 1 22.6879 18.9329 9.7597 0.000977571 -0.0103068 -0.00745891
891 1 0.0325021 16.4223 9.76602 0.00125741 -0.00527517 0.000456333
892 1 1.29623 17.6014 8.01527 -0.00328144 0.00607287 0.00434852
893 1 22.6429 15.0897 7.11504 -0.00577258 0.00795141 0.00215355
894 1 1.32279 16.3603 8.86862 0.00334151 -0.0012014 0.000161181
895 1 1.30963 13.8929 8.88211 0.00260734 0.00370506 0.000325724
896 1 2.52359 15.1502 7.05516 0.00684669 0.000181526 0.00289719
897 1 1.31101 15.0969 7.96518 0.00418937 0.00471469 -0.00751032
898 1 2.57435 16.3516 9.76758 -0.00729282 0.00235935 0.0044416
899 1 2.54878 13.9125 9.81758 -0.0057902 -0.00330045 0.0037399
900 1 3.79441 15.111 7.92045 -0.0069188 -0.00189313 0.000924345
901 1 2.55497 12.6324 7.07456 0.0105732 0.00504093 -0.00528254
902 1 3.77613 13.8473 8.87057 -0.00391684 0.00262249 0.000953968
903 1 3.84593 11.3648 8.90937 -0.00563043 0.00229871 -0.00459284
904 1 5.04962 12.5958 7.08013 0.00571809 0.00934692 0.00277918
905 1 3.78776 12.575 7.98192 0.00449723 -0.0064429 -0.00903424
906 1 4.99587 13.9224 9.77131 0.00623408 -0.00583279 -0.00920236
907 1 5.10235 11.3515 9.78508 -0.00761435 -0.000159217 -0.00164526
908 1 6.31117 12.6186 7.98543 6.22174e-05 0.0110493 -0.00925822
909 1 5.03388 10.0452 7.09222 -0.00519709 -0.000896572 0.00280555
910 1 6.36565 11.3956 8.84443 -0.00769469 0.000210103 -0.000638906
911 1 6.30735 8.84436 8.8754 -0.00303093 0.00364733 -0.00520404
912 1 7.59165 10.0862 7.12345 -7.80328e-05 -0.00105483 0.00128281
913 1 6.32071 10.1012 7.9482 0.00803599 0.0119992 -0.00496649
914 1 7.58152 11.3881 9.78759 0.00148631 -0.00119002 -0.00146904
915 1 7.58501 8.80487 9.81918 0.00789835 0.00670437 -0.00203971
916 1 8.86971 10.0777 8.01861 -0.013118 -0.00394355 -0.0084023
917 1 7.57614 7.61233 7.10793 -0.0022279 -0.0020705 0.00614581
918 1 8.92368 8.80257 8.97127 0.00926288 0.0029204 0.00878843
919 1 8.81112 6.26876 8.90618 0.000679268 -0.00587707 -0.00185652
920 1 10.0551 7.56801 7.11758 0.00243667 -0.00385591 0.00394866
921 1 8.87647 7.56774 8.04574 0.00588585 -0.00276371 0.00224702
922 1 10.0916 8.84532 9.89077 -0.00273899 -0.00418872 0.000639937
923 1 10.09 6.21742 9.74083 0.00373464 0.00299526 -0.00257599
924 1 11.3533 7.53057 8.00173 0.00532992 0.00324908 -0.000657206
925 1 10.1225 5.01734 7.11677 -0.00667227 -0.00363005 -9.77873e-05
926 1 11.3379 6.26546 8.91119 0.0118063 -0.000515331 -0.00559887
927 1 11.4422 3.78216 8.80145 2.31944e-05 -0.000580979 -0.00103921
928 1 12.6666 5.04771 7.13731 -0.000700522 0.000230771 -0.00143259
929 1 11.4214 5.05215 7.96058 -0.00364463 0.00186336 0.00394541
930 1 12.5916 6.29691 9.79241 -0.0113076 -0.0056821 -0.0024735
931 1 12.6789 3.78474 9.84858 0.00247769 0.00750119 -0.00183015
932 1 13.9179 5.04728 8.00964 0.00199267 -0.00458248 0.00837172
933 1 12.6702 2.55466 7.09625 0.00432741 -0.00434168 -0.0112677
934 1 13.8883 3.82255 8.89079 -0.00264758 -0.00616412 -0.00167788
935 1 13.906 1.33595 8.8994 -0.00777157 -0.00622134 0.00581369
936 1 15.1632 2.51062 7.1536 -0.00191811 -0.0139847 -0.00189934
937 1 13.9099 2.57762 7.99697 -0.00165273 -0.00495737 0.0010846
938 1 15.1673 3.81957 9.82491 -0.00855772 0.00634541 -0.00378915
939 1 15.1232 1.31267 9.75904 0.00225136 -0.00154639 0.0035095
940 1 16.4513 2.47811 8.01329 0.000745798 -0.000931398 0.00519914
941 1 15.1345 0.0532199 7.0986 -0.000445532 -0.00075282 0.00734938
942 1 16.4169 1.23173 8.92696 -0.00181004 -0.00304378 -0.00362849
943 1 17.681 0.0178765 7.07171 0.000177647 0.00525452 0.00310841
944 1 16.4142 0.00186595 8.00353 0.00795012 0.00172766 -0.00524109
945 1 17.6453 1.25313 9.73682 3.02349e-05 0.00583633 0.0032952
946 1 18.8853 22.6456 8.02589 0.00129381 -0.00310599 0.00145287
947 1 22.6783 21.4404 9.74509 -0.00675581 0.00393898 0.0173216
948 1 0.0169516 20.1619 7.18709 0.00384945 -0.00713932 -0.0059754
949 1 1.26181 21.4755 8.88224 0.00176758 0.00819517 -0.00147627
950 1 1.30483 18.8645 8.83172 0.0064465 0.00280377 -0.000942722
951 1 2.53922 20.1553 7.07423 0.000859608 -0.00119549 -0.00845065
952 1 1.30719 20.1777 7.98101 -0.00866999 0.00273187 0.0123692
953 1 2.45239 21.4468 9.77274 -0.00477258 -0.00612131 -0.00730526
954 1 2.44377 18.9265 9.79183 0.0109458 0.00275792 -0.00819477
955 1 3.79642 20.1488 7.91931 0.00170258 0.00671079 0.00258219
956 1 2.55341 17.5937 7.12844 0.00210964 0.00288745 -0.00159637
957 1 3.76073 18.9199 8.85092 -0.00360329 -0.00186286 -0.000573715
958 1 3.79184 16.388 8.83695 0.00410793 0.000686619 -0.00380601
959 1 4.9855 17.6429 7.07595 -0.00908714 0.00269574 -0.00759399
960 1 3.74713 17.6405 7.97001 -0.00857449 -0.00367635 0.00527188
961 1 5.03806 18.8749 9.77692 0.00446044 -0.00815014 0.00219075
962 1 5.04762 16.3546 9.80099 0.00371815 0.0098219 0.00917582
963 1 6.26173 17.6542 7.96928 -0.00385527 0.0088198 -0.00394921
964 1 5.04159 15.1181 7.07185 0.00148701 -0.00176675 0.00535273
965 1 6.27557 16.4469 8.8773 -0.0039276 -0.0034846 -0.000385511
966 1 6.25214 13.8907 8.92555 -0.000836276 4.14081e-05 -0.00314273
967 1 7.51026 15.1478 7.15751 -0.00539711 0.00498326 -0.00233319
968 1 6.31022 15.188 8.04604 0.00172079 0.00383934 0.00740088
969 1 7.49362 16.458 9.82727 0.00343582 -0.0062693 0.00553428
970 1 7.5315 13.8623 9.82067 -0.000227891 -0.00317271 -0.00247876
971 1 8.77869 15.1592 7.98755 -0.000900471 0.000379496 0.00290787
972 1 7.58005 12.5812 7.10004 -0.00315735 0.00483955 -0.000544025
973 1 8.78456 13.8924 8.92912 0.00424409 -0.00258043 -0.00238873
974 1 8.84689 11.3519 8.87931 -0.00407664 -0.00906284 0.00731163
975 1 10.1112 12.6299 7.10372 0.00674221 0.00117656 0.00606846
976 1 8.87642 12.6274 8.03576 -0.00600426 -0.000181616 0.00978454
977 1 10.0698 13.87 9.83914 0.00448907 -0.00681711 -0.00043741
978 1 10.1372 11.3883 9.81069 0.000423586 0.00224629 -0.00258144
979 1 11.2921 12.6262 8.04392 -0.00500291 -0.00337961 -0.00721485
980 1 10.1007 10.0788 7.10501 0.00648724 -0.000515839 0.00489148
981 1 11.3331 11.3535 8.92228 -0.0025595 -0.00718893 0.00672036
982 1 11.4483 8.78479 8.84687 0.00485599 0.0136255 0.00627376
983 1 12.5557 10.0392 7.07015 0.00748132 -0.00212033 -0.00765492
984 1 11.3529 10.0227 8.04759 -0.00238612 0.00254955 0.00153151
985 1 12.6085 11.2889 9.77562 -0.00189704 0.00175983 0.00944577
986 1 12.6665 8.82797 9.7709 0.0024645 -0.00141261 0.00416488
987 1 13.8407 10.0254 8.0389 -0.00936689 0.00611321 -0.00109659
988 1 12.6074 7.56365 7.09855 0.000427143 -0.0056096 -0.000521084
989 1 13.9416 8.82112 8.89582 -0.0118168 -0.00252195 0.00108408
990 1 13.8561 6.31683 8.87827 0.00401618 -0.00518113 -0.00509444
991 1 15.0879 7.53673 7.10073 0.000755088 -0.00286505 -0.0112398
992 1 13.8207 7.60079 8.03971 0.000163482 -0.00641471 -0.0108573
993 1 15.1911 8.79183 9.79211 -0.00756981 -0.00542261 0.00626129
994 1 15.1321 6.27086 9.76091 0.0023516 -0.00319224 0.0101133
995 1 16.3992 7.49484 7.96388 0.00779639 0.000348744 -0.000337136
996 1 15.116 5.01054 7.06167 0.00382797 -0.00406424 0.00413178
997 1 16.4172 6.26034 8.81396 0.0125903 0.00174441 -9.25747e-05
998 1 16.3899 3.77806 8.86427 -0.00481765 0.00378679 0.00129476
999 1 17.6607 5.00746 7.16386 -0.00717659 -0.00154783 0.00516732
1000 1 16.386 4.98007 8.02414 -0.00143152 0.00348041 -0.00782641
1001 1 17.6688 6.31142 9.78021 -0.00352463 -0.000757372 0.00159185
1002 1 17.6686 3.77556 9.77301 4.64132e-05 0.00589764 -0.0142238
1003 1 18.9316 5.12337 7.99036 0.00713261 -0.00201453 0.000119816
1004 1 17.6619 2.49545 7.195 0.00533386 -0.00305439 0.00595277
1005 1 18.9544 3.78707 8.8872 0.0031274 -0.00498634 0.00171229
1006 1 18.9116 1.24221 8.87266 -0.00612833 -0.00655669 -0.00129394
1007 1 20.1649 2.58128 7.06946 -9.96991e-05 0.00688598 -0.000209527
1008 1 18.9617 2.57211 7.97744 -0.00444726 0.00527872 0.00741322
1009 1 20.1798 3.78398 9.77595 0.0118854 0.00537908 0.00879322
1010 1 20.0839 1.21373 9.75782 -0.00157495 0.00444697 0.00469068
1011 1 21.4263 2.46243 7.97737 0.00189748 -0.00164786 -0.00217766
1012 1 20.1636 22.6764 7.05071 -0.00527199 0.0046489 -0.000539107
1013 1 21.3978 1.23664 8.84247 -0.00193151 -0.00133834 -0.00235045
1014 1 21.3649 0.0024838 7.95815 -0.00203464 -0.000381781 0.00663476
1015 1 3.7676 21.3858 8.87259 -0.000736543 -0.00360185 0.00434563
1016 1 5.07228 21.4717 9.71684 -0.00737258 0.00139072 0.00115759
1017 1 5.03235 20.2283 7.08781 -0.00556764 0.000433142 0.0140621
1018 1 6.28358 21.4808 8.81381 0.00659704 0.0009214 -0.00282841
1019 1 6.28327 18.9313 8.86732 -0.00378187 0.00561905 -0.0100782
1020 1 7.53879 20.1907 7.10511 -0.00312128 0.00716566 -0.00505033
1021 1 6.27428 20.2108 7.96705 -0.00359511 -0.00515845 0.0055241
1022 1 7.60561 21.4586 9.76981 6.91027e-05 -0.00131346 0.000682265
1023 1 7.54027 18.9361 9.782 0.000544066 -0.000474019 0.00693151
1024 1 8.79792 20.1781 7.94041 0.00584452 -0.000649548 -0.00419839
1025 1 7.52118 17.6662 7.11888 0.00720919 0.00120218 0.000911723
1026 1 8.80468 18.9077 8.83439 -0.00403791 0.000481004 -0.00255174
1027 1 8.8788 16.4272 8.87898 0.00651671 0.000182787 -0.00345964
1028 1 10.0734 17.642 7.1286 0.00162444 0.0064206 0.002592
1029 1 8.85343 17.6533 7.98587 0.00747038 -0.00256061 0.00281341
1030 1 10.075 18.9312 9.82338 -0.00152308 -0.001099 -0.00452251
1031 1 10.1177 16.3827 9.70188 0.00234305 -0.00710156 0.000418253
1032 1 11.3161 17.6768 7.95431 -0.00681297 -0.00407985 -0.0101467
1033 1 10.0355 15.116 7.09087 -0.00360848 -0.00414575 -0.000391534
1034 1 11.3548 16.4361 8.86032 -0.0014451 -0.0027796 0.00231037
1035 1 11.3114 13.92 8.89451 -0.00259405 -0.0114626 0.00233208
1036 1 12.6397 15.137 7.1066 0.00532435 0.00736778 -0.0038723
1037 1 11.305 15.0861 7.99411 0.0129435 -0.00288892 0.0069585
1038 1 12.558 16.3704 9.68179 0.00793555 0.00302494 -0.00307834
1039 1 12.58 13.8392 9.79535 0.00197048 0.00317202 0.00341255
1040 1 13.8447 15.1112 8.01163 -0.00149376 -0.00497202 0.00456895
1041 1 12.616 12.6534 7.09728 -0.00946379 0.00831589 0.00057849
1042 1 13.9175 13.8908 8.94568 -0.00363506 -0.00128883 -0.00390944
1043 1 13.8882 11.3304 8.83582 -0.00610609 -0.000677309 0.0103284
1044 1 15.1038 12.5987 7.19594 0.00408825 -0.00828869 -0.000562416
1045 1 13.8485 12.6151 7.98933 -0.0067951 0.00157472 0.00776968
1046 1 15.2483 13.8393 9.82537 0.00288045 -0.00125454 -0.00248756
1047 1 15.1625 11.316 9.71455 0.00568369 0.000383507 -3.74326e-05
1048 1 16.445 12.5358 8.0562 0.00594472 -0.00517384 0.00180631
1049 1 15.187 10.0124 7.11063 0.00700756 0.00500845 0.0159405
1050 1 16.4781 11.2782 8.87667 0.00538283 -0.0126948 -0.0128707
1051 1 16.4144 8.76309 8.85409 -0.00107462 -0.00234105 0.00167611
1052 1 17.7238 10.048 7.07361 -0.00219717 -0.00115597 -0.00261672
1053 1 16.458 10.007 8.01476 0.00711849 -0.00134617 -0.000982913
1054 1 17.6939 11.3275 9.77953 -0.000462589 0.00538313 0.00234443
1055 1 17.6671 8.74796 9.77994 -0.00146426 0.000484263 -0.000160768
1056 1 18.9601 10.11 8.00339 0.00020283 -0.0105304 0.000702766
1057 1 17.6847 7.54756 7.07722 -0.00159354 0.000894094 -0.00580474
1058 1 18.915 8.80607 8.82889 0.00133545 -0.000266705 0.00148973
1059 1 18.911 6.33455 8.86194 0.00182121 0.000870101 0.000788257
1060 1 20.1276 7.56252 7.06138 0.00350229 -0.00689169 0.00443593
1061 1 18.8946 7.5516 7.98638 0.00118947 -0.0120275 -0.00415847
1062 1 20.2136 8.84992 9.77293 -0.00428101 -0.00458278 0.00146823
1063 1 20.1902 6.35787 9.81274 0.00399716 0.0045055 0.00738721
1064 1 21.3945 7.59109 7.97462 0.00592827 -0.000636949 0.00404816
1065 1 20.1669 5.06348 7.12351 0.00474738 0.00105142 0.00230806
1066 1 21.4219 6.33545 8.8886 -0.00329366 -0.00412599 0.000617339
1067 1 21.415 3.79018 8.82366 -0.0060257 -0.00413204 0.00539625
1068 1 21.4233 5.07434 8.02795 -0.00157434 -0.0048043 -0.00455414
1069 1 8.78581 21.4732 8.87786 -0.00757468 0.00163702 -0.00590062
1070 1 10.0441 21.4131 9.8504 0.0024444 -0.00123111 0.00413409
1071 1 10.0344 20.1674 7.0486 0.00441291 -0.0012727 0.00309249
1072 1 11.281 21.3999 8.81518 0.00472775 0.00299503 -0.001377
1073 1 11.2794 18.9493 8.91769 -0.00619651 0.00294329 0.00846371
1074 1 12.5929 20.1428 7.16949 0.00590821 -0.00354612 0.00284657
1075 1 11.2949 20.1551 7.97827 0.000203129 -0.00115633 -0.00163858
1076 1 12.5628 21.451 9.78152 0.00553953 0.0119209 0.000520002
1077 1 12.6083 18.8963 9.80377 0.00780156 0.00226066 0.00321093
1078 1 13.8405 20.2014 8.01442 -0.00270478 -0.000938912 -0.00159779
1079 1 12.6224 17.683 7.05645 0.00211178 0.00231174 -0.00127583
1080 1 13.8593 18.9549 8.90323 0.00367428 -0.000676133 -0.00684209
1081 1 13.849 16.4255 8.85937 0.00441374 -0.00121526 0.00275525
1082 1 15.1088 17.6442 7.12249 -0.0059172 -0.000307824 0.00580127
1083 1 13.8376 17.7227 8.02124 -0.00260189 -9.893e-06 0.00687829
1084 1 15.1713 18.9689 9.78593 -0.00351033 -0.00214121 -0.00596507
1085 1 15.1354 16.4076 9.76018 -0.00203629 0.006636 0.00281185
1086 1 16.3945 17.5926 8.0034 -0.00324749 0.00153781 -0.00417758
1087 1 15.109 15.0899 7.11814 0.00464805 0.00707273 0.002897
1088 1 16.4168 16.3046 8.85287 -0.00463313 0.0031245 0.000709686
1089 1 16.4246 13.8623 8.84562 -0.00254803 0.00409624 8.64171e-06
1090 1 17.5664 15.0998 7.10025 -0.00623235 0.00172083 -0.00161226
1091 1 16.3521 15.097 7.98585 0.00907263 0.00228719 0.0030097
1092 1 17.6673 16.3569 9.76711 -0.00198139 0.00067504 -0.00862992
1093 1 17.7535 13.842 9.78412 -0.00438467 -0.00132305 0.00712261
1094 1 18.8962 15.1477 7.94849 -0.00442301 -0.00475205 0.0041685
1095 1 17.6552 12.5889 7.04603 0.00730313 0.0074897 -0.00453317
1096 1 18.9181 13.8466 8.84159 -0.00414792 0.00354239 0.00353605
1097 1 18.9734 11.3594 8.88251 -0.00884386 -0.00464145 0.00343894
1098 1 20.1749 12.6126 7.08008 0.00524072 -0.0043003 -0.00223141
1099 1 18.9638 12.5794 8.00371 -0.000354671 -0.00427588 0.00835256
1100 1 20.2442 13.9165 9.87942 -0.0021485 -0.00381232 -0.00401251
1101 1 20.233 11.378 9.83264 -0.00080461 -0.000390281 0.00511988
1102 1 21.3928 12.5872 7.97824 0.00343911 0.00534646 -0.00608457
1103 1 20.1476 10.1107 7.07635 -0.0035068 0.00250518 -0.00182285
1104 1 21.4516 11.3291 8.85508 0.00778512 0.00626204 0.0058803
1105 1 21.3569 8.80609 8.84099 0.00134067 -3.92696e-05 -0.00155182
1106 1 21.4211 10.0478 7.95904 0.00803927 0.00632385 -0.000468051
1107 1 13.841 21.4455 8.89517 -0.00259406 -0.00020673 -0.00641248
1108 1 15.0833 21.418 9.83994 -0.00566021 -0.00273712 0.00261339
1109 1 15.1025 20.2195 7.06897 0.00539172 -0.0032633 0.00408237
1110 1 16.3712 21.3978 8.87098 -0.00361835 -0.00563607 0.00585276
1111 1 16.397 18.8692 8.8831 -0.00150105 0.00846043 0.000315618
1112 1 17.6087 20.1906 7.04476 0.0032162 -0.00660151 0.00336715
1113 1 16.3377 20.1643 7.95126 0.00266192 0.00628958 -0.011118
1114 1 17.6404 21.4028 9.808 0.00346034 -0.00828705 0.0117287
1115 1 17.6785 18.9574 9.76936 0.00647722 0.00130291 -0.00435228
1116 1 18.8671 20.1465 8.00143 -0.00100527 0.00574833 -0.00761972
1117 1 17.6958 17.6315 7.05393 -0.00163444 -0.00197454 0.00730431
1118 1 18.9119 18.9325 8.90032 0.00160034 -0.00854514 0.00171762
1119 1 18.9283 16.3858 8.88457 -0.00829228 -0.00729098 0.00551967
1120 1 20.129 17.6984 7.01533 -0.00527886 0.00396173 0.00222138
1121 1 18.9451 17.6633 7.98155 0.00625255 0.00752791 -0.00143673
1122 1 20.1156 18.9781 9.84555 0.00353009 -0.00461299 -0.00330816
1123 1 20.133 16.4285 9.81368 0.00667761 0.00874071 -0.000726094
1124 1 21.4004 17.6569 7.96542 -0.000691042 0.00460092 0.00387091
1125 1 20.1608 15.1249 7.11884 0.00195624 0.00151639 -0.00692267
1126 1 21.4394 16.4014 8.87893 -0.00275346 -0.00743382 -0.00620714
1127 1 21.3816 13.8674 8.88577 -0.00564547 0.00407347 -0.00842081
1128 1 21.412 15.1486 7.9789 0.00236911 -0.00672887 -0.00381038
1129 1 18.8533 21.3861 8.87771 0.00134094 -0.00137199 -0.0031273
1130 1 20.1654 21.395 9.84285 -0.000276716 -0.00596507 -0.00492817
1131 1 20.1744 20.1539 7.11602 0.00570794 0.0012041 0.00453507
1132 1 21.3313 21.4338 8.91804 -0.00552693 -0.00453068 -0.00584902
1133 1 21.3863 18.8563 8.88967 0.00399793 0.0023201 0.000944112
1134 1 21.4454 20.1562 8.00139 -0.00331335 -0.00150112 -0.00806725
1135 1 0.152569 2.48824 10.6352 -0.00146037 -0.00171803 0.000320999
1136 1 22.6403 22.6585 10.5693 0.00485991 -0.00468593 -0.00653357
1137 1 2.44736 0.0603698 10.6469 0.000159988 0.00345877 0.00724009
1138 1 0.0421173 7.60335 10.5925 0.0104238 -0.005817 -0.00437904
1139 1 22.676 5.04928 10.637 -0.000491416 0.0119325 -0.00657531
1140 1 2.50115 5.03343 10.6715 -0.00223112 -0.000756908 0.00437405
1141 1 2.61244 2.58419 10.6234 -0.00390855 0.00234522 -0.00316162
1142 1 5.05911 2.53325 10.6207 0.00102512 4.73771e-05 -0.00343974
1143 1 5.06769 22.6661 10.6118 -0.00832073 0.00196808 0.00367074
1144 1 7.49609 22.6851 10.6372 -0.00732557 -0.00761275 0.00775648
1145 1 22.6611 12.5424 10.6192 -0.00453437 -0.00272224 0.00222387
1146 1 0.082458 10.0969 10.6388 0.00879948 -0.0030213 -0.00638021
1147 1 2.52422 10.1361 10.6709 0.00142259 0.00351742 0.00275723
1148 1 2.60796 7.6298 10.6548 -0.00822489 0.0106681 -0.0134042
1149 1 5.09716 7.53829 10.6274 -7.39988e-05 -0.00711563 0.00670661
1150 1 5.11152 5.02138 10.6029 -0.000553938 0.0020166 0.000327204
1151 1 7.57962 4.96725 10.6245 -0.00826892 0.000601499 0.00628917
1152 1 7.61594 2.5629 10.5829 0.00287128 0.00125078 9.0445e-05
1153 1 10.171 2.52694 10.6421 0.00998691 -0.00569621 -0.00100761
1154 1 10.0964 0.0571896 10.627 0.000991875 0.00633081 0.0107465
1155 1 12.6184 0.0269079 10.6347 0.0087385 -0.00427911 0.00229673
1156 1 22.5976 17.6507 10.5854 -0.00430473 0.00367321 -0.00205032
1157 1 22.6292 15.1226 10.6205 0.00786863 -0.00667132 -0.00263219
1158 1 2.57727 15.0777 10.6181 -0.00485845 -0.000970242 -0.00393539
1159 1 2.61007 12.6582 10.615 -0.00115078 6.02397e-05 0.00314441
1160 1 5.04092 12.6376 10.6324 -0.00341226 -0.00308298 -0.00640996
1161 1 5.10826 10.1371 10.6308 0.00663991 -0.00170411 0.00436719
1162 1 7.51585 10.081 10.6005 0.00112877 -0.0069042 0.0206995
1163 1 7.58687 7.52945 10.6276 0.00392705 0.0124001 0.00450745
1164 1 10.1573 7.54123 10.6338 0.0101285 0.000284095 -0.00375236
1165 1 10.0865 5.0398 10.5981 -0.00132596 8.26026e-05 0.00378724
1166 1 12.6101 5.04886 10.6623 0.00389551 0.00679237 -0.00354951
1167 1 12.623 2.58436 10.6669 0.00131313 0.000660593 0.00164587
1168 1 15.17 2.54939 10.6718 0.00518609 0.000881913 0.00147355
1169 1 15.1175 0.00211286 10.6077 -0.00271195 -0.00572826 0.00455644
1170 1 17.6547 0.0444746 10.623 0.00706916 -0.00794259 0.00747952
1171 1 0.028976 20.1445 10.5724 0.00122671 -0.0016489 -0.00274604
1172 1 2.46432 20.173 10.6741 0.00409939 1.32694e-05 0.00551603
1173 1 2.51273 17.5928 10.6662 -0.00402984 0.00478136 0.00981027
1174 1 5.05819 17.6802 10.6127 -0.00344665 0.00958228 0.00647177
1175 1 5.01318 15.1753 10.5958 -0.00426337 -0.00617532 0.0055655
1176 1 7.54926 15.2046 10.6335 -0.00528109 -0.00458383 0.000997774
1177 1 7.53381 12.5962 10.6461 0.00827984 0.000417459 -0.00831651
1178 1 10.0754 12.6208 10.6481 0.00387391 -0.00976614 0.00115027
1179 1 10.2097 10.068 10.6777 -0.00421152 -0.00378917 0.00152565
1180 1 12.6547 10.0928 10.637 0.00201464 -0.00130379 -0.00132995
1181 1 12.5972 7.62124 10.6188 0.00574917 -0.00555512 -0.00419488
1182 1 15.2001 7.54786 10.6282 -0.000599851 -0.00490471 0.00745907
1183 1 15.1406 4.99949 10.6363 -0.00633999 0.00949222 0.00338333
1184 1 17.6265 5.08845 10.615 3.52529e-05 0.00307348 0.00540651
1185 1 17.733 2.558 10.63 0.00245293 0.00883444 0.00498752
1186 1 20.2587 2.51476 10.6864 -0.0019496 0.00295168 -0.0102524
1187 1 20.1076 22.6825 10.6714 0.00617664 -0.00204072 0.00359093
1188 1 5.0186 20.2231 10.6517 -0.00417836 -0.0093943 -0.00409074
1189 1 7.55778 20.2521 10.6684 0.00329506 0.00393123 0.00326493
1190 1 7.54556 17.6716 10.5973 -0.00217319 -0.00112569 -0.00599166
1191 1 10.0717 17.6013 10.6674 -0.00366495 -0.00198412 0.00701823
1192 1 10.0805 15.1559 10.6321 0.00768919 0.00392114 -0.00168005
1193 1 12.5328 15.1127 10.6373 -0.002546 -0.0051083 -0.0067839
1194 1 12.5684 12.5699 10.6298 -0.00506606 0.00740083 -0.00664751
1195 1 15.0882 12.5935 10.6155 -0.000452066 0.00354149 0.00178643
1196 1 15.1897 10.1249 10.6308 0.00838613 0.000416956 0.0108589
1197 1 17.6555 10.0633 10.6237 -0.00351741 -0.00088906 0.00161597
1198 1 17.6712 7.56443 10.6446 0.00276618 0.000189081 0.00315085
1199 1 20.1705 7.62376 10.6822 -0.00534941 -0.0165882 -0.00144266
1200 1 20.1883 5.09097 10.6793 -0.0050902 -0.00853881 0.00689164
1201 1 10.0966 20.2124 10.6413 -0.011318 -0.00451212 -0.000520414
1202 1 12.5873 20.2909 10.6562 -0.000276407 -0.00262392 0.00968059
1203 1 12.5061 17.6301 10.6346 0.00797086 0.0101639 -0.000772689
1204 1 15.0876 17.6792 10.6027 -0.00477477 -0.0103544 -0.00403721
1205 1 15.2387 15.2042 10.6164 0.00611332 -0.00453819 0.00587056
1206 1 17.6427 15.115 10.6195 -0.00338978 0.00584844 -0.000855798
1207 1 17.8117 12.582 10.6315 0.00294013 0.000712026 0.00135534
1208 1 20.2706 12.6343 10.6844 -0.00326452 -0.00243749 0.0011209
1209 1 20.2128 10.1537 10.6673 -0.00625945 0.00617873 -0.00105999
1210 1 15.1271 20.1919 10.5811 0.00362151 -0.00197234 0.012739
1211 1 17.5475 20.1815 10.6374 0.00973104 0.00489592 0.00723344
1212 1 17.575 17.635 10.6235 -0.0102212 0.000187076 0.00353098
1213 1 20.1159 17.6706 10.6974 0.00399863 0.0102274 -4.74071e-06
1214 1 20.2099 15.1994 10.7232 -0.00443462 0.00442812 -0.00187754
1215 1 20.1108 20.1907 10.7186 -0.00210328 -0.00657604 0.00520813
1216 3 22.6418 2.54676 11.7985 0 0 0
1217 3 22.6418 0.025647 11.7985 0 0 0
1218 3 2.56404 22.6813 11.8276 0 0 0
1219 3 22.6418 7.58898 11.7985 0 0 0
1220 3 22.6418 5.06787 11.7985 0 0 0
1221 3 2.56404 5.03353 11.8276 0 0 0
1222 3 2.56404 2.51242 11.8276 0 0 0
1223 3 5.00376 2.5307 11.826 0 0 0
1224 3 5.00376 0.00959076 11.826 0 0 0
1225 3 7.6044 22.6804 11.8283 0 0 0
1226 3 22.6418 12.6312 11.7985 0 0 0
1227 3 22.6418 10.1101 11.7985 0 0 0
1228 3 2.56404 10.0757 11.8276 0 0 0
1229 3 2.56404 7.55464 11.8276 0 0 0
1230 3 5.00376 7.57292 11.826 0 0 0
1231 3 5.00376 5.05181 11.826 0 0 0
1232 3 7.6044 5.03266 11.8283 0 0 0
1233 3 7.6044 2.51155 11.8283 0 0 0
1234 3 10.045 2.53068 11.8265 0 0 0
1235 3 10.045 0.00956742 11.8265 0 0 0
1236 3 12.6467 22.6804 11.8264 0 0 0
1237 3 22.6418 17.6734 11.7985 0 0 0
1238 3 22.6418 15.1523 11.7985 0 0 0
1239 3 2.56404 15.118 11.8276 0 0 0
1240 3 2.56404 12.5969 11.8276 0 0 0
1241 3 5.00376 12.6151 11.826 0 0 0
1242 3 5.00376 10.094 11.826 0 0 0
1243 3 7.6044 10.0749 11.8283 0 0 0
1244 3 7.6044 7.55377 11.8283 0 0 0
1245 3 10.045 7.5729 11.8265 0 0 0
1246 3 10.045 5.05179 11.8265 0 0 0
1247 3 12.6467 5.03265 11.8264 0 0 0
1248 3 12.6467 2.51154 11.8264 0 0 0
1249 3 15.0897 2.53027 11.8236 0 0 0
1250 3 15.0897 0.00916535 11.8236 0 0 0
1251 3 17.6954 22.6817 11.8132 0 0 0
1252 3 22.6418 20.1945 11.7985 0 0 0
1253 3 2.56404 20.1602 11.8276 0 0 0
1254 3 2.56404 17.6391 11.8276 0 0 0
1255 3 5.00376 17.6574 11.826 0 0 0
1256 3 5.00376 15.1362 11.826 0 0 0
1257 3 7.6044 15.1171 11.8283 0 0 0
1258 3 7.6044 12.596 11.8283 0 0 0
1259 3 10.045 12.6151 11.8265 0 0 0
1260 3 10.045 10.094 11.8265 0 0 0
1261 3 12.6467 10.0749 11.8264 0 0 0
1262 3 12.6467 7.55376 11.8264 0 0 0
1263 3 15.0897 7.57249 11.8236 0 0 0
1264 3 15.0897 5.05138 11.8236 0 0 0
1265 3 17.6954 5.0339 11.8132 0 0 0
1266 3 17.6954 2.51279 11.8132 0 0 0
1267 3 20.1618 2.5702 11.8923 0 0 0
1268 3 20.1618 0.0490902 11.8923 0 0 0
1269 3 5.00376 20.1785 11.826 0 0 0
1270 3 7.6044 20.1593 11.8283 0 0 0
1271 3 7.6044 17.6382 11.8283 0 0 0
1272 3 10.045 17.6573 11.8265 0 0 0
1273 3 10.045 15.1362 11.8265 0 0 0
1274 3 12.6467 15.1171 11.8264 0 0 0
1275 3 12.6467 12.596 11.8264 0 0 0
1276 3 15.0897 12.6147 11.8236 0 0 0
1277 3 15.0897 10.0936 11.8236 0 0 0
1278 3 17.6954 10.0761 11.8132 0 0 0
1279 3 17.6954 7.55501 11.8132 0 0 0
1280 3 20.1618 7.61242 11.8923 0 0 0
1281 3 20.1618 5.09131 11.8923 0 0 0
1282 3 10.045 20.1784 11.8265 0 0 0
1283 3 12.6467 20.1593 11.8264 0 0 0
1284 3 12.6467 17.6382 11.8264 0 0 0
1285 3 15.0897 17.6569 11.8236 0 0 0
1286 3 15.0897 15.1358 11.8236 0 0 0
1287 3 17.6954 15.1183 11.8132 0 0 0
1288 3 17.6954 12.5972 11.8132 0 0 0
1289 3 20.1618 12.6546 11.8923 0 0 0
1290 3 20.1618 10.1335 11.8923 0 0 0
1291 3 15.0897 20.178 11.8236 0 0 0
1292 3 17.6954 20.1606 11.8132 0 0 0
1293 3 17.6954 17.6394 11.8132 0 0 0
1294 3 20.1618 17.6969 11.8923 0 0 0
1295 3 20.1618 15.1757 11.8923 0 0 0
1296 3 20.1618 20.218 11.8923 0 0 0
