LAMMPS data file via write_data, version 23 Jun 2022, timestep = 0

1800 atoms
3 atom types

0 21.83344824738157 xlo xhi
0 22.689985001334318 ylo yhi
-3.8596448281022617 49.40345379970895 zlo zhi

Masses

1 12.011
2 1.00784
3 16

Atoms # charge/kk

942 1 1.7049650961433697e-07 4.3666896495537282e+00 5.0422188891855102e+00 -3.3842486455051715e+00 0 0 0
943 1 -1.8468065211285168e-06 6.5500344741372150e+00 3.7816641668890973e+00 -3.3842486456069523e+00 0 0 0
944 1 -1.2328911189624131e-06 6.5500344741371581e+00 6.3027736114816513e+00 -3.3842486456067968e+00 0 0 0
945 1 1.4241028515963583e-06 4.3666896506224111e+00 5.0422188891855697e+00 -2.0497204217558713e+00 0 0 0
946 1 2.5181018726529511e-06 6.5500344730687878e+00 3.7816641668890276e+00 -2.0497204227463688e+00 0 0 0
947 1 2.7247410826700790e-06 6.5500344730687203e+00 6.3027736114814177e+00 -2.0497204227462338e+00 0 0 0
990 1 1.7380933670187635e-08 7.7264354208892644e-11 7.5633283337781867e+00 -3.3842486455049681e+00 0 0 0
991 1 -1.1401027614506862e-06 2.1833448246612663e+00 6.3027736114815971e+00 -3.3842486456070127e+00 0 0 0
993 1 1.2502948981944231e-06 1.1457854984741341e-09 7.5633283337783341e+00 -2.0497204217557758e+00 0 0 0
994 1 2.6662588366576736e-06 2.1833448235931545e+00 6.3027736114813857e+00 -2.0497204227464794e+00 0 0 0
996 1 5.5862957893578556e-07 4.3666896495537637e+00 7.5633283337781450e+00 -3.3842486455052980e+00 0 0 0
997 1 6.4415445402812580e-07 2.9111264349566341e+00 7.5633283337776520e+00 -1.4598635471112771e+00 0 0 0
998 1 -2.8920693691504440e-06 5.0944712557499594e+00 6.3027736114821629e+00 -1.4598635295249169e+00 0 0 0
1001 1 -9.6705108958665412e-07 2.9111264141715414e+00 7.5633283337778492e+00 8.5782538078777282e-02 0 0 0
1002 1 -1.2542226375318931e-06 5.0944712759167565e+00 6.3027736114822366e+00 8.5782631037696677e-02 0 0 0
1005 1 4.0882665930156783e-06 5.8222547308739578e+00 7.5633283337778527e+00 6.0061790494861489e-01 0 0 0
1009 1 -1.8203891232980419e-06 5.8222822783773749e+00 7.5633283337784931e+00 2.1549079790602632e+00 0 0 0
1298 1 -9.5817889770792133e-07 4.3666896495539236e+00 2.2689985001334122e+01 -3.3842486455048162e+00 0 -1 0
1299 1 -2.3441047425015974e-06 6.5500344741372309e+00 1.2605547222965425e+00 -3.3842486456070695e+00 0 0 0
1300 1 1.0714681187557183e-06 4.3666896506226580e+00 2.2689985001334076e+01 -2.0497204217557345e+00 0 -1 0
1301 1 2.3883232805307303e-06 6.5500344730687976e+00 1.2605547222966540e+00 -2.0497204227464194e+00 0 0 0
1334 1 -3.5174456588195097e-07 7.7306503202824822e-11 2.5211094445927835e+00 -3.3842486455049468e+00 0 0 0
1335 1 -2.0078959921258269e-06 2.1833448246609732e+00 1.2605547222964695e+00 -3.3842486456070642e+00 0 0 0
1336 1 -1.5125790262578189e-06 2.1833448246612179e+00 3.7816641668889339e+00 -3.3842486456070766e+00 0 0 0
1337 1 8.6484112863298557e-07 1.1459619233622120e-09 2.5211094445928528e+00 -2.0497204217556768e+00 0 0 0
1338 1 2.2965344588014509e-06 2.1833448235927535e+00 1.2605547222964915e+00 -2.0497204227465105e+00 0 0 0
1339 1 2.4618186842509677e-06 2.1833448235930657e+00 3.7816641668887887e+00 -2.0497204227465646e+00 0 0 0
1340 1 -4.1716191972198837e-07 4.3666896495538108e+00 2.5211094445926943e+00 -3.3842486455049969e+00 0 0 0
1341 1 5.9961343686049916e-07 2.9111264349568873e+00 2.5211094445924878e+00 -1.4598635471109640e+00 0 0 0
1342 1 -2.7141411340594968e-06 5.0944712557498057e+00 1.2605547222967288e+00 -1.4598635295252822e+00 0 0 0
1343 1 -2.8129321893634343e-06 5.0944712557498528e+00 3.7816641668894886e+00 -1.4598635295251217e+00 0 0 0
1344 1 1.2316894016570026e-06 4.3666896506224999e+00 2.5211094445926965e+00 -2.0497204217557776e+00 0 0 0
1345 1 -6.0529057848126185e-07 2.9111264141718101e+00 2.5211094445925588e+00 8.5782538078689977e-02 0 0 0
1346 1 -5.4092095885257761e-07 5.0944712759165132e+00 1.2605547222968752e+00 8.5782631038244142e-02 0 0 0
1347 1 -9.0079179701123305e-07 5.0944712759166304e+00 3.7816641668896116e+00 8.5782631037968862e-02 0 0 0
1349 1 4.6396518901659028e-06 5.8222547308738912e+00 2.5211094445925095e+00 6.0061790494822764e-01 0 0 0
1353 1 -2.4008558300488457e-06 5.8222822783775872e+00 2.5211094445924878e+00 2.1549079790557570e+00 0 0 0
1392 1 -1.4330871543738330e-07 7.7253741441009055e-11 5.0422188891856417e+00 -3.3842486455049050e+00 0 0 0
1393 1 -3.3951818350980373e-06 7.2778160627372812e-01 3.7816641668890476e+00 -1.4598635295248619e+00 0 0 0
1394 1 -3.2519680660790544e-06 7.2778160627390309e-01 6.3027736114819675e+00 -1.4598635295247389e+00 0 0 0
1395 1 1.0092340265538998e-06 1.1458076796842813e-09 5.0422188891857216e+00 -2.0497204217556590e+00 0 0 0
1396 1 -1.7309411568767892e-06 7.2778162644002120e-01 3.7816641668890263e+00 8.5782631037774851e-02 0 0 0
1397 1 -1.7870341234256023e-06 7.2778162644029487e-01 6.3027736114819559e+00 8.5782631037744153e-02 0 0 0
1398 1 5.7041545777677308e-07 2.9111264349567847e+00 5.0422188891850990e+00 -1.4598635471111256e+00 0 0 0
1399 1 3.6691046238539520e-06 1.4555650813974863e+00 5.0422188891853637e+00 6.0061790494825351e-01 0 0 0
1400 1 -7.1159644428406363e-07 3.6389062151039191e+00 3.7816641668892492e+00 6.0061386546496032e-01 0 0 0
1401 1 -8.7268909040162940e-07 3.6389062151039240e+00 6.3027736114819950e+00 6.0061386546477735e-01 0 0 0
1402 1 -8.8369324790432389e-07 2.9111264141716142e+00 5.0422188891853583e+00 8.5782538078767359e-02 0 0 0
1403 1 -2.3597758760204601e-06 1.4555926289016841e+00 5.0422188891860600e+00 2.1549079790581880e+00 0 0 0
1404 1 -4.2445976449855630e-06 3.6388783812861165e+00 3.7816641668889899e+00 2.1548975457328883e+00 0 0 0
1405 1 -4.0966252292901755e-06 3.6388783812861392e+00 6.3027736114817356e+00 2.1548975457324762e+00 0 0 0
1406 1 4.4051221817762755e-06 5.8222547308738193e+00 5.0422188891851301e+00 6.0061790494838985e-01 0 0 0
1407 1 4.7321669642944814e-06 4.3667080174439841e+00 5.0422188891846957e+00 2.6738940542094185e+00 0 0 0
1408 1 4.1315438727065204e-06 6.5500011775477329e+00 3.7816641668888575e+00 2.6740093629801822e+00 0 0 0
1409 1 4.5902802909271752e-06 6.5500011775476592e+00 6.3027736114813617e+00 2.6740093629793362e+00 0 0 0
1410 1 -1.9951643182203898e-06 5.8222822783771147e+00 5.0422188891856043e+00 2.1549079790581125e+00 0 0 0
1456 1 4.0202318277112879e-06 1.8367966495096854e-05 7.5633283337784247e+00 2.6738940542092395e+00 0 0 0
1457 1 4.2751527806598399e-06 2.1833115280709441e+00 6.3027736114815793e+00 2.6740093629791883e+00 0 0 0
1513 1 4.2566615919295038e-06 1.8367967587820761e-05 7.2656435524612714e-13 2.6738940542108485e+00 0 0 0
1651 1 -6.1381995618728399e-07 7.7436865808031962e-11 2.2689985001334168e+01 -3.3842486455049419e+00 0 -1 0
1652 1 -3.3565801898142547e-06 7.2778160627356958e-01 1.2605547222966211e+00 -1.4598635295249600e+00 0 0 0
1653 1 7.8613277398149801e-07 1.1461321586465832e-09 2.2689985001334200e+01 -2.0497204217558025e+00 0 -1 0
1654 1 -1.4582790024846421e-06 7.2778162643986788e-01 1.2605547222967526e+00 8.5782631037910298e-02 0 0 0
1655 1 6.8760543074776523e-07 2.9111264349567900e+00 2.2689985001334119e+01 -1.4598635471107948e+00 0 -1 0
1656 1 4.0721127729163428e-06 1.4555650813977066e+00 2.2689985001334087e+01 6.0061790494820311e-01 0 -1 0
1657 1 -4.8980494541673682e-07 3.6389062151038361e+00 1.2605547222965374e+00 6.0061386546505613e-01 0 0 0
1658 1 -2.7469083280011233e-07 2.9111264141717852e+00 2.2689985001333984e+01 8.5782538078459633e-02 0 -1 0
1659 1 -2.6657970738448038e-06 1.4555926289012917e+00 2.2689985001333273e+01 2.1549079790558463e+00 0 -1 0
1660 1 -4.5927516841901072e-06 3.6388783812861205e+00 1.2605547222964213e+00 2.1548975457332675e+00 0 0 0
1661 1 4.8049778897022101e-06 5.8222547308739721e+00 2.2689985001334307e+01 6.0061790494815981e-01 0 -1 0
1662 1 3.9685267912323120e-06 4.3667080174437514e+00 2.6006463017601770e-13 2.6738940542125946e+00 0 0 0
1663 1 3.7021986282045936e-06 6.5500011775475313e+00 1.2605547222962972e+00 2.6740093629808919e+00 0 0 0
1664 1 -2.7098489218167771e-06 5.8222822783777168e+00 2.2689985001334041e+01 2.1549079790542240e+00 0 -1 0
1699 1 3.8761318815199215e-06 1.4555650813975545e+00 2.5211094445926099e+00 6.0061790494816258e-01 0 0 0
1700 1 4.5122920859475689e-06 1.8367967177368307e-05 2.5211094445926117e+00 2.6738940542102925e+00 0 0 0
1701 1 4.0840183427819241e-06 2.1833115280711719e+00 1.2605547222963895e+00 2.6740093629806863e+00 0 0 0
1702 1 4.3646154671189742e-06 2.1833115280710151e+00 3.7816641668887079e+00 2.6740093629800179e+00 0 0 0
1703 1 -2.3263601617643207e-06 1.4555926289016170e+00 2.5211094445927462e+00 2.1549079790569445e+00 0 0 0
1707 1 4.3838302240326013e-06 4.3667080174436563e+00 2.5211094445923572e+00 2.6738940542111722e+00 0 0 0
1757 1 4.3447992543783395e-06 1.8367966817874066e-05 5.0422188891847988e+00 2.6738940542098941e+00 0 0 0
526 1 -7.0711401621256958e-07 1.3100068948507779e+01 5.0422188891856887e+00 -3.3842486455053491e+00 0 0 0
529 1 9.6461372728660014e-07 1.3100068949576192e+01 5.0422188891857891e+00 -2.0497204217564007e+00 0 0 0
550 1 -1.9671239091674182e-06 1.0916724123612740e+01 6.3027736114814621e+00 -3.3842486456066805e+00 0 0 0
552 1 1.2600554914572744e-06 8.7333793000991893e+00 7.5633283337784212e+00 -2.0497204217563501e+00 0 0 0
553 1 2.3271040645413659e-06 1.0916724122544462e+01 6.3027736114812054e+00 -2.0497204227458621e+00 0 0 0
557 1 -2.8586246270435918e-06 1.3827850554702188e+01 6.3027736114818262e+00 -1.4598635295246634e+00 0 0 0
559 1 1.0939172285522272e-06 1.3100068949576713e+01 7.5633283337786574e+00 -2.0497204217566511e+00 0 0 0
560 1 -5.7561742331048123e-07 1.1644505713124520e+01 7.5633283337782116e+00 8.5782538077548473e-02 0 0 0
561 1 -8.8277236961105717e-07 1.3827850574868794e+01 6.3027736114817188e+00 8.5782631039108048e-02 0 0 0
891 1 5.4319342580456255e-08 1.3100068948507232e+01 2.2689985001334282e+01 -3.3842486455052954e+00 0 -1 0
893 1 1.0907448924261236e-06 1.3100068949575402e+01 2.2689985001334211e+01 -2.0497204217560938e+00 0 -1 0
908 1 -8.6976272623228313e-07 8.7333792990303216e+00 2.5211094445925970e+00 -3.3842486455049410e+00 0 0 0
909 1 -1.9313941370484131e-06 1.0916724123613371e+01 1.2605547222963707e+00 -3.3842486456070056e+00 0 0 0
910 1 -2.1194504637482860e-06 1.0916724123613040e+01 3.7816641668888860e+00 -3.3842486456068621e+00 0 0 0
911 1 9.2529188144016008e-07 8.7333793000988429e+00 2.5211094445925988e+00 -2.0497204217556830e+00 0 0 0
912 1 2.3535601938063412e-06 1.0916724122545320e+01 1.2605547222964490e+00 -2.0497204227464372e+00 0 0 0
913 1 2.2495964571026796e-06 1.0916724122544899e+01 3.7816641668887159e+00 -2.0497204227462116e+00 0 0 0
914 1 -4.2663134405904281e-07 1.3100068948507433e+01 2.5211094445927826e+00 -3.3842486455053025e+00 0 0 0
915 1 4.9136321947141624e-07 1.1644505733909533e+01 2.5211094445925291e+00 -1.4598635471108288e+00 0 0 0
916 1 -3.2259153062494806e-06 1.3827850554702078e+01 1.2605547222961715e+00 -1.4598635295249782e+00 0 0 0
917 1 -3.0326945227269029e-06 1.3827850554702014e+01 3.7816641668888953e+00 -1.4598635295248406e+00 0 0 0
918 1 9.8365001063438483e-07 1.3100068949575641e+01 2.5211094445927662e+00 -2.0497204217561880e+00 0 0 0
919 1 -5.3550363024802685e-07 1.1644505713124259e+01 2.5211094445925877e+00 8.5782538078328557e-02 0 0 0
920 1 -1.5008393024130456e-06 1.3827850574869252e+01 1.2605547222963385e+00 8.5782631038303747e-02 0 0 0
921 1 -1.0614322991113682e-06 1.3827850574868982e+01 3.7816641668890543e+00 8.5782631038757079e-02 0 0 0
948 1 -5.1178496370253368e-07 8.7333792990304726e+00 5.0422188891854622e+00 -3.3842486455052869e+00 0 0 0
949 1 6.8024804246837053e-07 7.2778160844328781e+00 5.0422188891849258e+00 -1.4598635471110659e+00 0 0 0
950 1 -3.0160874626806056e-06 9.4611609052259347e+00 3.7816641668893825e+00 -1.4598635295252018e+00 0 0 0
951 1 -3.0483099318892883e-06 9.4611609052255918e+00 6.3027736114819355e+00 -1.4598635295249374e+00 0 0 0
952 1 1.0215995640729607e-06 8.7333793000989761e+00 5.0422188891855182e+00 -2.0497204217560152e+00 0 0 0
953 1 -3.0911449368210667e-07 7.2778160636479567e+00 5.0422188891851061e+00 8.5782538078487944e-02 0 0 0
954 1 -7.4794511306874830e-07 9.4611609253928552e+00 3.7816641668896911e+00 8.5782631038088239e-02 0 0 0
955 1 -1.0265359603623040e-06 9.4611609253926208e+00 6.3027736114820208e+00 8.5782631038146082e-02 0 0 0
956 1 5.0944799740014460e-07 1.1644505733909677e+01 5.0422188891851203e+00 -1.4598635471110790e+00 0 0 0
957 1 4.4171972429271908e-06 1.0188944380350767e+01 5.0422188891852766e+00 6.0061790494806611e-01 0 0 0
958 1 -7.1517180179773916e-07 1.2372285514055861e+01 3.7816641668891835e+00 6.0061386546508189e-01 0 0 0
959 1 -7.2639023103382422e-07 1.2372285514055632e+01 6.3027736114817881e+00 6.0061386546495299e-01 0 0 0
960 1 -4.7736882123044405e-07 1.1644505713124445e+01 5.0422188891853876e+00 8.5782538077862208e-02 0 0 0
961 1 -2.3282697415432277e-06 1.0188971927854229e+01 5.0422188891857056e+00 2.1549079790562438e+00 0 0 0
962 1 -4.7851240416627639e-06 1.2372257680238743e+01 3.7816641668891084e+00 2.1548975457332848e+00 0 0 0
963 1 -4.8327721067637467e-06 1.2372257680238821e+01 6.3027736114815740e+00 2.1548975457332604e+00 0 0 0
965 1 3.9678799755068370e-06 1.3100087316395406e+01 5.0422188891851141e+00 2.6738940542119702e+00 0 0 0
1004 1 6.2040522067870633e-07 7.2778160844330575e+00 7.5633283337777328e+00 -1.4598635471113097e+00 0 0 0
1006 1 -5.2512554846658057e-07 8.0055958645800125e+00 6.3027736114818982e+00 6.0061386546481677e-01 0 0 0
1010 1 -4.0222427749403401e-06 8.0055680307626726e+00 6.3027736114816832e+00 2.1548975457327244e+00 0 0 0
1012 1 4.2032876537072963e-06 1.0188944380350987e+01 7.5633283337781441e+00 6.0061790494822898e-01 0 0 0
1013 1 4.8286020660105916e-06 8.7333976669200677e+00 7.5633283337769237e+00 2.6738940542089988e+00 0 0 0
1014 1 4.0355852880924045e-06 1.0916690827023627e+01 6.3027736114812818e+00 2.6740093629804869e+00 0 0 0
1020 1 3.9503620531817824e-06 1.3100087316396216e+01 7.5633283337770782e+00 2.6738940542117309e+00 0 0 0
1302 1 -8.6247237450855811e-07 8.7333792990302594e+00 2.2689985001334158e+01 -3.3842486455047895e+00 0 -1 0
1303 1 8.9060286935669471e-07 7.2778160844325566e+00 1.4600597941709144e-15 -1.4598635471106693e+00 0 0 0
1304 1 -2.9156895763296620e-06 9.4611609052263113e+00 1.2605547222965063e+00 -1.4598635295254563e+00 0 0 0
1305 1 1.0224238939303923e-06 8.7333793000987736e+00 2.2689985001334090e+01 -2.0497204217555769e+00 0 -1 0
1306 1 2.0993906033790076e-07 7.2778160636478377e+00 2.2689985001334200e+01 8.5782538078398418e-02 0 -1 0
1307 1 -6.6763771476257421e-07 9.4611609253930773e+00 1.2605547222966578e+00 8.5782631037904178e-02 0 0 0
1308 1 4.4622726522553779e-07 1.1644505733909451e+01 2.0029346930313738e-13 -1.4598635471107839e+00 0 0 0
1309 1 4.3474803015167035e-06 1.0188944380350502e+01 8.4629409772455439e-15 6.0061790494827516e-01 0 0 0
1310 1 -9.5052029629136100e-07 1.2372285514056081e+01 1.2605547222963960e+00 6.0061386546501583e-01 0 0 0
1311 1 -8.5447905429047700e-07 1.1644505713124191e+01 1.2654209239121745e-14 8.5782538078588766e-02 0 0 0
1312 1 -2.5446694970843079e-06 1.0188971927854672e+01 2.2689985001333813e+01 2.1549079790558987e+00 0 -1 0
1313 1 -4.6874160025795523e-06 1.2372257680238700e+01 1.2605547222965068e+00 2.1548975457331352e+00 0 0 0
1315 1 4.3329931619846935e-06 1.3100087316395479e+01 8.8893559555217819e-13 2.6738940542105860e+00 0 0 0
1348 1 7.6628492489800847e-07 7.2778160844327537e+00 2.5211094445923861e+00 -1.4598635471107582e+00 0 0 0
1350 1 -1.4109094962902057e-07 8.0055958645801546e+00 1.2605547222964917e+00 6.0061386546499707e-01 0 0 0
1351 1 -2.4903903396760607e-07 8.0055958645801386e+00 3.7816641668892945e+00 6.0061386546493756e-01 0 0 0
1352 1 3.4881008264609224e-08 7.2778160636479088e+00 2.5211094445923852e+00 8.5782538078482809e-02 0 0 0
1354 1 -4.7144414527959816e-06 8.0055680307624204e+00 1.2605547222964397e+00 2.1548975457332480e+00 0 0 0
1355 1 -4.3816707823037528e-06 8.0055680307626051e+00 3.7816641668891444e+00 2.1548975457330153e+00 0 0 0
1356 1 4.4943175454399175e-06 1.0188944380350586e+01 2.5211094445925246e+00 6.0061790494816569e-01 0 0 0
1357 1 4.0787724490096860e-06 8.7333976669197089e+00 2.5211094445931921e+00 2.6738940542113334e+00 0 0 0
1358 1 3.8401296961022098e-06 1.0916690827023546e+01 1.2605547222967752e+00 2.6740093629808466e+00 0 0 0
1359 1 3.8659154553187745e-06 1.0916690827023722e+01 3.7816641668892093e+00 2.6740093629808936e+00 0 0 0
1360 1 -2.4977548088912836e-06 1.0188971927854318e+01 2.5211094445917959e+00 2.1549079790554511e+00 0 0 0
1364 1 4.0985394384013860e-06 1.3100087316395330e+01 2.5211094445934452e+00 2.6738940542115355e+00 0 0 0
1414 1 4.5081078633115636e-06 8.7333976669200712e+00 5.0422188891850848e+00 2.6738940542102219e+00 0 0 0
1667 1 3.9210982654035066e-06 8.7333976669192257e+00 2.6905155572550124e-13 2.6738940542117517e+00 0 0 0
235 1 -5.8060959169770449e-07 1.7466758597983464e+01 7.5633283337783235e+00 -3.3842486455049929e+00 0 0 0
236 1 -1.6164614613238982e-06 1.9650103422566307e+01 6.3027736114814905e+00 -3.3842486456073675e+00 0 0 0
239 1 2.6420156415705527e-06 1.9650103421497711e+01 6.3027736114813591e+00 -2.0497204227464043e+00 0 0 0
242 1 7.6416605850672543e-07 2.0377885032860803e+01 7.5633283337778021e+00 -1.4598635471116115e+00 0 0 0
517 1 -8.5555629811013764e-08 1.7466758597983510e+01 2.5211094445929354e+00 -3.3842486455050680e+00 0 0 0
518 1 -1.4547044898807634e-06 1.9650103422566115e+01 1.2605547222962972e+00 -3.3842486456071734e+00 0 0 0
519 1 -1.5339877395822718e-06 1.9650103422566293e+01 3.7816641668886959e+00 -3.3842486456072747e+00 0 0 0
520 1 1.1133965483145425e-06 1.7466758599052469e+01 2.5211094445931046e+00 -2.0497204217561804e+00 0 0 0
521 1 2.4656342527205132e-06 1.9650103421497622e+01 1.2605547222961517e+00 -2.0497204227464021e+00 0 0 0
522 1 2.5072490693286656e-06 1.9650103421497704e+01 3.7816641668885222e+00 -2.0497204227464341e+00 0 0 0
523 1 3.7666512480256789e-07 2.0377885032861258e+01 2.5211094445926094e+00 -1.4598635471113772e+00 0 0 0
525 1 -9.6249497881706459e-07 2.0377885012077122e+01 2.5211094445927591e+00 8.5782538078374659e-02 0 0 0
527 1 -1.8046084383431199e-06 1.5283413773088718e+01 3.7816641668887065e+00 -3.3842486456068919e+00 0 0 0
528 1 -2.0602376552519899e-06 1.5283413773088574e+01 6.3027736114814541e+00 -3.3842486456069869e+00 0 0 0
530 1 2.4611544780272648e-06 1.5283413772020243e+01 3.7816641668884823e+00 -2.0497204227459056e+00 0 0 0
531 1 2.5303114522209314e-06 1.5283413772020145e+01 6.3027736114813067e+00 -2.0497204227457679e+00 0 0 0
532 1 -4.2217498910955516e-07 1.7466758597983528e+01 5.0422188891858024e+00 -3.3842486455049685e+00 0 0 0
533 1 7.1632795487073970e-07 1.6011195383385306e+01 5.0422188891855519e+00 -1.4598635471114207e+00 0 0 0
534 1 -3.0911316686140739e-06 1.8194540204179692e+01 3.7816641668888851e+00 -1.4598635295246445e+00 0 0 0
535 1 -2.8298648728029981e-06 1.8194540204179773e+01 6.3027736114819435e+00 -1.4598635295244915e+00 0 0 0
536 1 1.1447407033189850e-06 1.7466758599052465e+01 5.0422188891861239e+00 -2.0497204217562781e+00 0 0 0
537 1 -4.8568992114435944e-07 1.6011195362600969e+01 5.0422188891856186e+00 8.5782538077356141e-02 0 0 0
538 1 -1.4670630877382486e-06 1.8194540224345410e+01 3.7816641668887172e+00 8.5782631038715126e-02 0 0 0
539 1 -1.1269349266473498e-06 1.8194540224345577e+01 6.3027736114817392e+00 8.5782631039205914e-02 0 0 0
540 1 5.1098268408270200e-07 2.0377885032860984e+01 5.0422188891853725e+00 -1.4598635471114574e+00 0 0 0
541 1 3.9518463684036540e-06 1.8922323679302938e+01 5.0422188891853468e+00 6.0061790494799006e-01 0 0 0
542 1 -1.1464610753287755e-06 2.1105664813009298e+01 3.7816641668890725e+00 6.0061386546483353e-01 0 0 0
543 1 -1.1729392468653518e-06 2.1105664813009273e+01 6.3027736114818333e+00 6.0061386546476714e-01 0 0 0
544 1 -9.1756018061120318e-07 2.0377885012076881e+01 5.0422188891855741e+00 8.5782538078195747e-02 0 0 0
545 1 -2.5557189402639884e-06 1.8922351226806651e+01 5.0422188891854631e+00 2.1549079790565520e+00 0 0 0
546 1 -4.4487016069162419e-06 2.1105636979191292e+01 3.7816641668889845e+00 2.1548975457327910e+00 0 0 0
547 1 -4.7146227197921135e-06 2.1105636979191257e+01 6.3027736114817499e+00 2.1548975457327106e+00 0 0 0
565 1 -7.7811566313049027e-07 1.6738975163532203e+01 6.3027736114817792e+00 6.0061386546491158e-01 0 0 0
567 1 -2.7588539129520610e-07 1.6011195362600848e+01 7.5633283337779922e+00 8.5782538077138801e-02 0 0 0
568 1 -2.7843465728932451e-06 1.4555661577330673e+01 7.5633283337783919e+00 2.1549079790555004e+00 0 0 0
569 1 -5.0306730406465483e-06 1.6738947329715042e+01 6.3027736114819000e+00 2.1548975457333932e+00 0 0 0
573 1 4.0541571764808146e-06 1.9650070125975958e+01 6.3027736114818564e+00 2.6740093629802026e+00 0 0 0
575 1 -2.7075995655802533e-06 1.8922351226806803e+01 7.5633283337772790e+00 2.1549079790562762e+00 0 0 0
892 1 -1.3156479619290166e-06 1.5283413773088938e+01 1.2605547222962039e+00 -3.3842486456068439e+00 0 0 0
894 1 2.5102883367288451e-06 1.5283413772020449e+01 1.2605547222960940e+00 -2.0497204227460308e+00 0 0 0
895 1 2.7405165007204370e-07 1.7466758597983553e+01 2.2689985001334289e+01 -3.3842486455051559e+00 0 -1 0
896 1 3.0270797350325541e-07 1.6011195383385463e+01 6.5373467086077805e-14 -1.4598635471113210e+00 0 0 0
897 1 -3.2480774596190908e-06 1.8194540204179422e+01 1.2605547222962732e+00 -1.4598635295246822e+00 0 0 0
898 1 1.1756418120769913e-06 1.7466758599052401e+01 2.2689985001334279e+01 -2.0497204217561862e+00 0 -1 0
899 1 -1.2950131319104382e-06 1.6011195362600997e+01 3.3519102438350734e-14 8.5782538078088222e-02 0 0 0
900 1 -1.7127886429894702e-06 1.8194540224345200e+01 1.2605547222963462e+00 8.5782631038353180e-02 0 0 0
901 1 3.7240316630405298e-07 2.0377885032861524e+01 2.2689985001334083e+01 -1.4598635471112522e+00 0 -1 0
902 1 3.8048213483957193e-06 1.8922323679303073e+01 2.2689985001334161e+01 6.0061790494829093e-01 0 -1 0
903 1 -9.8301117727844169e-07 2.1105664813009209e+01 1.2605547222964781e+00 6.0061386546483098e-01 0 0 0
904 1 -8.6451559919232591e-07 2.0377885012077247e+01 2.2689985001334023e+01 8.5782538078355050e-02 0 -1 0
905 1 -2.2024433505928788e-06 1.8922351226806594e+01 2.2689985001333469e+01 2.1549079790580459e+00 0 -1 0
906 1 -4.3764575825345710e-06 2.1105636979191367e+01 1.2605547222964961e+00 2.1548975457328265e+00 0 0 0
922 1 4.6543004200843491e-07 1.6011195383385335e+01 2.5211094445927995e+00 -1.4598635471113088e+00 0 0 0
923 1 4.0849481377717716e-06 1.4555634029827162e+01 2.5211094445926485e+00 6.0061790494802758e-01 0 0 0
924 1 -1.2476979218252885e-06 1.6738975163532444e+01 1.2605547222963749e+00 6.0061386546471496e-01 0 0 0
925 1 -9.9959542158927186e-07 1.6738975163532338e+01 3.7816641668890316e+00 6.0061386546479045e-01 0 0 0
926 1 -8.9228762034595547e-07 1.6011195362600972e+01 2.5211094445929345e+00 8.5782538077783771e-02 0 0 0
927 1 -2.3958931877283219e-06 1.4555661577331389e+01 2.5211094445921995e+00 2.1549079790561962e+00 0 0 0
928 1 -4.5527983052775633e-06 1.6738947329714978e+01 1.2605547222963833e+00 2.1548975457328030e+00 0 0 0
929 1 -4.8360719832351608e-06 1.6738947329714986e+01 3.7816641668890867e+00 2.1548975457331356e+00 0 0 0
930 1 3.8085671513554491e-06 1.8922323679302863e+01 2.5211094445926667e+00 6.0061790494811695e-01 0 0 0
931 1 4.1372572066893740e-06 1.7466776965872405e+01 2.5211094445930429e+00 2.6738940542107614e+00 0 0 0
932 1 4.3516528924434370e-06 1.9650070125976487e+01 1.2605547222967792e+00 2.6740093629798909e+00 0 0 0
933 1 4.2448119943106549e-06 1.9650070125976328e+01 3.7816641668891102e+00 2.6740093629800867e+00 0 0 0
934 1 -2.3868386425872322e-06 1.8922351226806413e+01 2.5211094445924283e+00 2.1549079790574583e+00 0 0 0
964 1 4.3202911446557949e-06 1.4555634029827393e+01 5.0422188891853033e+00 6.0061790494786138e-01 0 0 0
966 1 3.9167589394445845e-06 1.5283380476499337e+01 3.7816641668893429e+00 2.6740093629807866e+00 0 0 0
967 1 3.7227647856615465e-06 1.5283380476499385e+01 6.3027736114818671e+00 2.6740093629810344e+00 0 0 0
968 1 -2.6202826213745331e-06 1.4555661577331474e+01 5.0422188891855475e+00 2.1549079790552943e+00 0 0 0
972 1 3.9431590393787499e-06 1.7466776965872338e+01 5.0422188891855440e+00 2.6738940542119276e+00 0 0 0
1314 1 3.7116912233626288e-06 1.4555634029826994e+01 1.3755072665107352e-14 6.0061790494827960e-01 0 0 0
1316 1 4.2307991857668919e-06 1.5283380476499488e+01 1.2605547222967883e+00 2.6740093629802621e+00 0 0 0
1317 1 -2.1394182607083664e-06 1.4555661577331108e+01 2.2689985001333639e+01 2.1549079790576684e+00 0 -1 0
1320 1 4.4714524098153776e-06 1.7466776965872434e+01 5.7443678416851805e-13 2.6738940542098968e+00 0 0 0
301 1 -3.1588843695916766e-07 4.3666896495541767e+00 1.5126656667556341e+01 -3.3842486455052607e+00 0 0 0
302 1 -1.1687045940267273e-06 6.5500344741369627e+00 1.3866101945259762e+01 -3.3842486456067555e+00 0 0 0
305 1 2.8542564174164951e-06 6.5500344730685249e+00 1.3866101945259812e+01 -2.0497204227461281e+00 0 0 0
582 1 6.2104060851869247e-07 4.3666896495539715e+00 1.0084437778370857e+01 -3.3842486455054104e+00 0 0 0
583 1 -8.2043467469030147e-07 6.5500344741370835e+00 8.8238830560742958e+00 -3.3842486456066578e+00 0 0 0
584 1 -7.8892280524202009e-07 6.5500344741369618e+00 1.1344992500667008e+01 -3.3842486456066325e+00 0 0 0
585 1 1.5719269752501617e-06 4.3666896506227690e+00 1.0084437778370994e+01 -2.0497204217560845e+00 0 0 0
586 1 2.8664819169363666e-06 6.5500344730685951e+00 8.8238830560740844e+00 -2.0497204227461059e+00 0 0 0
587 1 2.9284053982817491e-06 6.5500344730685018e+00 1.1344992500666942e+01 -2.0497204227460708e+00 0 0 0
630 1 1.1555505355130116e-07 7.7561272019455972e-11 1.2605547222963446e+01 -3.3842486455053487e+00 0 0 0
631 1 -1.0297966602963288e-06 2.1833448246609493e+00 1.1344992500667177e+01 -3.3842486456066863e+00 0 0 0
632 1 -1.4046381232871321e-06 2.1833448246607818e+00 1.3866101945259823e+01 -3.3842486456067529e+00 0 0 0
633 1 1.4183779560192343e-06 1.1462661909928901e-09 1.2605547222963411e+01 -2.0497204217561578e+00 0 0 0
634 1 2.8551055727064872e-06 2.1833448235925177e+00 1.1344992500667107e+01 -2.0497204227462689e+00 0 0 0
635 1 2.6818982107518965e-06 2.1833448235922281e+00 1.3866101945259906e+01 -2.0497204227462476e+00 0 0 0
636 1 3.0736818987848474e-07 4.3666896495541589e+00 1.2605547222963601e+01 -3.3842486455054210e+00 0 0 0
637 1 6.9308680256026101e-07 2.9111264349566666e+00 1.2605547222963690e+01 -1.4598635471115295e+00 0 0 0
638 1 -2.9591781055572597e-06 5.0944712557497898e+00 1.1344992500667146e+01 -1.4598635295246827e+00 0 0 0
639 1 -2.9071405458617392e-06 5.0944712557498804e+00 1.3866101945259452e+01 -1.4598635295248024e+00 0 0 0
640 1 1.4564535940928504e-06 4.3666896506229902e+00 1.2605547222963660e+01 -2.0497204217561538e+00 0 0 0
641 1 -9.3681159080289605e-07 2.9111264141720015e+00 1.2605547222963677e+01 8.5782538078490747e-02 0 0 0
642 1 -1.5773605233503258e-06 5.0944712759162707e+00 1.1344992500667090e+01 8.5782631037601406e-02 0 0 0
643 1 -1.3624755152358573e-06 5.0944712759163089e+00 1.3866101945259327e+01 8.5782631037832333e-02 0 0 0
645 1 3.8496743479229127e-06 5.8222547308744561e+00 1.2605547222963626e+01 6.0061790494866762e-01 0 0 0
649 1 -2.2317422313576679e-06 5.8222822783788333e+00 1.2605547222963297e+01 2.1549079790600874e+00 0 0 0
689 1 -2.9813132680207235e-06 7.2778160627376687e-01 1.3866101945259539e+01 -1.4598635295243696e+00 0 0 0
691 1 1.2864924635420058e-06 1.1465151648923513e-09 1.5126656667556160e+01 -2.0497204217561937e+00 0 0 0
692 1 -1.6664360508834799e-06 7.2778162644016497e-01 1.3866101945259453e+01 8.5782631038303428e-02 0 0 0
696 1 -9.8425909527629135e-07 3.6389062151035514e+00 1.3866101945259688e+01 6.0061386546462903e-01 0 0 0
698 1 -7.1542537769542136e-07 2.9111264141719633e+00 1.5126656667556833e+01 8.5782538078222531e-02 0 0 0
699 1 -3.0917316544602703e-06 1.4555926289021661e+00 1.5126656667557439e+01 2.1549079790571652e+00 0 0 0
700 1 -4.7209100310055324e-06 3.6388783812857928e+00 1.3866101945259796e+01 2.1548975457325734e+00 0 0 0
704 1 4.1398009692966057e-06 6.5500011775466396e+00 1.3866101945260272e+01 2.6740093629793207e+00 0 0 0
706 1 -2.6454431755831052e-06 5.8222822783783661e+00 1.5126656667556167e+01 2.1549079790579175e+00 0 0 0
992 1 -9.5464880223752364e-07 2.1833448246612113e+00 8.8238830560744130e+00 -3.3842486456068301e+00 0 0 0
995 1 2.8482662186158831e-06 2.1833448235929116e+00 8.8238830560742532e+00 -2.0497204227463457e+00 0 0 0
999 1 -2.9636178097743876e-06 5.0944712557498866e+00 8.8238830560747541e+00 -1.4598635295247442e+00 0 0 0
1000 1 1.5543948520125397e-06 4.3666896506225115e+00 7.5633283337783119e+00 -2.0497204217559695e+00 0 0 0
1003 1 -1.5355473158276886e-06 5.0944712759165398e+00 8.8238830560747488e+00 8.5782631037538276e-02 0 0 0
1048 1 1.2754944651463859e-07 7.7359813196075106e-11 1.0084437778370742e+01 -3.3842486455051692e+00 0 0 0
1049 1 -3.0207874286099862e-06 7.2778160627395405e-01 8.8238830560749708e+00 -1.4598635295245190e+00 0 0 0
1050 1 -2.9484635718206783e-06 7.2778160627387656e-01 1.1344992500667423e+01 -1.4598635295243343e+00 0 0 0
1051 1 1.4210987973038926e-06 1.1459596079914764e-09 1.0084437778370805e+01 -2.0497204217559735e+00 0 0 0
1052 1 -1.6964963735344296e-06 7.2778162644038125e-01 8.8238830560750685e+00 8.5782631037811682e-02 0 0 0
1053 1 -1.7157374903851300e-06 7.2778162644029187e-01 1.1344992500667539e+01 8.5782631038033283e-02 0 0 0
1054 1 7.0889130232536939e-07 2.9111264349566053e+00 1.0084437778370472e+01 -1.4598635471114649e+00 0 0 0
1055 1 3.6111846229378211e-06 1.4555650813975658e+00 1.0084437778370372e+01 6.0061790494825307e-01 0 0 0
1056 1 -9.6687820495105721e-07 3.6389062151038263e+00 8.8238830560746635e+00 6.0061386546464490e-01 0 0 0
1057 1 -1.0247057532994883e-06 3.6389062151036864e+00 1.1344992500667225e+01 6.0061386546461015e-01 0 0 0
1058 1 -9.7058312745702506e-07 2.9111264141717523e+00 1.0084437778370509e+01 8.5782538078711001e-02 0 0 0
1059 1 -2.7709797557209773e-06 1.4555926289020604e+00 1.0084437778369454e+01 2.1549079790599612e+00 0 0 0
1060 1 -4.1428157763154732e-06 3.6388783812860375e+00 8.8238830560745694e+00 2.1548975457322039e+00 0 0 0
1061 1 -4.3620972429676437e-06 3.6388783812858589e+00 1.1344992500667274e+01 2.1548975457322288e+00 0 0 0
1062 1 3.8395588028580519e-06 5.8222547308742874e+00 1.0084437778370679e+01 6.0061790494875711e-01 0 0 0
1063 1 4.7323462936905916e-06 4.3667080174431936e+00 1.0084437778371177e+01 2.6738940542074663e+00 0 0 0
1064 1 4.6856636612584502e-06 6.5500011775471361e+00 8.8238830560741874e+00 2.6740093629786412e+00 0 0 0
1065 1 4.5001555606299150e-06 6.5500011775466334e+00 1.1344992500667326e+01 2.6740093629786039e+00 0 0 0
1066 1 -1.9472805559798365e-06 5.8222822783783128e+00 1.0084437778370868e+01 2.1549079790610728e+00 0 0 0
1111 1 3.5482152683142400e-06 1.4555650813977730e+00 1.2605547222963514e+01 6.0061790494814682e-01 0 0 0
1112 1 3.7707664419829920e-06 1.8367966394903672e-05 1.2605547222964233e+01 2.6738940542093750e+00 0 0 0
1113 1 3.8352355611617535e-06 2.1833115280707278e+00 1.1344992500667775e+01 2.6740093629788144e+00 0 0 0
1114 1 3.5853936351813857e-06 2.1833115280706963e+00 1.3866101945259924e+01 2.6740093629795982e+00 0 0 0
1115 1 -2.9842088814474262e-06 1.4555926289023342e+00 1.2605547222962917e+01 2.1549079790590331e+00 0 0 0
1119 1 4.4508926420276787e-06 4.3667080174426012e+00 1.2605547222964040e+01 2.6738940542085694e+00 0 0 0
1169 1 3.8828800448151258e-06 1.8367966789032459e-05 1.5126656667555334e+01 2.6738940542104932e+00 0 0 0
1455 1 3.6362758940612162e-06 1.4555650813974719e+00 7.5633283337777941e+00 6.0061790494828904e-01 0 0 0
1458 1 4.0767494020570203e-06 2.1833115280708668e+00 8.8238830560748838e+00 2.6740093629786319e+00 0 0 0
1459 1 -2.5543200110948814e-06 1.4555926289017524e+00 7.5633283337777222e+00 2.1549079790594385e+00 0 0 0
1463 1 4.8406740693051664e-06 4.3667080174439015e+00 7.5633283337777808e+00 2.6738940542078935e+00 0 0 0
1514 1 3.7953365789809499e-06 1.8367966301222292e-05 1.0084437778372086e+01 2.6738940542088541e+00 0 0 0
87 1 1.3415673038768323e-06 1.3100068949576206e+01 1.5126656667555794e+01 -2.0497204217566196e+00 0 0 0
244 1 -4.4058286430510493e-07 1.3100068948507937e+01 1.0084437778370949e+01 -3.3842486455054881e+00 0 0 0
247 1 1.2868446457802810e-06 1.3100068949576883e+01 1.0084437778371079e+01 -2.0497204217568359e+00 0 0 0
268 1 3.9852246224334768e-07 8.7333792990308545e+00 1.2605547222963601e+01 -3.3842486455055432e+00 0 0 0
269 1 -1.4051186986251831e-06 1.0916724123612473e+01 1.1344992500667052e+01 -3.3842486456065410e+00 0 0 0
270 1 -1.2976540134849179e-06 1.0916724123612628e+01 1.3866101945259963e+01 -3.3842486456065730e+00 0 0 0
271 1 1.6018903169529170e-06 8.7333793000993793e+00 1.2605547222963631e+01 -2.0497204217564899e+00 0 0 0
272 1 2.7339929157656172e-06 1.0916724122544204e+01 1.1344992500667054e+01 -2.0497204227455610e+00 0 0 0
273 1 2.8005856271480969e-06 1.0916724122544357e+01 1.3866101945260006e+01 -2.0497204227457040e+00 0 0 0
274 1 -1.7015576415527556e-07 1.3100068948507740e+01 1.2605547222963407e+01 -3.3842486455054765e+00 0 0 0
275 1 7.4657661232435480e-07 1.1644505733909631e+01 1.2605547222963443e+01 -1.4598635471115122e+00 0 0 0
276 1 -2.6613999411059593e-06 1.3827850554702732e+01 1.1344992500667274e+01 -1.4598635295243221e+00 0 0 0
277 1 -2.8697851389058815e-06 1.3827850554702598e+01 1.3866101945259883e+01 -1.4598635295243378e+00 0 0 0
278 1 1.3648177852667396e-06 1.3100068949576633e+01 1.2605547222963331e+01 -2.0497204217568203e+00 0 0 0
279 1 -8.0411605649235597e-07 1.1644505713124421e+01 1.2605547222963436e+01 8.5782538077792098e-02 0 0 0
280 1 -1.0429491144588302e-06 1.3827850574869217e+01 1.1344992500667217e+01 8.5782631039179505e-02 0 0 0
281 1 -1.4528423638168755e-06 1.3827850574869249e+01 1.3866101945259942e+01 8.5782631038788956e-02 0 0 0
307 1 1.4024930205623408e-07 8.7333792990306414e+00 1.5126656667556155e+01 -3.3842486455054170e+00 0 0 0
308 1 8.5644088499001533e-07 7.2778160844327404e+00 1.5126656667556579e+01 -1.4598635471113128e+00 0 0 0
309 1 -2.7408578029552959e-06 9.4611609052257872e+00 1.3866101945259857e+01 -1.4598635295246243e+00 0 0 0
311 1 1.5574539636880644e-06 8.7333793000991502e+00 1.5126656667556114e+01 -2.0497204217563092e+00 0 0 0
313 1 -1.3254907892675586e-06 9.4611609253926421e+00 1.3866101945259889e+01 8.5782631038033574e-02 0 0 0
315 1 6.6809798052306104e-07 1.1644505733909527e+01 1.5126656667556135e+01 -1.4598635471114745e+00 0 0 0
316 1 3.9524099126348122e-06 1.0188944380350815e+01 1.5126656667556171e+01 6.0061790494850753e-01 0 0 0
317 1 -1.1663843237399921e-06 1.2372285514055818e+01 1.3866101945259906e+01 6.0061386546453754e-01 0 0 0
319 1 -9.7213370599073860e-07 1.1644505713124468e+01 1.5126656667556063e+01 8.5782538078080423e-02 0 0 0
321 1 -4.9280853706119029e-06 1.2372257680239017e+01 1.3866101945259929e+01 2.1548975457324349e+00 0 0 0
324 1 4.1506020484557659e-06 1.3100087316396543e+01 1.5126656667556281e+01 2.6738940542094856e+00 0 0 0
549 1 2.2536779974605732e-08 8.7333792990306769e+00 7.5633283337783013e+00 -3.3842486455055218e+00 0 0 0
551 1 -1.6381403134309986e-06 1.0916724123612497e+01 8.8238830560741981e+00 -3.3842486456065739e+00 0 0 0
554 1 2.5523022079592934e-06 1.0916724122544238e+01 8.8238830560740702e+00 -2.0497204227455970e+00 0 0 0
555 1 -6.6926430084774687e-07 1.3100068948507953e+01 7.5633283337784292e+00 -3.3842486455054233e+00 0 0 0
556 1 5.9110081549355883e-07 1.1644505733909781e+01 7.5633283337779753e+00 -1.4598635471113166e+00 0 0 0
558 1 -2.6956172192604689e-06 1.3827850554702554e+01 8.8238830560746866e+00 -1.4598635295244646e+00 0 0 0
562 1 -8.7712869849961048e-07 1.3827850574868970e+01 8.8238830560744894e+00 8.5782631039276219e-02 0 0 0
588 1 3.8136038000186339e-07 8.7333792990308741e+00 1.0084437778371017e+01 -3.3842486455056027e+00 0 0 0
589 1 6.3143474702142448e-07 7.2778160844332298e+00 1.0084437778370720e+01 -1.4598635471113870e+00 0 0 0
590 1 -2.9829490570390870e-06 9.4611609052254835e+00 8.8238830560745214e+00 -1.4598635295247901e+00 0 0 0
591 1 -2.8557572509359718e-06 9.4611609052255652e+00 1.1344992500667184e+01 -1.4598635295246829e+00 0 0 0
592 1 1.4844383460595736e-06 8.7333793000993918e+00 1.0084437778371122e+01 -2.0497204217565184e+00 0 0 0
593 1 -1.0524609496214992e-06 7.2778160636482827e+00 1.0084437778370928e+01 8.5782538078577941e-02 0 0 0
594 1 -1.3187006650934630e-06 9.4611609253924858e+00 8.8238830560743953e+00 8.5782631038083021e-02 0 0 0
595 1 -1.4213215357588237e-06 9.4611609253924964e+00 1.1344992500667097e+01 8.5782631038046675e-02 0 0 0
596 1 7.1789472875666488e-07 1.1644505733909751e+01 1.0084437778370775e+01 -1.4598635471114618e+00 0 0 0
597 1 4.0059792524754946e-06 1.0188944380351087e+01 1.0084437778370871e+01 6.0061790494847911e-01 0 0 0
598 1 -8.1386372304920199e-07 1.2372285514055580e+01 8.8238830560744201e+00 6.0061386546475704e-01 0 0 0
599 1 -9.5599086942313621e-07 1.2372285514055688e+01 1.1344992500667155e+01 6.0061386546461504e-01 0 0 0
600 1 -6.7304155506779601e-07 1.1644505713124461e+01 1.0084437778370869e+01 8.5782538077580420e-02 0 0 0
601 1 -2.2860248424648740e-06 1.0188971927854318e+01 1.0084437778371806e+01 2.1549079790590504e+00 0 0 0
602 1 -4.8474875899959129e-06 1.2372257680239006e+01 8.8238830560741661e+00 2.1548975457329926e+00 0 0 0
603 1 -4.9332764565908665e-06 1.2372257680239146e+01 1.1344992500667017e+01 2.1548975457326516e+00 0 0 0
605 1 3.9439769288443826e-06 1.3100087316397179e+01 1.0084437778369962e+01 2.6738940542109830e+00 0 0 0
644 1 7.5914122815505914e-07 7.2778160844331357e+00 1.2605547222963715e+01 -1.4598635471113770e+00 0 0 0
646 1 -1.0861935870339603e-06 8.0055958645796590e+00 1.1344992500667194e+01 6.0061386546458284e-01 0 0 0
647 1 -1.0026427998238133e-06 8.0055958645797656e+00 1.3866101945259835e+01 6.0061386546464768e-01 0 0 0
648 1 -9.6826864364275060e-07 7.2778160636482445e+00 1.2605547222963716e+01 8.5782538078517725e-02 0 0 0
650 1 -4.2553827278151604e-06 8.0055680307623991e+00 1.1344992500667123e+01 2.1548975457321733e+00 0 0 0
651 1 -4.5593789924264361e-06 8.0055680307623689e+00 1.3866101945259995e+01 2.1548975457323856e+00 0 0 0
652 1 3.9260253881102061e-06 1.0188944380351025e+01 1.2605547222963494e+01 6.0061790494857881e-01 0 0 0
653 1 4.4792116723442717e-06 8.7333976669194708e+00 1.2605547222963832e+01 2.6738940542084642e+00 0 0 0
654 1 3.9695213262828560e-06 1.0916690827023301e+01 1.1344992500666923e+01 2.6740093629793145e+00 0 0 0
655 1 3.8805507664888059e-06 1.0916690827023087e+01 1.3866101945260105e+01 2.6740093629792194e+00 0 0 0
656 1 -2.4857430709717670e-06 1.0188971927854546e+01 1.2605547222963320e+01 2.1549079790594732e+00 0 0 0
660 1 3.9294383420448728e-06 1.3100087316397302e+01 1.2605547222963144e+01 2.6738940542101926e+00 0 0 0
1007 1 -9.0232862318305958e-07 8.0055958645797780e+00 8.8238830560745285e+00 6.0061386546466189e-01 0 0 0
1008 1 -7.5571234831780552e-07 7.2778160636481006e+00 7.5633283337780242e+00 8.5782538078519058e-02 0 0 0
1011 1 -4.0068594800764287e-06 8.0055680307625536e+00 8.8238830560742834e+00 2.1548975457323585e+00 0 0 0
1015 1 4.1187630837420418e-06 1.0916690827023448e+01 8.8238830560737682e+00 2.6740093629798034e+00 0 0 0
1016 1 -2.1914514620780926e-06 1.0188971927854267e+01 7.5633283337795856e+00 2.1549079790578030e+00 0 0 0
1070 1 4.7523506624413215e-06 8.7333976669197959e+00 1.0084437778370024e+01 2.6738940542082617e+00 0 0 0
74 1 -2.1457732044792359e-07 1.7466758597983382e+01 1.2605547222963335e+01 -3.3842486455051453e+00 0 0 0
75 1 -1.4835094787105820e-06 1.9650103422566236e+01 1.1344992500667342e+01 -3.3842486456069523e+00 0 0 0
76 1 -1.3347249907022586e-06 1.9650103422566104e+01 1.3866101945259977e+01 -3.3842486456068013e+00 0 0 0
77 1 1.3634332296458369e-06 1.7466758599052131e+01 1.2605547222963112e+01 -2.0497204217564766e+00 0 0 0
78 1 2.8443588640979374e-06 1.9650103421497580e+01 1.1344992500667340e+01 -2.0497204227461654e+00 0 0 0
79 1 2.8087586796092791e-06 1.9650103421497452e+01 1.3866101945260118e+01 -2.0497204227460819e+00 0 0 0
81 1 8.4007654980954133e-07 2.0377885032860981e+01 1.2605547222963420e+01 -1.4598635471121002e+00 0 0 0
83 1 -8.1236023503552531e-07 2.0377885012076614e+01 1.2605547222963342e+01 8.5782538077712842e-02 0 0 0
85 1 -1.3667961362027349e-06 1.5283413773088846e+01 1.3866101945260082e+01 -3.3842486456067791e+00 0 0 0
88 1 2.7862097090713562e-06 1.5283413772020394e+01 1.3866101945260098e+01 -2.0497204227457013e+00 0 0 0
90 1 1.1532237926823031e-07 1.7466758597983443e+01 1.5126656667556020e+01 -3.3842486455052083e+00 0 0 0
92 1 -2.9003021388256288e-06 1.8194540204179670e+01 1.3866101945259752e+01 -1.4598635295238513e+00 0 0 0
94 1 1.2839481134173385e-06 1.7466758599052213e+01 1.5126656667555732e+01 -2.0497204217564349e+00 0 0 0
95 1 -1.1490021729552613e-06 1.6011195362600514e+01 1.5126656667556233e+01 8.5782538077575091e-02 0 0 0
96 1 -1.3879807432975093e-06 1.8194540224345904e+01 1.3866101945259814e+01 8.5782631039133195e-02 0 0 0
98 1 7.1848320543432762e-07 2.0377885032861318e+01 1.5126656667556722e+01 -1.4598635471119139e+00 0 0 0
100 1 -1.2060660520378400e-06 2.1105664813009199e+01 1.3866101945259754e+01 6.0061386546481721e-01 0 0 0
102 1 -8.4492314131870603e-07 2.0377885012076820e+01 1.5126656667556746e+01 8.5782538077695022e-02 0 0 0
103 1 -2.1418219272229615e-06 1.8922351226805670e+01 1.5126656667557670e+01 2.1549079790574530e+00 0 0 0
104 1 -4.8769657546638004e-06 2.1105636979191623e+01 1.3866101945259741e+01 2.1548975457327879e+00 0 0 0
237 1 -1.6069344738468350e-06 1.9650103422566318e+01 8.8238830560744805e+00 -3.3842486456072352e+00 0 0 0
238 1 1.2503635131561397e-06 1.7466758599052298e+01 7.5633283337786450e+00 -2.0497204217564189e+00 0 0 0
240 1 2.7890103158271333e-06 1.9650103421497658e+01 8.8238830560744148e+00 -2.0497204227463079e+00 0 0 0
243 1 -7.3417257283251292e-07 2.0377885012076678e+01 7.5633283337778128e+00 8.5782538078025966e-02 0 0 0
245 1 -2.0176646278503079e-06 1.5283413773088542e+01 8.8238830560743473e+00 -3.3842486456070140e+00 0 0 0
246 1 -1.7475002175082543e-06 1.5283413773088663e+01 1.1344992500667228e+01 -3.3842486456069132e+00 0 0 0
248 1 2.6829744827017324e-06 1.5283413772020138e+01 8.8238830560743047e+00 -2.0497204227457262e+00 0 0 0
249 1 2.8066065129201186e-06 1.5283413772020220e+01 1.1344992500667205e+01 -2.0497204227457146e+00 0 0 0
250 1 -4.9731300693393741e-07 1.7466758597983389e+01 1.0084437778370770e+01 -3.3842486455050738e+00 0 0 0
251 1 1.0397625947627490e-06 1.6011195383384912e+01 1.0084437778370498e+01 -1.4598635471118748e+00 0 0 0
252 1 -2.6559279210660993e-06 1.8194540204179809e+01 8.8238830560749424e+00 -1.4598635295241464e+00 0 0 0
253 1 -2.6868545299574350e-06 1.8194540204179823e+01 1.1344992500667452e+01 -1.4598635295238627e+00 0 0 0
254 1 1.3431340085807358e-06 1.7466758599052145e+01 1.0084437778370804e+01 -2.0497204217564917e+00 0 0 0
255 1 -3.0767100624285848e-07 1.6011195362600610e+01 1.0084437778370468e+01 8.5782538077140619e-02 0 0 0
256 1 -9.6914342676704164e-07 1.8194540224345751e+01 8.8238830560749815e+00 8.5782631039450927e-02 0 0 0
257 1 -1.0839592112887108e-06 1.8194540224345921e+01 1.1344992500667608e+01 8.5782631039365079e-02 0 0 0
258 1 8.9169501373486100e-07 2.0377885032860796e+01 1.0084437778370356e+01 -1.4598635471119101e+00 0 0 0
259 1 4.1196999672692549e-06 1.8922323679302849e+01 1.0084437778370400e+01 6.0061790494766798e-01 0 0 0
260 1 -1.1458683989791744e-06 2.1105664813009284e+01 8.8238830560746297e+00 6.0061386546474749e-01 0 0 0
261 1 -1.2223660000157648e-06 2.1105664813009284e+01 1.1344992500667244e+01 6.0061386546479612e-01 0 0 0
262 1 -7.0501718471583114e-07 2.0377885012076582e+01 1.0084437778370212e+01 8.5782538077861542e-02 0 0 0
263 1 -2.7206075578873251e-06 1.8922351226806445e+01 1.0084437778369503e+01 2.1549079790566710e+00 0 0 0
264 1 -4.9531909151265878e-06 2.1105636979191345e+01 8.8238830560747381e+00 2.1548975457326085e+00 0 0 0
265 1 -5.0309581688030606e-06 2.1105636979191498e+01 1.1344992500667423e+01 2.1548975457326316e+00 0 0 0
282 1 9.0237794785828417e-07 1.6011195383384827e+01 1.2605547222963217e+01 -1.4598635471119743e+00 0 0 0
283 1 4.0045330318400953e-06 1.4555634029827029e+01 1.2605547222963521e+01 6.0061790494811518e-01 0 0 0
284 1 -8.3257445736176085e-07 1.6738975163532501e+01 1.1344992500667260e+01 6.0061386546495465e-01 0 0 0
285 1 -1.0990242839616091e-06 1.6738975163532533e+01 1.3866101945259839e+01 6.0061386546483508e-01 0 0 0
286 1 -6.1745921193091829e-07 1.6011195362600407e+01 1.2605547222963313e+01 8.5782538077283227e-02 0 0 0
287 1 -2.7171210293302452e-06 1.4555661577329055e+01 1.2605547222963850e+01 2.1549079790575334e+00 0 0 0
288 1 -4.9549147577639185e-06 1.6738947329715547e+01 1.1344992500667317e+01 2.1548975457330788e+00 0 0 0
289 1 -4.6091756584386744e-06 1.6738947329715629e+01 1.3866101945259734e+01 2.1548975457327599e+00 0 0 0
290 1 4.0217943679899001e-06 1.8922323679302743e+01 1.2605547222963441e+01 6.0061790494765455e-01 0 0 0
291 1 4.2574558239001113e-06 1.7466776965873702e+01 1.2605547222963398e+01 2.6738940542110896e+00 0 0 0
292 1 3.9973817055108634e-06 1.9650070125976054e+01 1.1344992500667505e+01 2.6740093629799411e+00 0 0 0
293 1 4.3264568756446373e-06 1.9650070125976335e+01 1.3866101945259530e+01 2.6740093629800317e+00 0 0 0
294 1 -2.4484558917195847e-06 1.8922351226805795e+01 1.2605547222963299e+01 2.1549079790571462e+00 0 0 0
323 1 3.6333376522684732e-06 1.4555634029827035e+01 1.5126656667556343e+01 6.0061790494831213e-01 0 0 0
325 1 4.1032499686992417e-06 1.5283380476500408e+01 1.3866101945259418e+01 2.6740093629798847e+00 0 0 0
327 1 -2.4622734462873582e-06 1.4555661577329593e+01 1.5126656667556572e+01 2.1549079790585486e+00 0 0 0
331 1 4.6371059798805575e-06 1.7466776965873883e+01 1.5126656667555157e+01 2.6738940542104643e+00 0 0 0
563 1 9.4216418714541614e-07 1.6011195383385161e+01 7.5633283337780517e+00 -1.4598635471116359e+00 0 0 0
564 1 4.3461826833054934e-06 1.4555634029827402e+01 7.5633283337779060e+00 6.0061790494786005e-01 0 0 0
566 1 -7.3099300921921659e-07 1.6738975163532320e+01 8.8238830560746067e+00 6.0061386546498163e-01 0 0 0
570 1 -5.1300433404087884e-06 1.6738947329715277e+01 8.8238830560747363e+00 2.1548975457333399e+00 0 0 0
571 1 4.1184138509972410e-06 1.8922323679302988e+01 7.5633283337778092e+00 6.0061790494783496e-01 0 0 0
572 1 3.8091658957353406e-06 1.7466776965872516e+01 7.5633283337786947e+00 2.6738940542123419e+00 0 0 0
574 1 3.8953922849495641e-06 1.9650070125975837e+01 8.8238830560749033e+00 2.6740093629800494e+00 0 0 0
604 1 4.2566114404796003e-06 1.4555634029827198e+01 1.0084437778370642e+01 6.0061790494794454e-01 0 0 0
606 1 3.6592315366508132e-06 1.5283380476499849e+01 8.8238830560745072e+00 2.6740093629808266e+00 0 0 0
607 1 3.8039371243131537e-06 1.5283380476500344e+01 1.1344992500666999e+01 2.6740093629803758e+00 0 0 0
608 1 -2.8149859358605245e-06 1.4555661577329515e+01 1.0084437778370985e+01 2.1549079790564387e+00 0 0 0
612 1 3.8758839235500131e-06 1.7466776965873049e+01 1.0084437778371511e+01 2.6738940542118255e+00 0 0 0
141 1 -1.1830113062223674e-06 4.3666896495539991e+00 2.0168875556741398e+01 -3.3842486455048020e+00 0 0 0
142 1 -2.3147407234308197e-06 6.5500344741372150e+00 1.8908320834445345e+01 -3.3842486456071423e+00 0 0 0
143 1 -2.5109321292201493e-06 6.5500344741372274e+00 2.1429430279038137e+01 -3.3842486456071565e+00 0 0 0
144 1 9.8325796853372220e-07 4.3666896506227735e+00 2.0168875556741281e+01 -2.0497204217558354e+00 0 0 0
145 1 2.4581957368823329e-06 6.5500344730687665e+00 1.8908320834445501e+01 -2.0497204227463639e+00 0 0 0
146 1 2.3901137599556914e-06 6.5500344730688012e+00 2.1429430279038321e+01 -2.0497204227464101e+00 0 0 0
190 1 -2.4112107885161239e-06 2.1833448246608644e+00 2.1429430279038186e+01 -3.3842486456071135e+00 0 0 0
192 1 2.1855665679154777e-06 2.1833448235924835e+00 2.1429430279038343e+01 -2.0497204227463919e+00 0 0 0
195 1 -2.6450529473387191e-06 5.0944712557500482e+00 2.1429430279038009e+01 -1.4598635295253910e+00 0 0 0
198 1 -3.4187447542779474e-07 5.0944712759168160e+00 2.1429430279038108e+01 8.5782631038438126e-02 0 0 0
303 1 -1.7930693085141470e-06 6.5500344741370924e+00 1.6387211389852549e+01 -3.3842486456069785e+00 0 0 0
304 1 1.2202921556178801e-06 4.3666896506230160e+00 1.5126656667556281e+01 -2.0497204217561116e+00 0 0 0
306 1 2.6347573460730568e-06 6.5500344730686502e+00 1.6387211389852649e+01 -2.0497204227462547e+00 0 0 0
349 1 -4.6991441523048119e-07 7.7767695072090290e-11 1.7647766112148915e+01 -3.3842486455050942e+00 0 0 0
350 1 -1.9660419625601834e-06 2.1833448246606939e+00 1.6387211389852510e+01 -3.3842486456069554e+00 0 0 0
351 1 -2.4065599715453919e-06 2.1833448246607463e+00 1.8908320834445334e+01 -3.3842486456071224e+00 0 0 0
352 1 1.0342611528167345e-06 1.1465409210266573e-09 1.7647766112148734e+01 -2.0497204217561005e+00 0 0 0
353 1 2.4378267308062614e-06 2.1833448235921518e+00 1.6387211389852691e+01 -2.0497204227462569e+00 0 0 0
354 1 2.2317382077546589e-06 2.1833448235922757e+00 1.8908320834445515e+01 -2.0497204227463044e+00 0 0 0
355 1 -9.3467813066505416e-07 4.3666896495540897e+00 1.7647766112148894e+01 -3.3842486455050018e+00 0 0 0
356 1 7.1262244379431463e-07 2.9111264349565467e+00 1.7647766112149515e+01 -1.4598635471109591e+00 0 0 0
357 1 -2.8438049166621750e-06 5.0944712557501406e+00 1.6387211389851924e+01 -1.4598635295250542e+00 0 0 0
358 1 -2.7208564260635755e-06 5.0944712557502667e+00 1.8908320834444815e+01 -1.4598635295253153e+00 0 0 0
359 1 1.0186705557073264e-06 4.3666896506229049e+00 1.7647766112148748e+01 -2.0497204217559979e+00 0 0 0
360 1 -3.5737071650226272e-07 2.9111264141717195e+00 1.7647766112149345e+01 8.5782538078113632e-02 0 0 0
361 1 -9.8325917673828631e-07 5.0944712759167317e+00 1.6387211389851764e+01 8.5782631038172588e-02 0 0 0
362 1 -5.4169442121144497e-07 5.0944712759170532e+00 1.8908320834444762e+01 8.5782631038425872e-02 0 0 0
364 1 4.3483342354136131e-06 5.8222547308740920e+00 1.7647766112149235e+01 6.0061790494826495e-01 0 0 0
368 1 -2.9356368307852219e-06 5.8222822783775134e+00 1.7647766112149053e+01 2.1549079790556349e+00 0 0 0
407 1 -7.1506696682236530e-07 7.7649577228215957e-11 2.0168875556741437e+01 -3.3842486455049294e+00 0 0 0
408 1 -3.1438813250370247e-06 7.2778160627359700e-01 1.8908320834444829e+01 -1.4598635295250948e+00 0 0 0
409 1 -3.2678593768756784e-06 7.2778160627353605e-01 2.1429430279038243e+01 -1.4598635295251579e+00 0 0 0
410 1 8.1253605138089120e-07 1.1463354792194280e-09 2.0168875556741373e+01 -2.0497204217559712e+00 0 0 0
411 1 -1.2277604542726551e-06 7.2778162644010480e-01 1.8908320834444709e+01 8.5782631038372442e-02 0 0 0
412 1 -1.2471776603668889e-06 7.2778162643998423e-01 2.1429430279038410e+01 8.5782631038140766e-02 0 0 0
413 1 7.3319158838184966e-07 2.9111264349565906e+00 2.0168875556741725e+01 -1.4598635471107617e+00 0 0 0
414 1 4.0989057057697358e-06 1.4555650813979184e+00 2.0168875556741664e+01 6.0061790494830858e-01 0 0 0
415 1 -4.7708976582799057e-07 3.6389062151036358e+00 1.8908320834444947e+01 6.0061386546491025e-01 0 0 0
416 1 -3.5866921262842568e-07 3.6389062151037348e+00 2.1429430279038016e+01 6.0061386546504358e-01 0 0 0
417 1 -1.5585845071765802e-07 2.9111264141716386e+00 2.0168875556741533e+01 8.5782538078199591e-02 0 0 0
418 1 -3.0589817747401552e-06 1.4555926289011487e+00 2.0168875556741447e+01 2.1549079790552357e+00 0 0 0
419 1 -5.1822579720312131e-06 3.6388783812862173e+00 1.8908320834445167e+01 2.1548975457335429e+00 0 0 0
420 1 -4.9867878078980199e-06 3.6388783812862280e+00 2.1429430279038094e+01 2.1548975457335571e+00 0 0 0
421 1 4.7114497066228005e-06 5.8222547308739943e+00 2.0168875556741792e+01 6.0061790494818157e-01 0 0 0
422 1 3.6852557530356165e-06 4.3667080174441004e+00 2.0168875556741881e+01 2.6738940542131857e+00 0 0 0
423 1 3.4940057468426739e-06 6.5500011775474212e+00 1.8908320834445355e+01 2.6740093629810104e+00 0 0 0
424 1 3.5345494612787246e-06 6.5500011775474745e+00 2.1429430279037938e+01 2.6740093629812236e+00 0 0 0
425 1 -2.8983196874620999e-06 5.8222822783773402e+00 2.0168875556741597e+01 2.1549079790541850e+00 0 0 0
473 1 3.5471425887052161e-06 2.1833115280712847e+00 2.1429430279038133e+01 2.6740093629811286e+00 0 0 0
688 1 -9.5151279434266535e-08 7.7708721207923906e-11 1.5126656667556279e+01 -3.3842486455053153e+00 0 0 0
690 1 -3.0282246741978792e-06 7.2778160627367727e-01 1.6387211389851821e+01 -1.4598635295246807e+00 0 0 0
693 1 -1.4164083887627907e-06 7.2778162644011046e-01 1.6387211389851515e+01 8.5782631038467658e-02 0 0 0
694 1 6.7902430362694207e-07 2.9111264349566386e+00 1.5126656667556901e+01 -1.4598635471113133e+00 0 0 0
695 1 3.6906618770183592e-06 1.4555650813979550e+00 1.5126656667556755e+01 6.0061790494808887e-01 0 0 0
697 1 -7.6682528316030377e-07 3.6389062151035274e+00 1.6387211389852130e+01 6.0061386546472750e-01 0 0 0
701 1 -5.0637359742929715e-06 3.6388783812859704e+00 1.6387211389852329e+01 2.1548975457331090e+00 0 0 0
702 1 4.0292600288485610e-06 5.8222547308743104e+00 1.5126656667556528e+01 6.0061790494844114e-01 0 0 0
703 1 4.0214220144260912e-06 4.3667080174428792e+00 1.5126656667556276e+01 2.6738940542105945e+00 0 0 0
705 1 3.6977076778683367e-06 6.5500011775470712e+00 1.6387211389852876e+01 2.6740093629802901e+00 0 0 0
752 1 3.9572630737702685e-06 1.4555650813980154e+00 1.7647766112149387e+01 6.0061790494821632e-01 0 0 0
753 1 3.8794344600357454e-06 1.8367967362702897e-05 1.7647766112147476e+01 2.6738940542114498e+00 0 0 0
754 1 3.3786620260914017e-06 2.1833115280708708e+00 1.6387211389852027e+01 2.6740093629805104e+00 0 0 0
755 1 3.2826501199730578e-06 2.1833115280711572e+00 1.8908320834444918e+01 2.6740093629811263e+00 0 0 0
756 1 -3.1471102961594455e-06 1.4555926289015662e+00 1.7647766112150414e+01 2.1549079790556371e+00 0 0 0
760 1 3.6878290877215859e-06 4.3667080174437496e+00 1.7647766112148805e+01 2.6738940542124459e+00 0 0 0
810 1 3.9150278223903087e-06 1.8367967743107498e-05 2.0168875556741508e+01 2.6738940542115257e+00 0 0 0
23 1 4.2034084384834437e-07 1.3100068948507190e+01 2.0168875556741437e+01 -3.3842486455053526e+00 0 0 0
26 1 1.2218544837707981e-06 1.3100068949575491e+01 2.0168875556741376e+01 -2.0497204217561604e+00 0 0 0
48 1 -1.5635048610689227e-06 1.0916724123613383e+01 2.1429430279038105e+01 -3.3842486456070056e+00 0 0 0
50 1 2.5278785158372760e-06 1.0916724122545377e+01 2.1429430279038332e+01 -2.0497204227464318e+00 0 0 0
53 1 -3.3619336342452891e-06 1.3827850554702099e+01 2.1429430279037824e+01 -1.4598635295249420e+00 0 0 0
56 1 -1.9662942968133754e-06 1.3827850574869172e+01 2.1429430279037806e+01 8.5782631037970930e-02 0 0 0
84 1 1.4279153539235975e-07 1.3100068948507499e+01 1.5126656667555942e+01 -3.3842486455054326e+00 0 0 0
107 1 -2.3595360098355404e-07 8.7333792990303838e+00 1.7647766112148766e+01 -3.3842486455052332e+00 0 0 0
108 1 -1.2338947304018014e-06 1.0916724123612912e+01 1.6387211389852808e+01 -3.3842486456066765e+00 0 0 0
109 1 -1.2913123536020607e-06 1.0916724123613204e+01 1.8908320834445476e+01 -3.3842486456068506e+00 0 0 0
110 1 1.3874092635337880e-06 8.7333793000989068e+00 1.7647766112148698e+01 -2.0497204217560272e+00 0 0 0
111 1 2.7899886199782386e-06 1.0916724122544670e+01 1.6387211389852894e+01 -2.0497204227459722e+00 0 0 0
112 1 2.6933935252380510e-06 1.0916724122545070e+01 1.8908320834445668e+01 -2.0497204227462507e+00 0 0 0
113 1 4.2335031526220955e-07 1.3100068948507310e+01 1.7647766112148624e+01 -3.3842486455054113e+00 0 0 0
114 1 5.4316795766398009e-07 1.1644505733909471e+01 1.7647766112149064e+01 -1.4598635471113119e+00 0 0 0
115 1 -3.1631152608239447e-06 1.3827850554702325e+01 1.6387211389852581e+01 -1.4598635295244906e+00 0 0 0
116 1 -3.3445396201357142e-06 1.3827850554702133e+01 1.8908320834445203e+01 -1.4598635295247264e+00 0 0 0
117 1 1.3056202799632897e-06 1.3100068949575817e+01 1.7647766112148521e+01 -2.0497204217563665e+00 0 0 0
118 1 -1.1280678907085632e-06 1.1644505713124484e+01 1.7647766112148929e+01 8.5782538078407619e-02 0 0 0
119 1 -1.9062219825660327e-06 1.3827850574869062e+01 1.6387211389852631e+01 8.5782631038294227e-02 0 0 0
120 1 -2.1229278497377396e-06 1.3827850574868981e+01 1.8908320834445163e+01 8.5782631037960411e-02 0 0 0
147 1 -6.0008616981523437e-07 8.7333792990302364e+00 2.0168875556741458e+01 -3.3842486455049614e+00 0 0 0
148 1 9.3463142382366741e-07 7.2778160844323292e+00 2.0168875556741909e+01 -1.4598635471108576e+00 0 0 0
149 1 -2.7768331158768305e-06 9.4611609052264161e+00 1.8908320834444929e+01 -1.4598635295249929e+00 0 0 0
150 1 -2.8336683250831446e-06 9.4611609052265049e+00 2.1429430279037703e+01 -1.4598635295253510e+00 0 0 0
151 1 1.1978191189863922e-06 8.7333793000987683e+00 2.0168875556741369e+01 -2.0497204217557345e+00 0 0 0
152 1 7.1574010851433495e-08 7.2778160636477089e+00 2.0168875556741735e+01 8.5782538078293197e-02 0 0 0
153 1 -1.0386206993966309e-06 9.4611609253930684e+00 1.8908320834444787e+01 8.5782631037824700e-02 0 0 0
154 1 -8.1835111948573359e-07 9.4611609253931679e+00 2.1429430279037540e+01 8.5782631037789520e-02 0 0 0
155 1 4.4218680327119424e-07 1.1644505733909424e+01 2.0168875556741995e+01 -1.4598635471110091e+00 0 0 0
156 1 4.1241399052950905e-06 1.0188944380350447e+01 2.0168875556741821e+01 6.0061790494827505e-01 0 0 0
157 1 -1.4260301500220052e-06 1.2372285514056131e+01 1.8908320834445171e+01 6.0061386546470830e-01 0 0 0
158 1 -1.2956326775128448e-06 1.2372285514056168e+01 2.1429430279037842e+01 6.0061386546484319e-01 0 0 0
159 1 -1.1320482604208530e-06 1.1644505713124332e+01 2.0168875556741785e+01 8.5782538078600465e-02 0 0 0
160 1 -2.5040898729316820e-06 1.0188971927855039e+01 2.0168875556741682e+01 2.1549079790572003e+00 0 0 0
161 1 -4.4931890828068976e-06 1.2372257680238645e+01 1.8908320834445345e+01 2.1548975457325730e+00 0 0 0
162 1 -4.5594250320119780e-06 1.2372257680238651e+01 2.1429430279038041e+01 2.1548975457328523e+00 0 0 0
164 1 4.5680172014444680e-06 1.3100087316395451e+01 2.0168875556742091e+01 2.6738940542095571e+00 0 0 0
201 1 -2.2978842446972556e-07 8.0055958645802328e+00 2.1429430279037817e+01 6.0061386546499662e-01 0 0 0
204 1 -4.8500504313172357e-06 8.0055680307623565e+00 2.1429430279037916e+01 2.1548975457332911e+00 0 0 0
207 1 3.9726398067859827e-06 1.0916690827023269e+01 2.1429430279038126e+01 2.6740093629803696e+00 0 0 0
310 1 -2.7228988048424392e-06 9.4611609052261194e+00 1.6387211389852432e+01 -1.4598635295247104e+00 0 0 0
312 1 -6.7577111549093097e-07 7.2778160636479567e+00 1.5126656667556448e+01 8.5782538078366277e-02 0 0 0
314 1 -1.1909792943289810e-06 9.4611609253928659e+00 1.6387211389852453e+01 8.5782631037951862e-02 0 0 0
318 1 -1.3430814222522255e-06 1.2372285514055982e+01 1.6387211389852578e+01 6.0061386546458373e-01 0 0 0
320 1 -2.5357902989724054e-06 1.0188971927854913e+01 1.5126656667555398e+01 2.1549079790592631e+00 0 0 0
322 1 -4.6785743080890612e-06 1.2372257680238768e+01 1.6387211389852716e+01 2.1548975457324056e+00 0 0 0
363 1 8.9222275095192893e-07 7.2778160844323638e+00 1.7647766112149323e+01 -1.4598635471111376e+00 0 0 0
365 1 -8.1560228870934955e-07 8.0055958645800338e+00 1.6387211389852439e+01 6.0061386546480244e-01 0 0 0
366 1 -5.2582237500628760e-07 8.0055958645802399e+00 1.8908320834445028e+01 6.0061386546493345e-01 0 0 0
367 1 -3.1082020457288419e-07 7.2778160636476974e+00 1.7647766112149153e+01 8.5782538078252799e-02 0 0 0
369 1 -4.8344459208892876e-06 8.0055680307624204e+00 1.6387211389852666e+01 2.1548975457327839e+00 0 0 0
370 1 -4.9204487111474131e-06 8.0055680307624115e+00 1.8908320834445224e+01 2.1548975457331112e+00 0 0 0
371 1 4.0048487397718690e-06 1.0188944380350550e+01 1.7647766112149032e+01 6.0061790494835965e-01 0 0 0
372 1 4.0389815154577067e-06 8.7333976669191085e+00 1.7647766112149341e+01 2.6738940542102676e+00 0 0 0
373 1 4.0259551045695329e-06 1.0916690827022970e+01 1.6387211389852858e+01 2.6740093629793771e+00 0 0 0
374 1 4.1036454818263748e-06 1.0916690827023070e+01 1.8908320834445355e+01 2.6740093629797794e+00 0 0 0
375 1 -2.4894376710321278e-06 1.0188971927855137e+01 1.7647766112148496e+01 2.1549079790585268e+00 0 0 0
379 1 4.5098800332484760e-06 1.3100087316395712e+01 1.7647766112149213e+01 2.6738940542091250e+00 0 0 0
429 1 3.9534450862983347e-06 8.7333976669190356e+00 2.0168875556741604e+01 2.6738940542112291e+00 0 0 0
710 1 4.2192138408810985e-06 8.7333976669192470e+00 1.5126656667557025e+01 2.6738940542092875e+00 0 0 0
4 1 -1.4394506758213463e-06 1.9650103422565980e+01 2.1429430279038154e+01 -3.3842486456071712e+00 0 0 0
6 1 2.4558935489414330e-06 1.9650103421497484e+01 2.1429430279038161e+01 -2.0497204227462866e+00 0 0 0
13 1 3.6567953329394624e-07 1.7466758597983539e+01 1.7647766112148723e+01 -3.3842486455052105e+00 0 0 0
14 1 -1.3142946110936171e-06 1.9650103422565913e+01 1.6387211389852606e+01 -3.3842486456068941e+00 0 0 0
15 1 -1.3998985894592928e-06 1.9650103422565856e+01 1.8908320834445359e+01 -3.3842486456070864e+00 0 0 0
16 1 1.2094057545353902e-06 1.7466758599052316e+01 1.7647766112148485e+01 -2.0497204217563527e+00 0 0 0
17 1 2.6705098950770458e-06 1.9650103421497356e+01 1.6387211389852826e+01 -2.0497204227460695e+00 0 0 0
18 1 2.5094748146446613e-06 1.9650103421497359e+01 1.8908320834445519e+01 -2.0497204227461485e+00 0 0 0
20 1 5.4852351806151555e-07 2.0377885032861624e+01 1.7647766112149483e+01 -1.4598635471114889e+00 0 0 0
22 1 -8.2624136652405531e-07 2.0377885012077048e+01 1.7647766112149469e+01 8.5782538077841128e-02 0 0 0
24 1 -7.1806675063329629e-07 1.5283413773088974e+01 1.8908320834445508e+01 -3.3842486456067618e+00 0 0 0
25 1 -8.4821061135974415e-07 1.5283413773088972e+01 2.1429430279038097e+01 -3.3842486456068182e+00 0 0 0
27 1 2.6846106747020676e-06 1.5283413772020639e+01 1.8908320834445728e+01 -2.0497204227459207e+00 0 0 0
28 1 2.6257233938813231e-06 1.5283413772020602e+01 2.1429430279038201e+01 -2.0497204227460362e+00 0 0 0
29 1 4.4709979799874574e-07 1.7466758597983578e+01 2.0168875556741430e+01 -3.3842486455051706e+00 0 0 0
30 1 2.3270800166596433e-07 1.6011195383385580e+01 2.0168875556741796e+01 -1.4598635471114465e+00 0 0 0
31 1 -3.3243378693069416e-06 1.8194540204178963e+01 1.8908320834444993e+01 -1.4598635295244948e+00 0 0 0
32 1 -3.3100655343252102e-06 1.8194540204179045e+01 2.1429430279037973e+01 -1.4598635295246998e+00 0 0 0
33 1 1.2083827172174381e-06 1.7466758599052326e+01 2.0168875556741305e+01 -2.0497204217562617e+00 0 0 0
34 1 -1.5464914193365250e-06 1.6011195362601050e+01 2.0168875556741632e+01 8.5782538078095869e-02 0 0 0
35 1 -1.8705728107520659e-06 1.8194540224345101e+01 1.8908320834444975e+01 8.5782631038493345e-02 0 0 0
36 1 -1.8216497103000660e-06 1.8194540224345008e+01 2.1429430279038101e+01 8.5782631038290647e-02 0 0 0
37 1 4.1442359442758534e-07 2.0377885032861666e+01 2.0168875556741718e+01 -1.4598635471112380e+00 0 0 0
38 1 3.8004633529537565e-06 1.8922323679303332e+01 2.0168875556741714e+01 6.0061790494833756e-01 0 0 0
39 1 -9.2539097401951738e-07 2.1105664813008786e+01 1.8908320834445028e+01 6.0061386546470896e-01 0 0 0
40 1 -8.9410222242058527e-07 2.1105664813008925e+01 2.1429430279038097e+01 6.0061386546474826e-01 0 0 0
41 1 -8.1931453516444820e-07 2.0377885012077186e+01 2.0168875556741614e+01 8.5782538078083184e-02 0 0 0
42 1 -2.0877153334443238e-06 1.8922351226806782e+01 2.0168875556741828e+01 2.1549079790579415e+00 0 0 0
43 1 -4.6935043439263925e-06 2.1105636979191527e+01 1.8908320834444972e+01 2.1548975457330339e+00 0 0 0
44 1 -4.5636525526216221e-06 2.1105636979191438e+01 2.1429430279038129e+01 2.1548975457329340e+00 0 0 0
59 1 -1.4040578928013183e-06 1.6738975163532380e+01 2.1429430279037948e+01 6.0061386546467388e-01 0 0 0
62 1 -4.2214832796687445e-06 1.6738947329714961e+01 2.1429430279037931e+01 2.1548975457325814e+00 0 0 0
65 1 4.3684537355380059e-06 1.9650070125976288e+01 2.1429430279038296e+01 2.6740093629799238e+00 0 0 0
86 1 -9.6619352288716300e-07 1.5283413773088942e+01 1.6387211389852855e+01 -3.3842486456067276e+00 0 0 0
89 1 2.7094219281416029e-06 1.5283413772020557e+01 1.6387211389852993e+01 -2.0497204227457821e+00 0 0 0
91 1 5.5594838971544355e-07 1.6011195383385058e+01 1.5126656667556153e+01 -1.4598635471118533e+00 0 0 0
93 1 -3.1790730471962613e-06 1.8194540204179308e+01 1.6387211389852190e+01 -1.4598635295241074e+00 0 0 0
97 1 -1.7265994312443113e-06 1.8194540224345545e+01 1.6387211389852116e+01 8.5782631038824261e-02 0 0 0
99 1 3.9004112650459622e-06 1.8922323679302920e+01 1.5126656667556645e+01 6.0061790494784806e-01 0 0 0
101 1 -1.0432092668324855e-06 2.1105664813008978e+01 1.6387211389852226e+01 6.0061386546477147e-01 0 0 0
105 1 -4.7169419873706926e-06 2.1105636979191626e+01 1.6387211389852101e+01 2.1548975457329607e+00 0 0 0
121 1 2.8264676781593379e-07 1.6011195383385441e+01 1.7647766112149085e+01 -1.4598635471116383e+00 0 0 0
122 1 3.4045167171399859e-06 1.4555634029827068e+01 1.7647766112149096e+01 6.0061790494842848e-01 0 0 0
123 1 -1.4113992522208880e-06 1.6738975163532441e+01 1.6387211389852439e+01 6.0061386546470030e-01 0 0 0
124 1 -1.5021002417190163e-06 1.6738975163532338e+01 1.8908320834445142e+01 6.0061386546464968e-01 0 0 0
125 1 -1.5354888893725729e-06 1.6011195362600866e+01 1.7647766112148993e+01 8.5782538077893780e-02 0 0 0
126 1 -2.1072317244161166e-06 1.4555661577330508e+01 1.7647766112149025e+01 2.1549079790591525e+00 0 0 0
127 1 -4.3120586296810267e-06 1.6738947329715408e+01 1.6387211389852279e+01 2.1548975457325104e+00 0 0 0
128 1 -4.1316427541913264e-06 1.6738947329715089e+01 1.8908320834445064e+01 2.1548975457324664e+00 0 0 0
129 1 3.8037356757409679e-06 1.8922323679303251e+01 1.7647766112149377e+01 6.0061790494814504e-01 0 0 0
130 1 4.8068640317818217e-06 1.7466776965873272e+01 1.7647766112147842e+01 2.6738940542099945e+00 0 0 0
131 1 4.4906953654288224e-06 1.9650070125976342e+01 1.6387211389851668e+01 2.6740093629801462e+00 0 0 0
132 1 4.4176024809347588e-06 1.9650070125976182e+01 1.8908320834444737e+01 2.6740093629801041e+00 0 0 0
133 1 -2.0513357159978144e-06 1.8922351226806306e+01 1.7647766112150613e+01 2.1549079790576671e+00 0 0 0
163 1 3.4428745681678940e-06 1.4555634029827019e+01 2.0168875556741764e+01 6.0061790494842460e-01 0 0 0
165 1 4.7534366154081094e-06 1.5283380476499714e+01 1.8908320834445128e+01 2.6740093629794455e+00 0 0 0
166 1 4.6224579932956566e-06 1.5283380476499577e+01 2.1429430279038218e+01 2.6740093629797546e+00 0 0 0
167 1 -1.9655753355003981e-06 1.4555661577331005e+01 2.0168875556741348e+01 2.1549079790588506e+00 0 0 0
171 1 4.7628177413826347e-06 1.7466776965872597e+01 2.0168875556741494e+01 2.6738940542097418e+00 0 0 0
326 1 4.4861494734172013e-06 1.5283380476500065e+01 1.6387211389852126e+01 2.6740093629794872e+00 0 0 0
194 1 -2.9887899667531126e-06 2.1833315020665097e+01 2.6131327581627868e-13 8.8548021441746680e+00 -1 0 0
483 1 -3.0540454187536943e-06 2.1833315020665786e+01 5.0422188891855511e+00 8.8548021441740783e+00 -1 0 0
686 1 -3.3528869596767369e-06 4.3665564227596994e+00 2.5211094445933484e+00 8.8548021441748581e+00 0 0 0
862 1 2.0116833216933741e-06 1.4526422931076448e+00 2.5211094445925202e+00 8.3319183738648377e+00 0 0 0
863 1 -5.2965338409305777e-07 2.1833583540223938e+00 3.7816641668893913e+00 8.8550137974297201e+00 0 0 0
865 1 -7.3142135444108622e-07 2.1833583540218613e+00 1.2605547222970097e+00 8.8550137974301286e+00 0 0 0
866 1 -2.8124633778507249e-06 2.1833315020665513e+01 2.5211094445927760e+00 8.8548021441746574e+00 -1 0 0
868 1 -3.2756847178757857e-06 1.4579746957390034e+00 2.5211094445928119e+00 6.7879073860321730e+00 0 0 0
1288 1 1.4536492689476295e-06 5.8193319425832692e+00 2.2689985001333955e+01 8.3319183738645961e+00 0 -1 0
1290 1 -1.1977602448859143e-06 6.5500480034980422e+00 1.2605547222973161e+00 8.8550137974298213e+00 0 0 0
1291 1 -3.5537615191431588e-06 4.3665564227595066e+00 6.6762718058673821e-13 8.8548021441750056e+00 0 0 0
1293 1 -3.0270662572159279e-06 5.8246643452153224e+00 1.2295825956737076e-13 6.7879073860321508e+00 0 0 0
1294 1 1.0794928565458754e-06 3.6429908824090709e+00 1.2605547222949169e+00 8.3359792712989140e+00 0 0 0
1296 1 1.6916325467549072e-06 1.4526422931077443e+00 2.2689985001334165e+01 8.3319183738647613e+00 0 -1 0
1297 1 2.0218005926054260e-06 2.9080590765219783e+00 5.8020005607523020e-14 6.2754017883426787e+00 0 0 0
1332 1 1.6573814157867375e-07 3.6364848502618528e+00 1.2605547222974192e+00 6.7880205646416814e+00 0 0 0
1333 1 -3.2766097057945017e-06 1.4579746957389415e+00 1.5272784591934738e-13 6.7879073860321455e+00 0 0 0
1388 1 2.8446852536734605e-06 2.9088485409696143e+00 2.2689985001333529e+01 4.7320335552375186e+00 0 -1 0
1390 1 1.9967266456410998e-07 7.3042947808005931e-01 1.2605547222962010e+00 6.2778888612187469e+00 0 0 0
1411 1 -1.6331589316311565e-06 4.3665992360684891e+00 5.0422188891881268e+00 4.2164123892466341e+00 0 0 0
1412 1 -4.2228045180259303e-06 6.5503273743181536e+00 3.7816641668899056e+00 4.2167474349603147e+00 0 0 0
1413 1 -4.0463027644240814e-06 6.5503273743177584e+00 6.3027736114827055e+00 4.2167474349607019e+00 0 0 0
1454 1 -1.7628394876284608e-06 2.1833357833972858e+01 2.2689985001333671e+01 4.2164123892438798e+00 -1 -1 0
1461 1 -4.1253255364336339e-06 2.1836377248420260e+00 6.3027736114824773e+00 4.2167474349601699e+00 0 0 0
1464 1 2.2057771397416361e-06 2.9088485409676963e+00 7.5633283337772612e+00 4.7320335552349171e+00 0 0 0
1465 1 4.7086866808220245e-07 5.0965997050946292e+00 6.3027736114810509e+00 4.7313752994501712e+00 0 0 0
1469 1 3.7525292025592897e-07 5.0971191275566081e+00 6.3027736114813067e+00 6.2778888612192878e+00 0 0 0
1472 1 -2.8753101865214497e-06 5.8246643452153410e+00 7.5633283337781778e+00 6.7879073860320132e+00 0 0 0
1511 1 6.7072828321961043e-07 7.2991005561848221e-01 1.2605547222962747e+00 4.7313752994512619e+00 0 0 0
1561 1 2.0923885436320354e-06 1.4526422931076255e+00 7.5633283337780384e+00 8.3319183738654132e+00 0 0 0
1599 1 -5.6035237892011856e-07 2.1833583540225501e+00 6.3027736114816415e+00 8.8550137974289296e+00 0 0 0
1603 1 -3.3459037661648406e-06 2.1833315020665605e+01 7.5633283337781814e+00 8.8548021441735347e+00 -1 0 0
1665 1 -1.4903000288404479e-06 4.3665992360680557e+00 9.8883731283237526e-13 4.2164123892424668e+00 0 0 0
1666 1 -4.2591090474763941e-06 6.5503273743188988e+00 1.2605547222968914e+00 4.2167474349595055e+00 0 0 0
1704 1 -1.5744507855669122e-06 2.1833357833974382e+01 2.5211094445932529e+00 4.2164123892447511e+00 -1 0 0
1705 1 -3.7802870660556864e-06 2.1836377248415677e+00 1.2605547222967555e+00 4.2167474349594505e+00 0 0 0
1706 1 -3.8216613055192726e-06 2.1836377248419225e+00 3.7816641668900681e+00 4.2167474349599621e+00 0 0 0
1708 1 2.7557297405498036e-06 2.9088485409687310e+00 2.5211094445903814e+00 4.7320335552361259e+00 0 0 0
1709 1 8.4790076025686154e-07 5.0965997050945342e+00 1.2605547222958731e+00 4.7313752994512059e+00 0 0 0
1710 1 6.2429508995929358e-07 5.0965997050945688e+00 3.7816641668882949e+00 4.7313752994505114e+00 0 0 0
1711 1 -1.5335966687028184e-06 4.3665992360684553e+00 2.5211094445952020e+00 4.2164123892447041e+00 0 0 0
1712 1 1.8614540668143456e-06 2.9080590765221097e+00 2.5211094445928102e+00 6.2754017883427027e+00 0 0 0
1713 1 5.6010901132150725e-07 5.0971191275565424e+00 1.2605547222958151e+00 6.2778888612185533e+00 0 0 0
1714 1 3.8198193925378005e-07 5.0971191275566321e+00 3.7816641668883664e+00 6.2778888612187469e+00 0 0 0
1716 1 -3.1626765246336541e-06 5.8246643452152531e+00 2.5211094445928803e+00 6.7879073860322441e+00 0 0 0
1720 1 1.5923399807378389e-06 5.8193319425833421e+00 2.5211094445923230e+00 8.3319183738645446e+00 0 0 0
1758 1 6.0253879159996937e-07 7.2991005561800659e-01 3.7816641668885351e+00 4.7313752994510745e+00 0 0 0
1759 1 3.9433824062193526e-07 7.2991005561751898e-01 6.3027736114812090e+00 4.7313752994509430e+00 0 0 0
1760 1 -1.6865265114275882e-06 2.1833357833976326e+01 5.0422188891869606e+00 4.2164123892451801e+00 -1 0 0
1761 1 1.3232648880782703e-07 7.3042947807960712e-01 3.7816641668887074e+00 6.2778888612189450e+00 0 0 0
1762 1 1.9795883319756211e-07 7.3042947807929592e-01 6.3027736114814639e+00 6.2778888612193473e+00 0 0 0
1763 1 2.4711838664671974e-06 2.9088485409681524e+00 5.0422188891825712e+00 4.7320335552352129e+00 0 0 0
1764 1 -3.2301458127346249e-06 1.4579746957390531e+00 5.0422188891854320e+00 6.7879073860320789e+00 0 0 0
1765 1 1.8634873183522052e-07 3.6364848502622049e+00 3.7816641668902786e+00 6.7880205646412426e+00 0 0 0
1766 1 3.4629336842871498e-07 3.6364848502623932e+00 6.3027736114823822e+00 6.7880205646402523e+00 0 0 0
1767 1 1.7828485914602081e-06 2.9080590765221799e+00 5.0422188891854827e+00 6.2754017883428483e+00 0 0 0
1768 1 2.0742859153193336e-06 1.4526422931075567e+00 5.0422188891851629e+00 8.3319183738650970e+00 0 0 0
1769 1 1.4334427761350819e-06 3.6429908824084745e+00 3.7816641668879933e+00 8.3359792712995304e+00 0 0 0
1770 1 1.7607760213105311e-06 3.6429908824081463e+00 6.3027736114817206e+00 8.3359792713007934e+00 0 0 0
1771 1 -3.0358844948720741e-06 5.8246643452152620e+00 5.0422188891855741e+00 6.7879073860321926e+00 0 0 0
1772 1 -3.1177203424794259e-06 4.3665564227598255e+00 5.0422188891856257e+00 8.8548021441742968e+00 0 0 0
1773 1 -1.0101314377190766e-06 6.5500480034978015e+00 3.7816641668897608e+00 8.8550137974296685e+00 0 0 0
1774 1 -6.0999958989962202e-07 6.5500480034980706e+00 6.3027736114818209e+00 8.8550137974293133e+00 0 0 0
1775 1 2.0001657358048772e-06 5.8193319425834744e+00 5.0422188891852526e+00 8.3319183738646849e+00 0 0 0
969 1 -1.8192430168952421e-06 1.3099978535022204e+01 5.0422188891855590e+00 4.2164123892415413e+00 0 0 0
1017 1 -1.5278826682871857e-06 8.7332888855437432e+00 7.5633283337809001e+00 4.2164123892461518e+00 0 0 0
1018 1 -4.0123460279669473e-06 1.0917017023794170e+01 6.3027736114828663e+00 4.2167474349594860e+00 0 0 0
1021 1 2.4605075605506704e-06 1.1642227839922397e+01 7.5633283337754511e+00 4.7320335552379662e+00 0 0 0
1022 1 8.3188177099996302e-07 1.3829979004047321e+01 6.3027736114814870e+00 4.7313752994526235e+00 0 0 0
1025 1 1.5983067295724536e-06 1.1641438375474243e+01 7.5633283337783279e+00 6.2754017883426378e+00 0 0 0
1026 1 4.7824554760782214e-07 1.3830498426509337e+01 6.3027736114814035e+00 6.2778888612200232e+00 0 0 0
1110 1 -3.5383805313945006e-06 8.7332460722357883e+00 2.2689985001334225e+01 8.8548021441742879e+00 0 -1 0
1318 1 -2.0164265630849593e-06 1.3099978535023322e+01 2.2689985001331934e+01 4.2164123892428886e+00 0 -1 0
1361 1 -1.9658181607410807e-06 8.7332888855451181e+00 2.5211094445927800e+00 4.2164123892444128e+00 0 0 0
1362 1 -4.2107113915409751e-06 1.0917017023794926e+01 1.2605547222955005e+00 4.2167474349592595e+00 0 0 0
1363 1 -4.1326817015941528e-06 1.0917017023794516e+01 3.7816641668889326e+00 4.2167474349593448e+00 0 0 0
1365 1 2.4066360060587611e-06 1.1642227839920601e+01 2.5211094445942517e+00 4.7320335552382105e+00 0 0 0
1366 1 3.4151227760435408e-07 1.3829979004046759e+01 1.2605547222971394e+00 4.7313752994520790e+00 0 0 0
1367 1 5.9539129736450182e-07 1.3829979004046921e+01 3.7816641668893536e+00 4.7313752994523872e+00 0 0 0
1368 1 -1.9687316448074031e-06 1.3099978535023027e+01 2.5211094445905902e+00 4.2164123892419223e+00 0 0 0
1369 1 2.2440015491276420e-06 1.1641438375474467e+01 2.5211094445926334e+00 6.2754017883425472e+00 0 0 0
1370 1 4.7293417782434088e-07 1.3830498426508905e+01 1.2605547222968569e+00 6.2778888612202994e+00 0 0 0
1371 1 5.9718332369868544e-07 1.3830498426509065e+01 3.7816641668891688e+00 6.2778888612202053e+00 0 0 0
1415 1 2.3204822867903550e-06 7.2755381904462206e+00 5.0422188891831246e+00 4.7320335552351533e+00 0 0 0
1416 1 6.6835886941534071e-07 9.4632893545712626e+00 3.7816641668889397e+00 4.7313752994508711e+00 0 0 0
1417 1 7.4527715724489864e-07 9.4632893545713319e+00 6.3027736114810766e+00 4.7313752994508480e+00 0 0 0
1418 1 -1.7214336077655937e-06 8.7332888855436206e+00 5.0422188891871871e+00 4.2164123892455567e+00 0 0 0
1419 1 1.8404735686506052e-06 7.2747487259983190e+00 5.0422188891854276e+00 6.2754017883424966e+00 0 0 0
1420 1 7.9423961514178429e-07 9.4638087770333570e+00 3.7816641668888322e+00 6.2778888612192816e+00 0 0 0
1421 1 5.8477952506633226e-07 9.4638087770335346e+00 6.3027736114812001e+00 6.2778888612193331e+00 0 0 0
1422 1 2.4749895168735469e-06 1.1642227839921492e+01 5.0422188891845536e+00 4.7320335552381021e+00 0 0 0
1423 1 -2.7468224217214730e-06 1.0191353994691434e+01 5.0422188891856097e+00 6.7879073860320300e+00 0 0 0
1424 1 4.3691399555579565e-07 1.2369864149214703e+01 3.7816641668891173e+00 6.7880205646397362e+00 0 0 0
1425 1 -1.1275714623303094e-08 1.2369864149214301e+01 6.3027736114829542e+00 6.7880205646403180e+00 0 0 0
1426 1 2.0124456536234920e-06 1.1641438375474292e+01 5.0422188891855058e+00 6.2754017883425917e+00 0 0 0
1427 1 2.0113738346465454e-06 1.0186021592060266e+01 5.0422188891850857e+00 8.3319183738647133e+00 0 0 0
1428 1 1.3919799874773025e-06 1.2376370181362057e+01 3.7816641668884525e+00 8.3359792712998342e+00 0 0 0
1429 1 9.8241633509004953e-07 1.2376370181362448e+01 6.3027736114798474e+00 8.3359792712994700e+00 0 0 0
1431 1 -3.3551445397030625e-06 1.3099935721711722e+01 5.0422188891860946e+00 8.8548021441747302e+00 0 0 0
1473 1 3.6039701672619914e-07 8.0031744997374989e+00 6.3027736114827357e+00 6.7880205646406262e+00 0 0 0
1477 1 1.6343233625221278e-06 8.0096805318858664e+00 6.3027736114809834e+00 8.3359792713002800e+00 0 0 0
1480 1 -2.8765773522210736e-06 8.7332460722356942e+00 7.5633283337786263e+00 8.8548021441740659e+00 0 0 0
1481 1 -8.5585853215368710e-07 1.0916737652973772e+01 6.3027736114828441e+00 8.8550137974298213e+00 0 0 0
1668 1 2.4241543844240824e-06 7.2755381904429619e+00 2.2689985001333710e+01 4.7320335552371979e+00 0 -1 0
1669 1 6.0506037218862954e-07 9.4632893545707795e+00 1.2605547222965863e+00 4.7313752994509910e+00 0 0 0
1670 1 -1.9568912859275929e-06 8.7332888855471875e+00 2.2689985001333930e+01 4.2164123892436871e+00 0 -1 0
1671 1 1.9362031414937140e-06 7.2747487259984442e+00 1.0757242520120757e-13 6.2754017883424371e+00 0 0 0
1672 1 7.9243593929549491e-07 9.4638087770328259e+00 1.2605547222964513e+00 6.2778888612193260e+00 0 0 0
1673 1 2.2639839729933508e-06 1.1642227839919634e+01 2.1587591385826852e-12 4.7320335552379982e+00 0 0 0
1674 1 -2.6727522909327285e-06 1.0191353994691552e+01 2.2689985001334122e+01 6.7879073860321242e+00 0 -1 0
1675 1 5.1828315327158540e-07 1.2369864149215065e+01 1.2605547222954070e+00 6.7880205646392158e+00 0 0 0
1676 1 2.0178010867452449e-06 1.1641438375474642e+01 2.2689985001334204e+01 6.2754017883425020e+00 0 -1 0
1677 1 2.1076520023546746e-06 1.0186021592060202e+01 1.5000012521338739e-13 8.3319183738650224e+00 0 0 0
1678 1 1.7182863723335038e-06 1.2376370181361430e+01 1.2605547222973379e+00 8.3359792713003493e+00 0 0 0
1680 1 -2.8146177200807295e-06 1.3099935721711990e+01 2.2689985001333529e+01 8.8548021441744478e+00 0 -1 0
1715 1 2.2452650288828990e-06 7.2755381904447010e+00 2.5211094445912763e+00 4.7320335552361108e+00 0 0 0
1717 1 1.7695056632259609e-07 8.0031744997385008e+00 1.2605547222967235e+00 6.7880205646409069e+00 0 0 0
1718 1 2.6806594333975544e-07 8.0031744997376570e+00 3.7816641668898110e+00 6.7880205646409708e+00 0 0 0
1719 1 1.8056025236344394e-06 7.2747487259983581e+00 2.5211094445927693e+00 6.2754017883424398e+00 0 0 0
1721 1 9.4159247578195258e-07 8.0096805318853725e+00 1.2605547222955915e+00 8.3359792713000527e+00 0 0 0
1722 1 1.2025956974184303e-06 8.0096805318862092e+00 3.7816641668880404e+00 8.3359792712999443e+00 0 0 0
1723 1 -2.5319851165207854e-06 1.0191353994691472e+01 2.5211094445926578e+00 6.7879073860320434e+00 0 0 0
1724 1 -3.4952922115586708e-06 8.7332460722351843e+00 2.5211094445930602e+00 8.8548021441744300e+00 0 0 0
1725 1 -5.9028024587150786e-07 1.0916737652974010e+01 1.2605547222959796e+00 8.8550137974297201e+00 0 0 0
1726 1 -7.6813431156104779e-07 1.0916737652973621e+01 3.7816641668896338e+00 8.8550137974299847e+00 0 0 0
1727 1 2.0931241382773635e-06 1.0186021592060316e+01 2.5211094445926188e+00 8.3319183738648501e+00 0 0 0
1731 1 -3.0320184930150590e-06 1.3099935721711896e+01 2.5211094445926694e+00 8.8548021441746787e+00 0 0 0
1779 1 -3.2238278695953737e-06 8.7332460722351595e+00 5.0422188891859809e+00 8.8548021441744211e+00 0 0 0
576 1 -1.5026104587133189e-06 1.7466668184499426e+01 7.5633283337773651e+00 4.2164123892413556e+00 0 0 0
577 1 -3.5984816888404939e-06 1.9650396322748445e+01 6.3027736114817223e+00 4.2167474349583456e+00 0 0 0
581 1 2.2985478748110733e-06 2.0374817674427714e+01 7.5633283337781467e+00 6.2754017883430304e+00 0 0 0
935 1 -2.0108976643161869e-06 1.7466668184499177e+01 2.5211094445909445e+00 4.2164123892424357e+00 0 0 0
936 1 -3.9419155142102925e-06 1.9650396322746968e+01 1.2605547222958455e+00 4.2167474349588003e+00 0 0 0
937 1 -3.7501113958984456e-06 1.9650396322747600e+01 3.7816641668889099e+00 4.2167474349585232e+00 0 0 0
939 1 2.6094864544442713e-06 2.0375607138872915e+01 2.5211094445932378e+00 4.7320335552377113e+00 0 0 0
941 1 1.8394077276452338e-06 2.0374817674427430e+01 2.5211094445926485e+00 6.2754017883427631e+00 0 0 0
970 1 -4.1411286209971959e-06 1.5283706673271576e+01 3.7816641668884734e+00 4.2167474349576279e+00 0 0 0
971 1 -3.8917706200294449e-06 1.5283706673271288e+01 6.3027736114817525e+00 4.2167474349572860e+00 0 0 0
973 1 2.5304236639984925e-06 1.6008917489395465e+01 5.0422188891863389e+00 4.7320335552407800e+00 0 0 0
974 1 6.2481689412672599e-07 1.8196668653523254e+01 3.7816641668894633e+00 4.7313752994527185e+00 0 0 0
975 1 1.0283460037336670e-06 1.8196668653523105e+01 6.3027736114819879e+00 4.7313752994530454e+00 0 0 0
976 1 -1.7304963920117149e-06 1.7466668184499554e+01 5.0422188891843067e+00 4.2164123892414276e+00 0 0 0
977 1 1.8347300769770055e-06 1.6008128024951048e+01 5.0422188891852997e+00 6.2754017883430295e+00 0 0 0
978 1 3.7277824477172062e-07 1.8197188075984997e+01 3.7816641668892781e+00 6.2778888612201200e+00 0 0 0
979 1 6.9308808904009152e-07 1.8197188075985085e+01 6.3027736114817090e+00 6.2778888612202799e+00 0 0 0
980 1 2.7895524995766195e-06 2.0375607138870961e+01 5.0422188891850235e+00 4.7320335552378916e+00 0 0 0
981 1 -2.8570386965480956e-06 1.8924733293644483e+01 5.0422188891853956e+00 6.7879073860314136e+00 0 0 0
982 1 1.4056854881277255e-07 2.1103243448168691e+01 3.7816641668892639e+00 6.7880205646405214e+00 0 0 0
983 1 2.9486306789214395e-07 2.1103243448169287e+01 6.3027736114821398e+00 6.7880205646400587e+00 0 0 0
984 1 2.0469137374656716e-06 2.0374817674427582e+01 5.0422188891854569e+00 6.2754017883428643e+00 0 0 0
985 1 2.1179726776859241e-06 1.8919400891011552e+01 5.0422188891854631e+00 8.3319183738643954e+00 0 0 0
986 1 1.6606358371533154e-06 2.1109749480311571e+01 3.7816641668891187e+00 8.3359792712993261e+00 0 0 0
987 1 1.4815747686310144e-06 2.1109749480311102e+01 6.3027736114814914e+00 8.3359792713002268e+00 0 0 0
1028 1 2.8456621517373419e-06 1.6008917489396474e+01 7.5633283337780366e+00 4.7320335552404247e+00 0 0 0
1029 1 -3.1980091721441260e-06 1.4558043644168073e+01 7.5633283337782515e+00 6.7879073860313861e+00 0 0 0
1030 1 1.2256389984211381e-08 1.6736553798692032e+01 6.3027736114820341e+00 6.7880205646395808e+00 0 0 0
1033 1 1.5116941857915921e-06 1.4552711241536130e+01 7.5633283337776298e+00 8.3319183738644167e+00 0 0 0
1034 1 9.0315812175760650e-07 1.6743059830836788e+01 6.3027736114813369e+00 8.3359792712995411e+00 0 0 0
1036 1 -2.6755525645491468e-06 1.8924733293644561e+01 7.5633283337781450e+00 6.7879073860312831e+00 0 0 0
1037 1 -3.4962443281558290e-06 1.7466625371189235e+01 7.5633283337785535e+00 8.8548021441742630e+00 0 0 0
1038 1 -4.4110741750023146e-07 1.9650116951929061e+01 6.3027736114815918e+00 8.8550137974298586e+00 0 0 0
1319 1 -4.2662951304849078e-06 1.5283706673271311e+01 1.2605547222954678e+00 4.2167474349581466e+00 0 0 0
1321 1 2.0602416473899911e-06 1.6008917489395895e+01 1.9581344116556412e-12 4.7320335552400508e+00 0 0 0
1322 1 3.1047131107002209e-07 1.8196668653523364e+01 1.2605547222968623e+00 4.7313752994522984e+00 0 0 0
1323 1 -2.0174383045492043e-06 1.7466668184498857e+01 2.2689985001332822e+01 4.2164123892431178e+00 0 -1 0
1324 1 1.6396838519638929e-06 1.6008128024951159e+01 2.2689985001334222e+01 6.2754017883427053e+00 0 -1 0
1325 1 1.7902957363305453e-07 1.8197188075984990e+01 1.2605547222967459e+00 6.2778888612200854e+00 0 0 0
1326 1 2.4318877578392876e-06 2.0375607138874273e+01 9.0622923414435679e-13 4.7320335552378463e+00 0 0 0
1327 1 -3.0183344103296009e-06 1.8924733293644330e+01 2.2689985001334261e+01 6.7879073860317218e+00 0 -1 0
1328 1 1.1650700454607636e-07 2.1103243448167788e+01 1.2605547222962223e+00 6.7880205646407124e+00 0 0 0
1329 1 1.7874190629508886e-06 2.0374817674427394e+01 2.2689985001334247e+01 6.2754017883427675e+00 0 -1 0
1330 1 2.4125167893356436e-06 1.8919400891011890e+01 8.2461791645050548e-14 8.3319183738643954e+00 0 0 0
1331 1 1.7058166751188180e-06 2.1109749480312473e+01 1.2605547222964120e+00 8.3359792712990401e+00 0 0 0
1372 1 2.1576814539923098e-06 1.6008917489395323e+01 2.5211094445947295e+00 4.7320335552404575e+00 0 0 0
1373 1 -2.8451773210677776e-06 1.4558043644168162e+01 2.5211094445925397e+00 6.7879073860313870e+00 0 0 0
1374 1 6.9222984131252102e-08 1.6736553798692384e+01 1.2605547222955902e+00 6.7880205646388383e+00 0 0 0
1375 1 4.9701954779152457e-09 1.6736553798692348e+01 3.7816641668886679e+00 6.7880205646391572e+00 0 0 0
1376 1 1.6860745416728259e-06 1.6008128024951183e+01 2.5211094445925761e+00 6.2754017883428750e+00 0 0 0
1377 1 2.3240270343901507e-06 1.4552711241535844e+01 2.5211094445927373e+00 8.3319183738646547e+00 0 0 0
1378 1 1.6679470320323970e-06 1.6743059830835421e+01 1.2605547222971063e+00 8.3359792712996583e+00 0 0 0
1379 1 1.2250257397688253e-06 1.6743059830835769e+01 3.7816641668894628e+00 8.3359792712995073e+00 0 0 0
1380 1 -3.0326383440553593e-06 1.8924733293644369e+01 2.5211094445926130e+00 6.7879073860316099e+00 0 0 0
1381 1 -3.1478741085457226e-06 1.7466625371189732e+01 2.5211094445925237e+00 8.8548021441748652e+00 0 0 0
1382 1 -2.0780096228519680e-07 1.9650116951928460e+01 1.2605547222960591e+00 8.8550137974305354e+00 0 0 0
1383 1 -2.8592352264310444e-07 1.9650116951928851e+01 3.7816641668885183e+00 8.8550137974304075e+00 0 0 0
1384 1 2.2553645820977087e-06 1.8919400891011875e+01 2.5211094445928777e+00 8.3319183738643687e+00 0 0 0
1430 1 -3.0012504652563034e-06 1.4558043644168155e+01 5.0422188891854294e+00 6.7879073860313239e+00 0 0 0
1432 1 -6.2038036275373348e-07 1.5283427302451852e+01 3.7816641668889526e+00 8.8550137974305585e+00 0 0 0
1433 1 -9.3411284806658187e-07 1.5283427302451111e+01 6.3027736114824071e+00 8.8550137974301251e+00 0 0 0
1434 1 1.8502196929289467e-06 1.4552711241535800e+01 5.0422188891851620e+00 8.3319183738644718e+00 0 0 0
1438 1 -3.3736469656598554e-06 1.7466625371189483e+01 5.0422188891855058e+00 8.8548021441746005e+00 0 0 0
1679 1 -2.8572701967263981e-06 1.4558043644168075e+01 2.2689985001334076e+01 6.7879073860315851e+00 0 -1 0
1681 1 -2.2321606499121624e-07 1.5283427302452045e+01 1.2605547222955407e+00 8.8550137974306597e+00 0 0 0
1682 1 2.6951799262343264e-06 1.4552711241536240e+01 2.9052509946826223e-13 8.3319183738647986e+00 0 0 0
1685 1 -2.8132119694670160e-06 1.7466625371189696e+01 2.2689985001334119e+01 8.8548021441747835e+00 0 -1 0
7 1 -3.5015751850829514e-06 2.1833315020665079e+01 1.0084437778370512e+01 8.8548021441735081e+00 -1 0 0
707 1 -1.6707795946102496e-06 4.3665992360708783e+00 1.5126656667554123e+01 4.2164123892434162e+00 0 0 0
708 1 -3.8274353005589144e-06 6.5503273743189192e+00 1.3866101945258894e+01 4.2167474349595278e+00 0 0 0
1067 1 -1.8422299368421365e-06 4.3665992360702752e+00 1.0084437778369496e+01 4.2164123892472816e+00 0 0 0
1068 1 -3.9969644441137203e-06 6.5503273743179609e+00 8.8238830560748962e+00 4.2167474349605270e+00 0 0 0
1069 1 -3.9236261161185044e-06 6.5503273743184565e+00 1.1344992500666747e+01 4.2167474349600624e+00 0 0 0
1116 1 -1.9897940051558496e-06 2.1833357833976216e+01 1.2605547222961265e+01 4.2164123892456269e+00 -1 0 0
1117 1 -4.4489997103191740e-06 2.1836377248424994e+00 1.1344992500665986e+01 4.2167474349599932e+00 0 0 0
1118 1 -4.3982992658942238e-06 2.1836377248426939e+00 1.3866101945258960e+01 4.2167474349593554e+00 0 0 0
1120 1 2.1779048465401774e-06 2.9088485409662290e+00 1.2605547222966576e+01 4.7320335552367014e+00 0 0 0
1121 1 5.0968288170692387e-07 5.0965997050940430e+00 1.1344992500667843e+01 4.7313752994509501e+00 0 0 0
1122 1 7.8844236871521281e-07 5.0965997050940688e+00 1.3866101945260635e+01 4.7313752994516065e+00 0 0 0
1123 1 -1.7642565667185529e-06 4.3665992360712975e+00 1.2605547222960869e+01 4.2164123892456979e+00 0 0 0
1124 1 1.8482970323214333e-06 2.9080590765219863e+00 1.2605547222963372e+01 6.2754017883427089e+00 0 0 0
1125 1 6.0251138536367313e-07 5.0971191275558194e+00 1.1344992500667733e+01 6.2778888612200250e+00 0 0 0
1126 1 8.2771558028203138e-07 5.0971191275556382e+00 1.3866101945260541e+01 6.2778888612197532e+00 0 0 0
1128 1 -2.5526437564912103e-06 5.8246643452155329e+00 1.2605547222963290e+01 6.7879073860316561e+00 0 0 0
1132 1 2.5912662193578655e-06 5.8193319425833501e+00 1.2605547222963830e+01 8.3319183738652178e+00 0 0 0
1170 1 2.9101784183730316e-07 7.2991005561799838e-01 1.3866101945260297e+01 4.7313752994518223e+00 0 0 0
1172 1 -1.8676007117953640e-06 2.1833357833974418e+01 1.5126656667556611e+01 4.2164123892440122e+00 -1 0 0
1173 1 6.3502124995048628e-08 7.3042947808024017e-01 1.3866101945260311e+01 6.2778888612190888e+00 0 0 0
1175 1 2.4108781529717378e-06 2.9088485409667864e+00 1.5126656667557759e+01 4.7320335552381954e+00 0 0 0
1177 1 4.1883721179097880e-07 3.6364848502632099e+00 1.3866101945258537e+01 6.7880205646397505e+00 0 0 0
1179 1 1.9223017101223516e-06 2.9080590765219356e+00 1.5126656667556146e+01 6.2754017883425997e+00 0 0 0
1180 1 1.4186268815737965e-06 1.4526422931076906e+00 1.5126656667556384e+01 8.3319183738649780e+00 0 0 0
1181 1 1.5602389199986253e-06 3.6429908824078123e+00 1.3866101945261038e+01 8.3359792713006282e+00 0 0 0
1183 1 -2.5358755985641366e-06 5.8246643452155631e+00 1.5126656667556020e+01 6.7879073860316437e+00 0 0 0
1185 1 -3.9506888369596036e-07 6.5500480034993442e+00 1.3866101945259107e+01 8.8550137974288958e+00 0 0 0
1187 1 2.1804851697430097e-06 5.8193319425833794e+00 1.5126656667556412e+01 8.3319183738651574e+00 0 0 0
1258 1 -2.8822179687934552e-06 4.3665564227598201e+00 7.5633283337777906e+00 8.8548021441735862e+00 0 0 0
1460 1 -1.8829404367310760e-06 2.1833357833977562e+01 7.5633283337781991e+00 4.2164123892458560e+00 -1 0 0
1462 1 -4.3556004097635413e-06 2.1836377248421730e+00 8.8238830560741430e+00 4.2167474349602205e+00 0 0 0
1466 1 3.7657286277413612e-07 5.0965997050943876e+00 8.8238830560744042e+00 4.7313752994503666e+00 0 0 0
1467 1 -1.7835035536617718e-06 4.3665992360689998e+00 7.5633283337792205e+00 4.2164123892475907e+00 0 0 0
1468 1 1.8479810357858544e-06 2.9080590765221510e+00 7.5633283337781183e+00 6.2754017883430020e+00 0 0 0
1470 1 4.2665980595077449e-07 5.0971191275562795e+00 8.8238830560745285e+00 6.2778888612198518e+00 0 0 0
1476 1 2.4136347806025035e-06 5.8193319425835321e+00 7.5633283337782462e+00 8.3319183738649318e+00 0 0 0
1515 1 2.7564057941641604e-07 7.2991005561735012e-01 8.8238830560746759e+00 4.7313752994509422e+00 0 0 0
1516 1 2.1105794201271133e-07 7.2991005561759603e-01 1.1344992500667944e+01 4.7313752994512859e+00 0 0 0
1517 1 -2.0032809505606719e-06 2.1833357833977502e+01 1.0084437778368599e+01 4.2164123892462992e+00 -1 0 0
1518 1 3.2365034051300776e-07 7.3042947807933711e-01 8.8238830560747559e+00 6.2778888612194512e+00 0 0 0
1519 1 1.9846901181987571e-07 7.3042947807974923e-01 1.1344992500667887e+01 6.2778888612192132e+00 0 0 0
1520 1 2.1135712251127631e-06 2.9088485409668623e+00 1.0084437778372951e+01 4.7320335552354198e+00 0 0 0
1521 1 -3.0176653067997576e-06 1.4579746957389854e+00 1.0084437778370633e+01 6.7879073860319741e+00 0 0 0
1522 1 5.2036530834420144e-07 3.6364848502626188e+00 8.8238830560739601e+00 6.7880205646394352e+00 0 0 0
1523 1 5.3423624349809145e-07 3.6364848502630034e+00 1.1344992500665748e+01 6.7880205646393028e+00 0 0 0
1524 1 1.9031316986022947e-06 2.9080590765220569e+00 1.0084437778370749e+01 6.2754017883429363e+00 0 0 0
1525 1 2.0349926863941638e-06 1.4526422931077789e+00 1.0084437778371054e+01 8.3319183738654576e+00 0 0 0
1526 1 2.0140234895264717e-06 3.6429908824080273e+00 8.8238830560754877e+00 8.3359792713016709e+00 0 0 0
1527 1 1.9803255649818089e-06 3.6429908824078678e+00 1.1344992500668676e+01 8.3359792713014507e+00 0 0 0
1528 1 -2.7306466922856175e-06 5.8246643452154494e+00 1.0084437778370713e+01 6.7879073860318018e+00 0 0 0
1529 1 -2.7005343368768911e-06 4.3665564227599019e+00 1.0084437778370173e+01 8.8548021441732754e+00 0 0 0
1530 1 -3.0486046924358349e-07 6.5500480034986737e+00 8.8238830560739956e+00 8.8550137974288461e+00 0 0 0
1531 1 -2.0620429195320229e-07 6.5500480034991622e+00 1.1344992500666399e+01 8.8550137974286791e+00 0 0 0
1532 1 2.6413747406521295e-06 5.8193319425834389e+00 1.0084437778371131e+01 8.3319183738651379e+00 0 0 0
1565 1 -5.5029968122602985e-07 2.1833583540223089e+00 8.8238830560737807e+00 8.8550137974284873e+00 0 0 0
1566 1 -3.2729577292700808e-06 1.4579746957389648e+00 1.2605547222963256e+01 6.7879073860319235e+00 0 0 0
1567 1 -3.6080933636081434e-06 2.1833315020664571e+01 1.2605547222962992e+01 8.8548021441738829e+00 -1 0 0
1568 1 -6.5852532799482431e-07 2.1833583540220793e+00 1.1344992500666159e+01 8.8550137974287964e+00 0 0 0
1569 1 -9.8002033733033641e-07 2.1833583540220172e+00 1.3866101945259128e+01 8.8550137974294447e+00 0 0 0
1570 1 1.7214401262546230e-06 1.4526422931077991e+00 1.2605547222963834e+01 8.3319183738652143e+00 0 0 0
1574 1 -2.7936839599441355e-06 4.3665564227600369e+00 1.2605547222962874e+01 8.8548021441735951e+00 0 0 0
1627 1 -3.0479836125090902e-06 1.4579746957390216e+00 7.5633283337780179e+00 6.7879073860320212e+00 0 0 0
609 1 -1.6310549237964130e-06 1.3099978535019345e+01 1.0084437778372839e+01 4.2164123892426151e+00 0 0 0
657 1 -1.6070790282963929e-06 8.7332888855460968e+00 1.2605547222962452e+01 4.2164123892456651e+00 0 0 0
658 1 -4.1741910264377501e-06 1.0917017023794131e+01 1.1344992500667615e+01 4.2167474349595624e+00 0 0 0
659 1 -4.2328681926330669e-06 1.0917017023794749e+01 1.3866101945259661e+01 4.2167474349597365e+00 0 0 0
661 1 2.1797875322749608e-06 1.1642227839921901e+01 1.2605547222962903e+01 4.7320335552374164e+00 0 0 0
662 1 9.7480159308875140e-07 1.3829979004048067e+01 1.1344992500666702e+01 4.7313752994524414e+00 0 0 0
663 1 7.9764967651061305e-07 1.3829979004047932e+01 1.3866101945259473e+01 4.7313752994520630e+00 0 0 0
664 1 -1.7617557810384936e-06 1.3099978535019627e+01 1.2605547222964926e+01 4.2164123892434375e+00 0 0 0
665 1 1.3269554085085010e-06 1.1641438375474408e+01 1.2605547222963569e+01 6.2754017883424860e+00 0 0 0
666 1 4.2966404863804648e-07 1.3830498426509656e+01 1.1344992500666807e+01 6.2778888612195285e+00 0 0 0
667 1 3.9023904201930166e-07 1.3830498426509472e+01 1.3866101945259649e+01 6.2778888612193526e+00 0 0 0
712 1 6.5089198773516005e-07 9.4632893545702359e+00 1.3866101945260267e+01 4.7313752994511846e+00 0 0 0
714 1 -1.6023376823928437e-06 8.7332888855472373e+00 1.5126656667554066e+01 4.2164123892452388e+00 0 0 0
715 1 2.3113809148627768e-06 7.2747487259985411e+00 1.5126656667556118e+01 6.2754017883427284e+00 0 0 0
716 1 4.2948583719835177e-07 9.4638087770326784e+00 1.3866101945260169e+01 6.2778888612197239e+00 0 0 0
720 1 -2.9351550973369635e-07 1.2369864149214777e+01 1.3866101945259969e+01 6.7880205646405081e+00 0 0 0
722 1 1.4941877380353778e-06 1.1641438375474607e+01 1.5126656667556173e+01 6.2754017883423767e+00 0 0 0
723 1 1.8801178058741508e-06 1.0186021592059316e+01 1.5126656667556423e+01 8.3319183738652676e+00 0 0 0
724 1 8.6715714218360911e-07 1.2376370181360414e+01 1.3866101945259816e+01 8.3359792713001255e+00 0 0 0
1019 1 -4.0050589917438237e-06 1.0917017023793948e+01 8.8238830560756885e+00 4.2167474349595109e+00 0 0 0
1023 1 9.8810113295968684e-07 1.3829979004047805e+01 8.8238830560739636e+00 4.7313752994526403e+00 0 0 0
1024 1 -1.6632442884722261e-06 1.3099978535020636e+01 7.5633283337801238e+00 4.2164123892418601e+00 0 0 0
1027 1 3.9911801209063695e-07 1.3830498426509596e+01 8.8238830560739725e+00 6.2778888612197878e+00 0 0 0
1071 1 2.4128467218943838e-06 7.2755381904447862e+00 1.0084437778370425e+01 4.7320335552356987e+00 0 0 0
1072 1 6.7887083154108469e-07 9.4632893545710530e+00 8.8238830560737220e+00 4.7313752994509271e+00 0 0 0
1073 1 5.7925591591031252e-07 9.4632893545706303e+00 1.1344992500667059e+01 4.7313752994510789e+00 0 0 0
1074 1 -1.5645301261108874e-06 8.7332888855448481e+00 1.0084437778372102e+01 4.2164123892460772e+00 0 0 0
1075 1 1.8823721966186069e-06 7.2747487259984309e+00 1.0084437778370742e+01 6.2754017883427338e+00 0 0 0
1076 1 3.0756004519955481e-07 9.4638087770333996e+00 8.8238830560739228e+00 6.2778888612195800e+00 0 0 0
1077 1 2.3426277456795347e-07 9.4638087770330905e+00 1.1344992500667093e+01 6.2778888612197941e+00 0 0 0
1078 1 2.3365201711527637e-06 1.1642227839922782e+01 1.0084437778368711e+01 4.7320335552377388e+00 0 0 0
1079 1 -3.3632221476768719e-06 1.0191353994691614e+01 1.0084437778370969e+01 6.7879073860319821e+00 0 0 0
1080 1 -3.4521835684709794e-07 1.2369864149214044e+01 8.8238830560757915e+00 6.7880205646405738e+00 0 0 0
1081 1 -4.1412091928654405e-07 1.2369864149214186e+01 1.1344992500667848e+01 6.7880205646406120e+00 0 0 0
1082 1 1.3455567610732938e-06 1.1641438375474294e+01 1.0084437778370980e+01 6.2754017883426139e+00 0 0 0
1083 1 1.9090975364851077e-06 1.0186021592059642e+01 1.0084437778370667e+01 8.3319183738649691e+00 0 0 0
1084 1 7.8388587300909599e-07 1.2376370181362368e+01 8.8238830560724697e+00 8.3359792712995873e+00 0 0 0
1085 1 7.3446210861740771e-07 1.2376370181361590e+01 1.1344992500666180e+01 8.3359792712999106e+00 0 0 0
1087 1 -3.5964273028901445e-06 1.3099935721711782e+01 1.0084437778371377e+01 8.8548021441742097e+00 0 0 0
1127 1 2.6074933814193322e-06 7.2755381904432346e+00 1.2605547222965420e+01 4.7320335552364536e+00 0 0 0
1129 1 3.9868565166830977e-07 8.0031744997388348e+00 1.1344992500666862e+01 6.7880205646395488e+00 0 0 0
1130 1 5.3431075655650728e-07 8.0031744997394476e+00 1.3866101945258951e+01 6.7880205646396528e+00 0 0 0
1131 1 2.1373148497674688e-06 7.2747487259984904e+00 1.2605547222963416e+01 6.2754017883427808e+00 0 0 0
1133 1 1.8830200139462521e-06 8.0096805318838733e+00 1.1344992500667860e+01 8.3359792713015022e+00 0 0 0
1134 1 1.6766701022919186e-06 8.0096805318833173e+00 1.3866101945260956e+01 8.3359792713014258e+00 0 0 0
1135 1 -3.3249246852712426e-06 1.0191353994691656e+01 1.2605547222963516e+01 6.7879073860319563e+00 0 0 0
1136 1 -2.9560977464839434e-06 8.7332460722366907e+00 1.2605547222963226e+01 8.8548021441734477e+00 0 0 0
1137 1 -9.7135445597649747e-07 1.0916737652974833e+01 1.1344992500667319e+01 8.8550137974288390e+00 0 0 0
1138 1 -9.9927189350895998e-07 1.0916737652975419e+01 1.3866101945259615e+01 8.8550137974286773e+00 0 0 0
1139 1 1.8233825702202079e-06 1.0186021592059348e+01 1.2605547222963686e+01 8.3319183738651859e+00 0 0 0
1143 1 -3.6262063477279100e-06 1.3099935721712065e+01 1.2605547222963683e+01 8.8548021441740339e+00 0 0 0
1191 1 -3.1894793779015401e-06 8.7332460722368577e+00 1.5126656667555785e+01 8.8548021441735134e+00 0 0 0
1471 1 2.3858863656753562e-06 7.2755381904461878e+00 7.5633283337758206e+00 4.7320335552350912e+00 0 0 0
1474 1 3.3739456490294000e-07 8.0031744997380798e+00 8.8238830560750703e+00 6.7880205646399592e+00 0 0 0
1475 1 1.8450850494906989e-06 7.2747487259983501e+00 7.5633283337780908e+00 6.2754017883425934e+00 0 0 0
1478 1 1.8898121792255445e-06 8.0096805318848201e+00 8.8238830560742887e+00 8.3359792713010066e+00 0 0 0
1479 1 -3.1147780577014696e-06 1.0191353994691514e+01 7.5633283337784070e+00 6.7879073860320194e+00 0 0 0
1482 1 -8.5672710957294216e-07 1.0916737652974254e+01 8.8238830560752799e+00 8.8550137974292777e+00 0 0 0
1483 1 1.9862904409483720e-06 1.0186021592060024e+01 7.5633283337777222e+00 8.3319183738647489e+00 0 0 0
1487 1 -3.5453824465243528e-06 1.3099935721711649e+01 7.5633283337789887e+00 8.8548021441744886e+00 0 0 0
1536 1 -2.7990277475831527e-06 8.7332460722363265e+00 1.0084437778370971e+01 8.8548021441736520e+00 0 0 0
295 1 -1.1859783557604692e-06 1.7466668184496871e+01 1.2605547222964569e+01 4.2164123892431915e+00 0 0 0
296 1 -3.5169847204803427e-06 1.9650396322748509e+01 1.1344992500666592e+01 4.2167474349590028e+00 0 0 0
297 1 -3.4427845127216365e-06 1.9650396322747664e+01 1.3866101945260045e+01 4.2167474349590757e+00 0 0 0
299 1 2.8698531782767604e-06 2.0375607138871558e+01 1.2605547222964583e+01 4.7320335552363986e+00 0 0 0
300 1 2.0634942032785100e-06 2.0374817674427593e+01 1.2605547222963432e+01 6.2754017883428839e+00 0 0 0
329 1 -3.5700590687041403e-06 1.5283706673269673e+01 1.3866101945260665e+01 4.2167474349583713e+00 0 0 0
332 1 2.8559997452879769e-06 1.6008917489399110e+01 1.5126656667554311e+01 4.7320335552383304e+00 0 0 0
333 1 1.2216844798492863e-06 1.8196668653523712e+01 1.3866101945259558e+01 4.7313752994525471e+00 0 0 0
335 1 -1.2442649365432043e-06 1.7466668184496264e+01 1.5126656667558541e+01 4.2164123892434988e+00 0 0 0
337 1 6.4357095799962441e-07 1.8197188075985885e+01 1.3866101945259674e+01 6.2778888612198456e+00 0 0 0
339 1 2.8137096648381418e-06 2.0375607138873427e+01 1.5126656667555258e+01 4.7320335552371642e+00 0 0 0
340 1 -2.9622326037592676e-06 1.8924733293644348e+01 1.5126656667556235e+01 6.7879073860315149e+00 0 0 0
341 1 7.3189462793781635e-09 2.1103243448167433e+01 1.3866101945259292e+01 6.7880205646408580e+00 0 0 0
343 1 1.8897595723826721e-06 2.0374817674427398e+01 1.5126656667556272e+01 6.2754017883427737e+00 0 0 0
345 1 1.1148142568412292e-06 2.1109749480313845e+01 1.3866101945260514e+01 8.3359792712994718e+00 0 0 0
578 1 -3.5658061954801071e-06 1.9650396322748879e+01 8.8238830560740205e+00 4.2167474349586334e+00 0 0 0
579 1 2.9033329123472600e-06 2.0375607138869583e+01 7.5633283337782640e+00 4.7320335552374120e+00 0 0 0
610 1 -3.6890786916314600e-06 1.5283706673270517e+01 8.8238830560747896e+00 4.2167474349574423e+00 0 0 0
611 1 -3.5570468075389832e-06 1.5283706673269847e+01 1.1344992500667768e+01 4.2167474349579095e+00 0 0 0
613 1 3.0427336734466953e-06 1.6008917489397838e+01 1.0084437778370068e+01 4.7320335552394468e+00 0 0 0
614 1 1.2235157528569864e-06 1.8196668653523108e+01 8.8238830560745996e+00 4.7313752994530551e+00 0 0 0
615 1 1.2983453105389660e-06 1.8196668653523361e+01 1.1344992500667175e+01 4.7313752994528491e+00 0 0 0
616 1 -1.3472934180427699e-06 1.7466668184498360e+01 1.0084437778370493e+01 4.2164123892422953e+00 0 0 0
617 1 2.0630797118542568e-06 1.6008128024950597e+01 1.0084437778370891e+01 6.2754017883433004e+00 0 0 0
618 1 8.3963005177241806e-07 1.8197188075985267e+01 8.8238830560743526e+00 6.2778888612202026e+00 0 0 0
619 1 8.2246627658280665e-07 1.8197188075985583e+01 1.1344992500667065e+01 6.2778888612199433e+00 0 0 0
620 1 2.8979042518318254e-06 2.0375607138869839e+01 1.0084437778372234e+01 4.7320335552365567e+00 0 0 0
621 1 -2.6725586843340885e-06 1.8924733293644540e+01 1.0084437778370804e+01 6.7879073860312822e+00 0 0 0
622 1 4.0694724615667520e-07 2.1103243448169145e+01 8.8238830560742123e+00 6.7880205646400444e+00 0 0 0
623 1 2.2629259336313425e-07 2.1103243448168406e+01 1.1344992500666271e+01 6.7880205646404965e+00 0 0 0
624 1 2.2895779212866816e-06 2.0374817674427728e+01 1.0084437778370747e+01 6.2754017883430189e+00 0 0 0
625 1 2.0372175102260502e-06 1.8919400891010898e+01 1.0084437778370715e+01 8.3319183738643652e+00 0 0 0
626 1 1.3480425081742841e-06 2.1109749480311500e+01 8.8238830560745356e+00 8.3359792713006815e+00 0 0 0
627 1 1.2053366925229160e-06 2.1109749480312644e+01 1.1344992500667900e+01 8.3359792713001291e+00 0 0 0
668 1 3.0837112382637264e-06 1.6008917489398886e+01 1.2605547222961947e+01 4.7320335552385773e+00 0 0 0
669 1 -3.0196541663955161e-06 1.4558043644167876e+01 1.2605547222963640e+01 6.7879073860317254e+00 0 0 0
670 1 1.9731249688561282e-07 1.6736553798691013e+01 1.1344992500667720e+01 6.7880205646407399e+00 0 0 0
671 1 2.6067392990635562e-07 1.6736553798690633e+01 1.3866101945260374e+01 6.7880205646408065e+00 0 0 0
672 1 2.1423397146838958e-06 1.6008128024950473e+01 1.2605547222963674e+01 6.2754017883431947e+00 0 0 0
673 1 1.7473474807856640e-06 1.4552711241536940e+01 1.2605547222963221e+01 8.3319183738646707e+00 0 0 0
674 1 1.0901282080805126e-06 1.6743059830838636e+01 1.1344992500666134e+01 8.3359792712990348e+00 0 0 0
675 1 1.4566035970661056e-06 1.6743059830839030e+01 1.3866101945259219e+01 8.3359792712988430e+00 0 0 0
676 1 -2.7889258431553305e-06 1.8924733293644451e+01 1.2605547222963491e+01 6.7879073860313905e+00 0 0 0
677 1 -3.0566094023942283e-06 1.7466625371188758e+01 1.2605547222963690e+01 8.8548021441742808e+00 0 0 0
678 1 -4.9236290874727667e-07 1.9650116951928222e+01 1.1344992500667212e+01 8.8550137974297396e+00 0 0 0
679 1 -4.0767286604327768e-07 1.9650116951927565e+01 1.3866101945259897e+01 8.8550137974300096e+00 0 0 0
680 1 2.1683856643166628e-06 1.8919400891011108e+01 1.2605547222963471e+01 8.3319183738641875e+00 0 0 0
728 1 -6.1798112935419858e-07 1.5283427302450177e+01 1.3866101945260384e+01 8.8550137974295815e+00 0 0 0
730 1 2.0721461112656064e-06 1.4552711241537066e+01 1.5126656667556212e+01 8.3319183738648075e+00 0 0 0
1031 1 4.4675592860669196e-08 1.6736553798691553e+01 8.8238830560750188e+00 6.7880205646401750e+00 0 0 0
1032 1 1.9314830214483474e-06 1.6008128024950825e+01 7.5633283337780997e+00 6.2754017883432160e+00 0 0 0
1035 1 8.1244800820903653e-07 1.6743059830837836e+01 8.8238830560734538e+00 8.3359792712994221e+00 0 0 0
1039 1 -5.3909563390149186e-07 1.9650116951928823e+01 8.8238830560745516e+00 8.8550137974295566e+00 0 0 0
1040 1 2.0244315106575282e-06 1.8919400891011083e+01 7.5633283337779940e+00 8.3319183738644416e+00 0 0 0
1086 1 -3.1580227647016093e-06 1.4558043644167965e+01 1.0084437778370953e+01 6.7879073860315247e+00 0 0 0
1088 1 -1.0257231154379237e-06 1.5283427302450470e+01 8.8238830560754522e+00 8.8550137974296828e+00 0 0 0
1089 1 -8.5417247278184720e-07 1.5283427302450198e+01 1.1344992500668067e+01 8.8550137974295264e+00 0 0 0
1090 1 1.5221585194455944e-06 1.4552711241536612e+01 1.0084437778370328e+01 8.3319183738645126e+00 0 0 0
1094 1 -3.3755230463932466e-06 1.7466625371188996e+01 1.0084437778371237e+01 8.8548021441741653e+00 0 0 0
426 1 -1.5041288488931248e-06 4.3665992360679278e+00 2.0168875556741327e+01 4.2164123892411345e+00 0 0 0
427 1 -3.9437871423292701e-06 6.5503273743192594e+00 1.8908320834444716e+01 4.2167474349587266e+00 0 0 0
428 1 -4.0680576452054297e-06 6.5503273743193073e+00 2.1429430279038041e+01 4.2167474349588385e+00 0 0 0
476 1 -4.0195857196259607e-06 2.1836377248411933e+00 2.1429430279037923e+01 4.2167474349586627e+00 0 0 0
479 1 1.1099985885393378e-06 5.0965997050946559e+00 2.1429430279037820e+01 4.7313752994518188e+00 0 0 0
482 1 8.8937361556376439e-07 5.0971191275564127e+00 2.1429430279037778e+01 6.2778888612186803e+00 0 0 0
709 1 -3.8728959290212518e-06 6.5503273743191430e+00 1.6387211389851583e+01 4.2167474349590366e+00 0 0 0
757 1 -1.8926557505772520e-06 2.1833357833973032e+01 1.7647766112150865e+01 4.2164123892426666e+00 -1 0 0
758 1 -4.2562238607506420e-06 2.1836377248422276e+00 1.6387211389852581e+01 4.2167474349585534e+00 0 0 0
759 1 -4.1741893216693918e-06 2.1836377248414367e+00 1.8908320834445448e+01 4.2167474349582204e+00 0 0 0
761 1 2.6736642528746130e-06 2.9088485409684250e+00 1.7647766112149014e+01 4.7320335552391022e+00 0 0 0
762 1 1.0161788599709159e-06 5.0965997050944143e+00 1.6387211389853025e+01 4.7313752994520453e+00 0 0 0
763 1 1.1643804384956843e-06 5.0965997050946727e+00 1.8908320834445426e+01 4.7313752994521163e+00 0 0 0
764 1 -1.5851583746468643e-06 4.3665992360691721e+00 1.7647766112147870e+01 4.2164123892415519e+00 0 0 0
765 1 2.1292061507375878e-06 2.9080590765218735e+00 1.7647766112148926e+01 6.2754017883426689e+00 0 0 0
766 1 9.8111609722400831e-07 5.0971191275558052e+00 1.6387211389852990e+01 6.2778888612193420e+00 0 0 0
767 1 1.0476482537542459e-06 5.0971191275561383e+00 1.8908320834445387e+01 6.2778888612189743e+00 0 0 0
769 1 -2.6559339973802371e-06 5.8246643452155187e+00 1.7647766112148840e+01 6.7879073860317600e+00 0 0 0
773 1 1.7181962976956711e-06 5.8193319425833749e+00 1.7647766112148954e+01 8.3319183738649905e+00 0 0 0
811 1 4.9204351407717264e-07 7.2991005561859401e-01 1.8908320834445032e+01 4.7313752994520142e+00 0 0 0
812 1 5.3154716669323485e-07 7.2991005561871114e-01 2.1429430279037998e+01 4.7313752994516181e+00 0 0 0
813 1 -1.9615531820644022e-06 2.1833357833972457e+01 2.0168875556742147e+01 4.2164123892427412e+00 -1 0 0
814 1 2.9382832733086435e-07 7.3042947808061509e-01 1.8908320834444908e+01 6.2778888612192505e+00 0 0 0
815 1 2.5474521374109557e-07 7.3042947808045799e-01 2.1429430279037778e+01 6.2778888612189840e+00 0 0 0
816 1 2.8024388794184319e-06 2.9088485409697440e+00 2.0168875556741462e+01 4.7320335552388064e+00 0 0 0
817 1 -3.2560636288189824e-06 1.4579746957389308e+00 2.0168875556741810e+01 6.7879073860320336e+00 0 0 0
818 1 3.9220627688521045e-07 3.6364848502620721e+00 1.8908320834445458e+01 6.7880205646408012e+00 0 0 0
819 1 2.8769304719782152e-07 3.6364848502616689e+00 2.1429430279038566e+01 6.7880205646413714e+00 0 0 0
820 1 2.1665928669905300e-06 2.9080590765218899e+00 2.0168875556741636e+01 6.2754017883427169e+00 0 0 0
821 1 1.3695526471259056e-06 1.4526422931077165e+00 2.0168875556741469e+01 8.3319183738648288e+00 0 0 0
822 1 8.0137392646639946e-07 3.6429908824088719e+00 1.8908320834444741e+01 8.3359792712995677e+00 0 0 0
823 1 8.1931544006377156e-07 3.6429908824093307e+00 2.1429430279036826e+01 8.3359792712991023e+00 0 0 0
824 1 -2.7954476429561852e-06 5.8246643452154307e+00 2.0168875556741646e+01 6.7879073860319528e+00 0 0 0
825 1 -3.6535588539061590e-06 4.3665564227595519e+00 2.0168875556741977e+01 8.8548021441748030e+00 0 0 0
826 1 -1.0763701893865701e-06 6.5500480034991044e+00 1.8908320834445309e+01 8.8550137974296170e+00 0 0 0
827 1 -1.1583936628825587e-06 6.5500480034986142e+00 2.1429430279038552e+01 8.8550137974298213e+00 0 0 0
828 1 1.5086103907273773e-06 5.8193319425833039e+00 2.0168875556741440e+01 8.3319183738647720e+00 0 0 0
864 1 -1.1461911804737927e-06 2.1833583540215229e+00 2.1429430279038794e+01 8.8550137974299563e+00 0 0 0
1171 1 4.6705374912501839e-07 7.2991005561831790e-01 1.6387211389852435e+01 4.7313752994521199e+00 0 0 0
1174 1 1.9291046014699484e-07 7.3042947808053493e-01 1.6387211389852467e+01 6.2778888612191990e+00 0 0 0
1176 1 -3.3780557341579882e-06 1.4579746957389423e+00 1.5126656667556132e+01 6.7879073860319217e+00 0 0 0
1178 1 3.8290597439994173e-07 3.6364848502628178e+00 1.6387211389852094e+01 6.7880205646402958e+00 0 0 0
1182 1 1.0664843949194130e-06 3.6429908824081654e+00 1.6387211389852880e+01 8.3359792712999923e+00 0 0 0
1184 1 -3.1991464847647967e-06 4.3665564227600191e+00 1.5126656667555824e+01 8.8548021441741032e+00 0 0 0
1186 1 -8.0751436308155657e-07 6.5500480034993220e+00 1.6387211389852148e+01 8.8550137974292635e+00 0 0 0
1221 1 -3.2734387927092168e-06 1.4579746957389224e+00 1.7647766112149061e+01 6.7879073860319430e+00 0 0 0
1222 1 -3.5345199903489014e-06 2.1833315020664450e+01 1.7647766112149046e+01 8.8548021441741884e+00 -1 0 0
1223 1 -1.2587537970322505e-06 2.1833583540219053e+00 1.6387211389852531e+01 8.8550137974297076e+00 0 0 0
1224 1 -1.3500804183902407e-06 2.1833583540216410e+00 1.8908320834445878e+01 8.8550137974297236e+00 0 0 0
1225 1 1.3051031182328685e-06 1.4526422931076441e+00 1.7647766112148890e+01 8.3319183738648803e+00 0 0 0
1229 1 -3.5621008485432516e-06 4.3665564227598050e+00 1.7647766112148894e+01 8.8548021441744815e+00 0 0 0
1259 1 -3.3514323899044032e-06 2.1833315020664742e+01 2.0168875556742023e+01 8.8548021441743252e+00 -1 0 0
1604 1 -3.6107104653277452e-06 2.1833315020664344e+01 1.5126656667555892e+01 8.8548021441741831e+00 -1 0 0
168 1 -1.8720465197399133e-06 1.3099978535023382e+01 2.0168875556740264e+01 4.2164123892440575e+00 0 0 0
210 1 -4.1783793967753908e-06 1.0917017023795417e+01 2.1429430279037298e+01 4.2167474349595206e+00 0 0 0
213 1 2.8434288961134250e-07 1.3829979004046836e+01 2.1429430279038691e+01 4.7313752994518019e+00 0 0 0
216 1 2.4893224941544435e-07 1.3830498426508917e+01 2.1429430279038513e+01 6.2778888612201049e+00 0 0 0
328 1 -1.7991645621986458e-06 1.3099978535021261e+01 1.5126656667556905e+01 4.2164123892442431e+00 0 0 0
376 1 -1.6685178737724141e-06 8.7332888855480970e+00 1.7647766112147234e+01 4.2164123892447636e+00 0 0 0
377 1 -4.0937469502880468e-06 1.0917017023795417e+01 1.6387211389852126e+01 4.2167474349599532e+00 0 0 0
378 1 -4.0662465903470607e-06 1.0917017023795685e+01 1.8908320834444797e+01 4.2167474349599043e+00 0 0 0
380 1 2.2937291388638768e-06 1.1642227839918943e+01 1.7647766112149789e+01 4.7320335552367352e+00 0 0 0
381 1 6.3141024773852941e-07 1.3829979004047505e+01 1.6387211389852407e+01 4.7313752994516864e+00 0 0 0
382 1 4.5690279404772797e-07 1.3829979004047086e+01 1.8908320834445554e+01 4.7313752994516030e+00 0 0 0
383 1 -1.7505253043539570e-06 1.3099978535022785e+01 1.7647766112148641e+01 4.2164123892446312e+00 0 0 0
384 1 1.6167681670778694e-06 1.1641438375474745e+01 1.7647766112148826e+01 6.2754017883423723e+00 0 0 0
385 1 2.9056979075349464e-07 1.3830498426509212e+01 1.6387211389852592e+01 6.2778888612193882e+00 0 0 0
386 1 2.0677398028071834e-07 1.3830498426509026e+01 1.8908320834445618e+01 6.2778888612196910e+00 0 0 0
430 1 2.6610806457532882e-06 7.2755381904421439e+00 2.0168875556742130e+01 4.7320335552375683e+00 0 0 0
431 1 7.2287141293047888e-07 9.4632893545699428e+00 1.8908320834445554e+01 4.7313752994510754e+00 0 0 0
432 1 6.3595303960668940e-07 9.4632893545702181e+00 2.1429430279038201e+01 4.7313752994510629e+00 0 0 0
433 1 -1.8005520651697440e-06 8.7332888855482711e+00 2.0168875556740890e+01 4.2164123892440264e+00 0 0 0
434 1 2.1150075756908288e-06 7.2747487259985393e+00 2.0168875556741664e+01 6.2754017883425322e+00 0 0 0
435 1 5.4937507443606737e-07 9.4638087770320727e+00 1.8908320834445604e+01 6.2778888612192203e+00 0 0 0
436 1 6.3043106482800505e-07 9.4638087770322770e+00 2.1429430279038232e+01 6.2778888612192585e+00 0 0 0
437 1 2.2370697793282955e-06 1.1642227839918853e+01 2.0168875556743089e+01 4.7320335552372477e+00 0 0 0
438 1 -2.9273257808365762e-06 1.0191353994691616e+01 2.0168875556741419e+01 6.7879073860321872e+00 0 0 0
439 1 3.3523379514679268e-08 1.2369864149215479e+01 1.8908320834444389e+01 6.7880205646398375e+00 0 0 0
440 1 2.3635486738151015e-07 1.2369864149215330e+01 2.1429430279036772e+01 6.7880205646393055e+00 0 0 0
441 1 1.7101532074090055e-06 1.1641438375474744e+01 2.0168875556741508e+01 6.2754017883424273e+00 0 0 0
442 1 2.0208417996349328e-06 1.0186021592059898e+01 2.0168875556741845e+01 8.3319183738651432e+00 0 0 0
443 1 1.5926795068893801e-06 1.2376370181359967e+01 1.8908320834446936e+01 8.3359792713002694e+00 0 0 0
444 1 1.7516815225222348e-06 1.2376370181360691e+01 2.1429430279039881e+01 8.3359792713004559e+00 0 0 0
446 1 -2.8051977372424183e-06 1.3099935721712116e+01 2.0168875556740645e+01 8.8548021441742701e+00 0 0 0
485 1 1.7491652474614589e-07 8.0031744997394139e+00 2.1429430279037863e+01 6.7880205646407825e+00 0 0 0
488 1 8.9609303830793039e-07 8.0096805318840030e+00 2.1429430279037827e+01 8.3359792713001948e+00 0 0 0
491 1 -5.4078814427674679e-07 1.0916737652974742e+01 2.1429430279037014e+01 8.8550137974294323e+00 0 0 0
711 1 2.7691436788655768e-06 7.2755381904423411e+00 1.5126656667558819e+01 4.7320335552370212e+00 0 0 0
713 1 7.5637778756308185e-07 9.4632893545699766e+00 1.6387211389853011e+01 4.7313752994511438e+00 0 0 0
717 1 5.6784650201364571e-07 9.4638087770322681e+00 1.6387211389852940e+01 6.2778888612194335e+00 0 0 0
718 1 2.2145868908796365e-06 1.1642227839920201e+01 1.5126656667556549e+01 4.7320335552369635e+00 0 0 0
719 1 -3.1079747994140440e-06 1.0191353994691681e+01 1.5126656667556142e+01 6.7879073860320105e+00 0 0 0
721 1 -9.5470119693109910e-08 1.2369864149215340e+01 1.6387211389852204e+01 6.7880205646402736e+00 0 0 0
725 1 1.2458157519576716e-06 1.2376370181359730e+01 1.6387211389853313e+01 8.3359792713001806e+00 0 0 0
727 1 -3.4489720990097477e-06 1.3099935721712328e+01 1.5126656667556057e+01 8.8548021441740001e+00 0 0 0
768 1 2.7599186029736656e-06 7.2755381904420515e+00 1.7647766112150752e+01 4.7320335552373800e+00 0 0 0
770 1 4.4910163519442505e-07 8.0031744997398420e+00 1.6387211389851689e+01 6.7880205646401235e+00 0 0 0
771 1 2.5385844797849019e-07 8.0031744997398828e+00 1.8908320834444716e+01 6.7880205646405756e+00 0 0 0
772 1 2.2427671705392458e-06 7.2747487259985677e+00 1.7647766112148872e+01 6.2754017883426538e+00 0 0 0
774 1 1.2898689930325604e-06 8.0096805318829940e+00 1.6387211389853324e+01 8.3359792713009480e+00 0 0 0
775 1 9.7938605258565881e-07 8.0096805318830935e+00 1.8908320834445604e+01 8.3359792713004346e+00 0 0 0
776 1 -3.0065611150237985e-06 1.0191353994691665e+01 1.7647766112148794e+01 6.7879073860321339e+00 0 0 0
777 1 -3.4180379155579564e-06 8.7332460722368541e+00 1.7647766112148524e+01 8.8548021441738385e+00 0 0 0
778 1 -7.9718375419699827e-07 1.0916737652975691e+01 1.6387211389852169e+01 8.8550137974288265e+00 0 0 0
779 1 -6.1192135828901547e-07 1.0916737652975407e+01 1.8908320834444517e+01 8.8550137974291534e+00 0 0 0
780 1 1.9612946902823213e-06 1.0186021592059529e+01 1.7647766112149093e+01 8.3319183738652338e+00 0 0 0
784 1 -3.0587953082331121e-06 1.3099935721712322e+01 1.7647766112148332e+01 8.8548021441741138e+00 0 0 0
832 1 -3.5203466468233317e-06 8.7332460722365006e+00 2.0168875556741234e+01 8.8548021441741369e+00 0 0 0
68 1 -4.0334778254777883e-06 1.9650396322746804e+01 2.1429430279037785e+01 4.2167474349587488e+00 0 0 0
134 1 -1.5084646719953756e-06 1.7466668184497088e+01 1.7647766112150883e+01 4.2164123892433523e+00 0 0 0
135 1 -3.5913544119290020e-06 1.9650396322747056e+01 1.6387211389853565e+01 4.2167474349588545e+00 0 0 0
136 1 -3.8976056657261498e-06 1.9650396322746861e+01 1.8908320834445977e+01 4.2167474349586671e+00 0 0 0
138 1 2.5964223546400958e-06 2.0375607138874461e+01 1.7647766112146865e+01 4.7320335552381456e+00 0 0 0
140 1 1.8139426985680129e-06 2.0374817674427341e+01 1.7647766112149018e+01 6.2754017883427231e+00 0 0 0
169 1 -3.8181019649219986e-06 1.5283706673270485e+01 1.8908320834445238e+01 4.2167474349587710e+00 0 0 0
170 1 -4.0850016696162714e-06 1.5283706673270919e+01 2.1429430279037355e+01 4.2167474349585552e+00 0 0 0
172 1 2.2654020726259445e-06 1.6008917489396939e+01 2.0168875556742243e+01 4.7320335552395623e+00 0 0 0
173 1 5.2212336918605165e-07 1.8196668653523652e+01 1.8908320834444829e+01 4.7313752994522007e+00 0 0 0
174 1 3.1401912656506135e-07 1.8196668653523442e+01 2.1429430279038133e+01 4.7313752994521598e+00 0 0 0
175 1 -1.7832594515128805e-06 1.7466668184498278e+01 2.0168875556741785e+01 4.2164123892432173e+00 0 0 0
176 1 1.7021467022299235e-06 1.6008128024950977e+01 2.0168875556741568e+01 6.2754017883425881e+00 0 0 0
177 1 2.3435627583942572e-07 1.8197188075985583e+01 1.8908320834445160e+01 6.2778888612202586e+00 0 0 0
178 1 2.0521995209893360e-07 1.8197188075985185e+01 2.1429430279038158e+01 6.2778888612202515e+00 0 0 0
179 1 2.3929254675132073e-06 2.0375607138874706e+01 2.0168875556740929e+01 4.7320335552383685e+00 0 0 0
180 1 -3.0046367722466331e-06 1.8924733293644337e+01 2.0168875556741632e+01 6.7879073860316961e+00 0 0 0
181 1 6.4449897917059697e-08 2.1103243448166815e+01 1.8908320834445941e+01 6.7880205646402434e+00 0 0 0
182 1 1.0183919280307805e-07 2.1103243448167156e+01 2.1429430279038165e+01 6.7880205646403882e+00 0 0 0
183 1 1.7858793514997688e-06 2.0374817674427383e+01 2.0168875556741618e+01 6.2754017883427604e+00 0 0 0
184 1 2.4234349797532807e-06 1.8919400891011762e+01 2.0168875556741590e+01 8.3319183738643936e+00 0 0 0
185 1 1.2656473439938677e-06 2.1109749480314132e+01 1.8908320834444549e+01 8.3359792712999319e+00 0 0 0
186 1 1.4933281876225275e-06 2.1109749480313390e+01 2.1429430279037430e+01 8.3359792712995766e+00 0 0 0
219 1 2.2661472980433869e-07 1.6736553798692018e+01 2.1429430279037302e+01 6.7880205646387637e+00 0 0 0
222 1 2.0704461033951131e-06 1.6743059830836188e+01 2.1429430279038741e+01 8.3359792712998537e+00 0 0 0
225 1 -2.7695779350661824e-07 1.9650116951928034e+01 2.1429430279038218e+01 8.8550137974302014e+00 0 0 0
330 1 -3.6710741832548268e-06 1.5283706673269981e+01 1.6387211389853118e+01 4.2167474349586991e+00 0 0 0
334 1 8.8361985226622829e-07 1.8196668653523847e+01 1.6387211389851949e+01 4.7313752994522966e+00 0 0 0
336 1 1.9712462314288142e-06 1.6008128024950551e+01 1.5126656667556375e+01 6.2754017883429620e+00 0 0 0
338 1 3.6216628916370903e-07 1.8197188075985910e+01 1.6387211389852322e+01 6.2778888612200197e+00 0 0 0
342 1 2.2708966618631235e-09 2.1103243448166818e+01 1.6387211389852936e+01 6.7880205646406200e+00 0 0 0
344 1 2.2480480420503725e-06 1.8919400891011431e+01 1.5126656667556146e+01 8.3319183738641538e+00 0 0 0
346 1 1.1509659336526108e-06 2.1109749480314402e+01 1.6387211389852457e+01 8.3359792712995997e+00 0 0 0
387 1 2.5389466974704640e-06 1.6008917489398261e+01 1.7647766112147927e+01 4.7320335552388100e+00 0 0 0
388 1 -2.9565413882879605e-06 1.4558043644167876e+01 1.7647766112148890e+01 6.7879073860319847e+00 0 0 0
389 1 1.9351747351641078e-07 1.6736553798690704e+01 1.6387211389852727e+01 6.7880205646402016e+00 0 0 0
390 1 2.3321875814447138e-07 1.6736553798691297e+01 1.8908320834444933e+01 6.7880205646392948e+00 0 0 0
391 1 1.7754989723244406e-06 1.6008128024950750e+01 1.7647766112148975e+01 6.2754017883427098e+00 0 0 0
392 1 2.5123843040677229e-06 1.4552711241537022e+01 1.7647766112149252e+01 8.3319183738648572e+00 0 0 0
393 1 1.7544073748008510e-06 1.6743059830838710e+01 1.6387211389852709e+01 8.3359792712991911e+00 0 0 0
394 1 2.0602036025906906e-06 1.6743059830837581e+01 1.8908320834445973e+01 8.3359792712997027e+00 0 0 0
395 1 -3.0501459341520545e-06 1.8924733293644319e+01 1.7647766112148965e+01 6.7879073860316117e+00 0 0 0
396 1 -2.7251635955647431e-06 1.7466625371188737e+01 1.7647766112148485e+01 8.8548021441744016e+00 0 0 0
397 1 -4.1170906277171950e-07 1.9650116951927263e+01 1.6387211389852713e+01 8.8550137974300007e+00 0 0 0
398 1 -3.9468344013161465e-07 1.9650116951927529e+01 1.8908320834445611e+01 8.8550137974299385e+00 0 0 0
399 1 2.3076942186453653e-06 1.8919400891011634e+01 1.7647766112148851e+01 8.3319183738642941e+00 0 0 0
445 1 -2.9047779217562725e-06 1.4558043644167951e+01 2.0168875556741440e+01 6.7879073860318337e+00 0 0 0
447 1 6.5859703282149524e-08 1.5283427302450626e+01 1.8908320834444240e+01 8.8550137974300558e+00 0 0 0
448 1 1.0987947074416709e-07 1.5283427302451422e+01 2.1429430279036744e+01 8.8550137974304306e+00 0 0 0
449 1 2.7975339686997380e-06 1.4552711241536729e+01 2.0168875556742059e+01 8.3319183738648430e+00 0 0 0
453 1 -2.6251457524643143e-06 1.7466625371189220e+01 2.0168875556741266e+01 8.8548021441745135e+00 0 0 0
726 1 -2.9840348946085579e-06 1.4558043644167855e+01 1.5126656667556299e+01 6.7879073860319146e+00 0 0 0
729 1 -3.0303450463301495e-07 1.5283427302450262e+01 1.6387211389852339e+01 8.8550137974297485e+00 0 0 0
734 1 -2.8587390669992751e-06 1.7466625371188623e+01 1.5126656667556050e+01 8.8548021441743892e+00 0 0 0
5 1 1.2357210493015593e-06 1.9463746752269896e-02 2.2689985001334314e+01 1.5048309444356484e+01 0 -1 0
11 1 1.2766001107214090e-06 1.9463746752358173e-02 5.0422188891853903e+00 1.5048309444356631e+01 0 0 0
47 1 1.2278765891216782e-06 4.3861533962286643e+00 2.5211094445927693e+00 1.5048309444356473e+01 0 0 0
54 1 -4.1875305472598571e-06 1.4744671352608643e+00 2.5211094445927502e+00 1.4452191952413330e+01 0 0 0
55 1 -3.0399409710262419e-06 2.1492371587399353e+00 3.7816641668890858e+00 1.5034145959340492e+01 0 0 0
57 1 -3.3959330152135391e-06 2.1492371587399770e+00 1.2605547222963713e+00 1.5034145959340560e+01 0 0 0
58 1 1.2480851257057297e-06 1.9463746752298661e-02 2.5211094445926618e+00 1.5048309444356567e+01 0 0 0
60 1 1.2381222272700844e-06 1.4587710681294279e+00 2.5211094445924309e+00 1.2965715767293169e+01 0 0 0
71 1 -4.0656479536950671e-06 5.8411567847372492e+00 2.5432488196453343e-14 1.4452191952413243e+01 0 0 0
72 1 -3.2803145980012739e-06 6.5159268082162498e+00 1.2605547222963753e+00 1.5034145959340540e+01 0 0 0
73 1 1.0727751258809105e-06 4.3861533962286083e+00 3.7375702879578892e-14 1.5048309444356473e+01 0 0 0
80 1 1.8477768975611232e-06 5.8254607176054698e+00 1.3985618708181574e-13 1.2965715767293377e+01 0 0 0
82 1 4.9000538940118319e-06 3.6476611520775832e+00 1.2605547222964562e+00 1.4581305246217498e+01 0 0 0
106 1 -4.3424232614144334e-06 1.4744671352608847e+00 2.2689985001334300e+01 1.4452191952413330e+01 0 -1 0
137 1 2.2280510167548648e-06 2.9171607040318297e+00 4.3157261369686602e-13 1.2463454587433262e+01 0 0 0
139 1 -2.9077441195388660e-06 3.6386854082631226e+00 1.2605547222962528e+00 1.2992861420452952e+01 0 0 0
187 1 1.4090647297910047e-06 1.4587710681294312e+00 4.4902980922749159e-13 1.2965715767293336e+01 0 0 0
188 1 2.3013553339476479e-06 2.9110935486610621e+00 0.0000000000000000e+00 1.0911067743112431e+01 0 0 0
189 1 -6.2632632540502038e-07 7.2244207990076226e-01 1.2605547222963409e+00 1.2458479236125529e+01 0 0 0
191 1 2.7658805240548718e-06 2.1831883961107856e+01 2.2689985001334279e+01 1.0393142752305211e+01 -1 -1 0
193 1 -4.9667613083449172e-06 7.2829491421328585e-01 1.2605547222967235e+00 1.0908352275721564e+01 0 0 0
211 1 1.6253154478773552e-06 4.3861533962288028e+00 7.5633283337781192e+00 1.5048309444356546e+01 0 0 0
217 1 -3.6288234411522691e-06 1.4744671352608205e+00 7.5633283337781183e+00 1.4452191952413111e+01 0 0 0
220 1 -2.7467865164597664e-06 2.1492371587398647e+00 6.3027736114817667e+00 1.5034145959340474e+01 0 0 0
223 1 1.4035776516247208e-06 1.4587710681294170e+00 7.5633283337776342e+00 1.2965715767293734e+01 0 0 0
241 1 -3.7710988933533244e-06 5.8411567847372350e+00 5.0422188891854409e+00 1.4452191952413212e+01 0 0 0
266 1 -2.9845162860355796e-06 6.5159268082162694e+00 6.3027736114817730e+00 1.5034145959340522e+01 0 0 0
267 1 -3.1575366046212627e-06 6.5159268082162525e+00 3.7816641668890898e+00 1.5034145959340549e+01 0 0 0
298 1 1.4671355127600746e-06 4.3861533962287576e+00 5.0422188891854542e+00 1.5048309444356521e+01 0 0 0
347 1 1.6192206352377478e-06 5.8254607176054805e+00 5.0422188891852091e+00 1.2965715767292986e+01 0 0 0
348 1 5.7141539791522697e-06 3.6476611520777436e+00 6.3027736114817330e+00 1.4581305246217690e+01 0 0 0
403 1 5.3053164571368226e-06 3.6476611520776476e+00 3.7816641668890858e+00 1.4581305246217548e+01 0 0 0
405 1 -3.9086196904763842e-06 1.4744671352608274e+00 5.0422188891854702e+00 1.4452191952413219e+01 0 0 0
469 1 1.9438325969567428e-06 2.9171607040326442e+00 5.0422188891844151e+00 1.2463454587432425e+01 0 0 0
470 1 -2.7019929037109354e-06 3.6386854082628468e+00 6.3027736114823814e+00 1.2992861420452552e+01 0 0 0
471 1 -2.8620136102213347e-06 3.6386854082630014e+00 3.7816641668894868e+00 1.2992861420452979e+01 0 0 0
472 1 1.2193550520702520e-06 1.4587710681295047e+00 5.0422188891846993e+00 1.2965715767293336e+01 0 0 0
474 1 1.4627873819831768e-06 2.9110935486611194e+00 5.0422188891853734e+00 1.0911067743112625e+01 0 0 0
475 1 -1.1308909616437929e-06 7.2244207989989140e-01 6.3027736114830555e+00 1.2458479236125887e+01 0 0 0
477 1 -9.5335678724229367e-07 7.2244207990014597e-01 3.7816641668904141e+00 1.2458479236125875e+01 0 0 0
478 1 2.1963556488320844e-06 2.1831883961107867e+01 5.0422188891855075e+00 1.0393142752305085e+01 -1 0 0
480 1 -6.0437114994234747e-06 7.2829491421420056e-01 6.3027736114808111e+00 1.0908352275720166e+01 0 0 0
481 1 -5.4067603171928148e-06 7.2829491421397230e-01 3.7816641668883126e+00 1.0908352275720931e+01 0 0 0
508 1 -3.9794525766727878e-06 5.8411567847372350e+00 2.5211094445927498e+00 1.4452191952413237e+01 0 0 0
514 1 1.7022873699729336e-06 5.8254607176053028e+00 2.5211094445928111e+00 1.2965715767292981e+01 0 0 0
516 1 -5.9135412571739222e-07 5.0891317293775868e+00 3.7816641668894326e+00 1.2458479236126701e+01 0 0 0
524 1 -2.7021123900593503e-07 5.0891317293780949e+00 1.2605547222960907e+00 1.2458479236125790e+01 0 0 0
548 1 2.0504074122654047e-06 2.9171607040319865e+00 2.5211094445923785e+00 1.2463454587432624e+01 0 0 0
580 1 2.3695847437563267e-06 4.3651253632027380e+00 2.5211094445926996e+00 1.0393142752305179e+01 0 0 0
628 1 -5.6278812365452326e-06 5.0949845636886595e+00 3.7816641668893598e+00 1.0908352275720562e+01 0 0 0
629 1 -5.0030940648406464e-06 5.0949845636883904e+00 1.2605547222974334e+00 1.0908352275721615e+01 0 0 0
684 1 2.0293432367295824e-06 2.9110935486611660e+00 2.5211094445926530e+00 1.0911067743112561e+01 0 0 0
750 1 2.0214895511420410e-06 2.1841815013782018e+00 3.7816641668893358e+00 1.0400959122048828e+01 0 0 0
751 1 2.3557868160618317e-06 2.1841815013790256e+00 1.2605547222953573e+00 1.0400959122047750e+01 0 0 0
809 1 2.7234456128480764e-06 2.1831883961107899e+01 2.5211094445927595e+00 1.0393142752305200e+01 -1 0 0
857 1 1.5536770206830322e-06 5.8254607176057061e+00 7.5633283337778430e+00 1.2965715767293423e+01 0 0 0
869 1 -8.2963783892526735e-07 5.0891317293767182e+00 6.3027736114826851e+00 1.2458479236126706e+01 0 0 0
1167 1 1.5567166245062123e-06 4.3651253632027807e+00 7.5633283337781556e+00 1.0393142752305039e+01 0 0 0
1168 1 2.0036270734570950e-06 6.5508711508568584e+00 1.2605547222951117e+00 1.0400959122047581e+01 0 0 0
1220 1 -6.1643429260399771e-06 5.0949845636893549e+00 6.3027736114810669e+00 1.0908352275719951e+01 0 0 0
1254 1 1.0764830133148594e-06 2.9110935486610194e+00 7.5633283337780526e+00 1.0911067743112518e+01 0 0 0
1286 1 1.4555910618020692e-06 2.1841815013780295e+00 6.3027736114828965e+00 1.0400959122050107e+01 0 0 0
1287 1 2.7106117552181626e-06 4.3651253632025551e+00 2.2689985001334307e+01 1.0393142752305302e+01 0 -1 0
1776 1 1.8674003893217011e-06 4.3651253632027975e+00 5.0422188891854560e+00 1.0393142752305115e+01 0 0 0
1777 1 1.6025159889490332e-06 6.5508711508569046e+00 3.7816641668882305e+00 1.0400959122048501e+01 0 0 0
1778 1 1.4039627689248472e-06 6.5508711508560982e+00 6.3027736114820332e+00 1.0400959122049455e+01 0 0 0
61 1 -4.1694489895019212e-06 1.0207846434213502e+01 7.5633283337780917e+00 1.4452191952413255e+01 0 0 0
67 1 9.9509315910752561e-07 8.7528430457051378e+00 7.4829771345988813e-15 1.5048309444356692e+01 0 0 0
196 1 -3.3581327781932203e-06 1.0882616457692549e+01 6.3027736114817197e+00 1.5034145959340549e+01 0 0 0
203 1 1.5174485832067963e-06 8.7528430457050774e+00 7.5633283337780934e+00 1.5048309444356601e+01 0 0 0
230 1 5.5095636739272796e-06 8.0143508015539879e+00 6.3027736114818227e+00 1.4581305246217473e+01 0 0 0
231 1 1.2686505175669352e-06 8.7528430457050774e+00 5.0422188891854232e+00 1.5048309444356573e+01 0 0 0
489 1 2.0629894061379616e-06 7.2838503535084476e+00 7.5633283337777613e+00 1.2463454587432540e+01 0 0 0
492 1 1.4443033585262855e-06 1.3119532695181416e+01 2.5211094445927111e+00 1.5048309444356654e+01 0 0 0
498 1 -3.8028570119013096e-06 1.0207846434213433e+01 2.5211094445926991e+00 1.4452191952413200e+01 0 0 0
499 1 -3.1503197109196760e-06 1.0882616457692576e+01 3.7816641668890205e+00 1.5034145959340535e+01 0 0 0
501 1 -2.9067212263648749e-06 1.0882616457692594e+01 1.2605547222963187e+00 1.5034145959340513e+01 0 0 0
502 1 1.0427061983608492e-06 8.7528430457051059e+00 2.5211094445927422e+00 1.5048309444356613e+01 0 0 0
504 1 1.8866831114954553e-06 1.0192150367082538e+01 2.5211094445926658e+00 1.2965715767293972e+01 0 0 0
505 1 5.1908639008243702e-06 8.0143508015540483e+00 3.7816641668891542e+00 1.4581305246217392e+01 0 0 0
507 1 4.9188362065799275e-06 8.0143508015541638e+00 1.2605547222963942e+00 1.4581305246217385e+01 0 0 0
510 1 2.2868682084540753e-06 7.2838503535078765e+00 2.5211094445928670e+00 1.2463454587432969e+01 0 0 0
511 1 -2.6551542457079204e-06 8.0053750577396023e+00 3.7816641668891204e+00 1.2992861420452744e+01 0 0 0
513 1 -2.7428378354471169e-06 8.0053750577394815e+00 1.2605547222964486e+00 1.2992861420452408e+01 0 0 0
515 1 1.7000840243017727e-06 7.2777831981372803e+00 2.5211094445927102e+00 1.0911067743112383e+01 0 0 0
808 1 -2.6174029460167708e-06 8.0053750577395597e+00 6.3027736114819080e+00 1.2992861420452730e+01 0 0 0
883 1 1.3697415029378465e-06 1.3119532695181393e+01 2.2689985001334314e+01 1.5048309444356672e+01 0 -1 0
886 1 5.5169615244599902e-06 1.2381040451030826e+01 1.2605547222962963e+00 1.4581305246217655e+01 0 0 0
887 1 -3.6758209787005023e-06 1.0207846434213417e+01 2.2689985001334307e+01 1.4452191952413168e+01 0 -1 0
889 1 2.3295857870335530e-06 1.1650540002986006e+01 2.2689985001333991e+01 1.2463454587435193e+01 0 -1 0
890 1 -2.5116987856172593e-06 1.2372064707214280e+01 1.2605547222966824e+00 1.2992861420450923e+01 0 0 0
907 1 1.9098236160693902e-06 1.0192150367082709e+01 2.2689985001334080e+01 1.2965715767294174e+01 0 -1 0
938 1 1.6124039481314923e-06 1.1644472847613457e+01 2.2689985001334268e+01 1.0911067743112355e+01 0 -1 0
940 1 -3.4499837633234679e-07 9.4558213788533187e+00 1.2605547222964495e+00 1.2458479236124566e+01 0 0 0
988 1 2.4075299334323107e-06 7.2838503535081776e+00 2.8304588149262960e-14 1.2463454587433686e+01 0 0 0
989 1 2.1675754096515308e-06 8.7318150126785081e+00 2.2689985001334293e+01 1.0393142752305444e+01 0 -1 0
1044 1 -5.4839986949103521e-06 9.4616742131652014e+00 1.2605547222965416e+00 1.0908352275722482e+01 0 0 0
1046 1 2.0861402771468955e-06 7.2777831981371044e+00 3.8342101870592030e-14 1.0911067743112266e+01 0 0 0
1435 1 2.3738613238261051e-06 1.3098504662155314e+01 5.0422188891854285e+00 1.0393142752304986e+01 0 0 0
1485 1 1.8642144855582093e-06 1.0917560800332975e+01 6.3027736114805295e+00 1.0400959122047960e+01 0 0 0
1488 1 1.8793653179412620e-06 1.1644472847613788e+01 7.5633283337780748e+00 1.0911067743112454e+01 0 0 0
1489 1 -4.9241867761941388e-06 1.3828363862641465e+01 6.3027736114821300e+00 1.0908352275723015e+01 0 0 0
1493 1 -3.4300459822079866e-07 1.3822511028329542e+01 6.3027736114824986e+00 1.2458479236123404e+01 0 0 0
1683 1 2.0021435029517160e-06 1.3098504662155131e+01 7.2576909899007698e-14 1.0393142752305293e+01 0 0 0
1728 1 1.9815440556114704e-06 8.7318150126786431e+00 2.5211094445927111e+00 1.0393142752305307e+01 0 0 0
1729 1 1.8030637815561010e-06 1.0917560800332485e+01 1.2605547222966449e+00 1.0400959122046432e+01 0 0 0
1730 1 1.7417919048685775e-06 1.0917560800333030e+01 3.7816641668882229e+00 1.0400959122046672e+01 0 0 0
1732 1 1.6654876862923985e-06 1.1644472847613512e+01 2.5211094445926938e+00 1.0911067743112348e+01 0 0 0
1733 1 -5.6078266026782342e-06 1.3828363862642806e+01 1.2605547222955615e+00 1.0908352275724729e+01 0 0 0
1734 1 -5.2556265289516786e-06 1.3828363862642311e+01 3.7816641668888606e+00 1.0908352275724473e+01 0 0 0
1735 1 2.1536504749176619e-06 1.3098504662155186e+01 2.5211094445927493e+00 1.0393142752305224e+01 0 0 0
1736 1 2.3938438138088274e-06 1.1650540002985625e+01 2.5211094445924678e+00 1.2463454587435098e+01 0 0 0
1737 1 -4.7433560664104591e-07 1.3822511028328226e+01 1.2605547222969575e+00 1.2458479236121665e+01 0 0 0
1738 1 -2.9716222147411897e-07 1.3822511028328757e+01 3.7816641668899051e+00 1.2458479236122086e+01 0 0 0
1780 1 1.4178083513893140e-06 7.2777831981374250e+00 5.0422188891854001e+00 1.0911067743112564e+01 0 0 0
1781 1 -5.6041207375743243e-06 9.4616742131646365e+00 3.7816641668897639e+00 1.0908352275721914e+01 0 0 0
1782 1 -5.5473460646857787e-06 9.4616742131648479e+00 6.3027736114822961e+00 1.0908352275720944e+01 0 0 0
1783 1 2.0030269408420537e-06 8.7318150126788368e+00 5.0422188891854143e+00 1.0393142752305147e+01 0 0 0
1784 1 2.1772072295410901e-06 7.2838503535080070e+00 5.0422188891852429e+00 1.2463454587432500e+01 0 0 0
1785 1 -4.3044167929204763e-07 9.4558213788535532e+00 3.7816641668889530e+00 1.2458479236125358e+01 0 0 0
1786 1 -6.0486723122827427e-07 9.4558213788533880e+00 6.3027736114818715e+00 1.2458479236126179e+01 0 0 0
1787 1 1.7335614116531402e-06 1.1644472847613667e+01 5.0422188891854089e+00 1.0911067743112392e+01 0 0 0
1788 1 1.6164432369462512e-06 1.0192150367082345e+01 5.0422188891854107e+00 1.2965715767293597e+01 0 0 0
1789 1 -2.5950987609195696e-06 1.2372064707214625e+01 3.7816641668893634e+00 1.2992861420451197e+01 0 0 0
1790 1 -2.9324356554913908e-06 1.2372064707215273e+01 6.3027736114820305e+00 1.2992861420451650e+01 0 0 0
1791 1 2.1630679378117228e-06 1.1650540002985075e+01 5.0422188891851683e+00 1.2463454587434398e+01 0 0 0
1792 1 -4.0113498159310163e-06 1.0207846434213455e+01 5.0422188891853974e+00 1.4452191952413237e+01 0 0 0
1793 1 5.3718497933343464e-06 1.2381040451030680e+01 3.7816641668890072e+00 1.4581305246217683e+01 0 0 0
1794 1 5.1151725060957856e-06 1.2381040451030504e+01 6.3027736114817214e+00 1.4581305246217733e+01 0 0 0
1796 1 1.4800151169456378e-06 1.3119532695181434e+01 5.0422188891854072e+00 1.5048309444356597e+01 0 0 0
875 1 1.6663293261873676e-06 1.7486222344657666e+01 2.2689985001334303e+01 1.5048309444356551e+01 0 -1 0
880 1 -3.5587201081148030e-06 1.4574536083689710e+01 1.2503172278900271e-14 1.4452191952412987e+01 0 0 0
881 1 -2.7822453893149303e-06 1.5249306107168787e+01 1.2605547222963926e+00 1.5034145959340600e+01 0 0 0
884 1 1.8022046404114733e-06 1.4558840016559076e+01 2.2689985001334243e+01 1.2965715767295215e+01 0 -1 0
1041 1 2.5946850093808714e-06 1.7465194311631507e+01 7.5633283337781565e+00 1.0393142752304696e+01 0 0 0
1042 1 2.3304944303231823e-06 1.9650940099282831e+01 6.3027736114823130e+00 1.0400959122048581e+01 0 0 0
1045 1 1.8759065006148699e-06 2.0377852146566106e+01 7.5633283337780517e+00 1.0911067743112611e+01 0 0 0
1047 1 2.1175233170000125e-06 2.0383919301937851e+01 7.5633283337774495e+00 1.2463454587434128e+01 0 0 0
1385 1 2.1608383672972997e-06 1.7465194311631521e+01 2.5211094445927942e+00 1.0393142752305044e+01 0 0 0
1386 1 2.2692419064517938e-06 1.9650940099283140e+01 1.2605547222967257e+00 1.0400959122046668e+01 0 0 0
1387 1 2.3632641415341840e-06 1.9650940099282810e+01 3.7816641668902782e+00 1.0400959122047219e+01 0 0 0
1389 1 2.1981969005195147e-06 2.0377852146566202e+01 2.5211094445926370e+00 1.0911067743112698e+01 0 0 0
1391 1 2.2072880277932153e-06 2.0383919301937269e+01 2.5211094445918332e+00 1.2463454587434271e+01 0 0 0
1436 1 2.1428864436107818e-06 1.5284250449807491e+01 3.7816641668895046e+00 1.0400959122045501e+01 0 0 0
1437 1 2.3916688346857894e-06 1.5284250449808464e+01 6.3027736114815074e+00 1.0400959122047151e+01 0 0 0
1439 1 2.1112731092481101e-06 1.6011162497089771e+01 5.0422188891853414e+00 1.0911067743112545e+01 0 0 0
1440 1 -5.2978456796098541e-06 1.8195053512119937e+01 3.7816641668877709e+00 1.0908352275723237e+01 0 0 0
1441 1 -5.0420533778843195e-06 1.8195053512119838e+01 6.3027736114810216e+00 1.0908352275722434e+01 0 0 0
1442 1 2.4134202475208112e-06 1.7465194311631503e+01 5.0422188891854667e+00 1.0393142752304938e+01 0 0 0
1443 1 2.2854974976432657e-06 1.6017229652461822e+01 5.0422188891841930e+00 1.2463454587436207e+01 0 0 0
1444 1 -4.8667114386946531e-07 1.8189200677805268e+01 3.7816641668908701e+00 1.2458479236122933e+01 0 0 0
1445 1 -4.8462076330245018e-07 1.8189200677805221e+01 6.3027736114830839e+00 1.2458479236123463e+01 0 0 0
1446 1 2.0456988703663029e-06 2.0377852146566102e+01 5.0422188891853210e+00 1.0911067743112641e+01 0 0 0
1447 1 1.6990704398589865e-06 1.8925529666034759e+01 5.0422188891844897e+00 1.2965715767294666e+01 0 0 0
1448 1 -3.0153419191355654e-06 2.1105444006168277e+01 3.7816641668898381e+00 1.2992861420451911e+01 0 0 0
1449 1 -3.0563730110046025e-06 2.1105444006168224e+01 6.3027736114823316e+00 1.2992861420451733e+01 0 0 0
1450 1 2.1176596651485901e-06 2.0383919301937720e+01 5.0422188891839683e+00 1.2463454587434224e+01 0 0 0
1451 1 -3.6377056450147769e-06 1.8941225733166171e+01 5.0422188891855644e+00 1.4452191952413040e+01 0 0 0
1452 1 5.1850670488691105e-06 2.1114419749982858e+01 3.7816641668888860e+00 1.4581305246217497e+01 0 0 0
1453 1 5.2573890617917961e-06 2.1114419749982925e+01 6.3027736114816477e+00 1.4581305246217653e+01 0 0 0
1496 1 1.5509449518930200e-06 1.4558840016558124e+01 7.5633283337776280e+00 1.2965715767294588e+01 0 0 0
1497 1 -3.0196241336770449e-06 1.6738754356691775e+01 6.3027736114825608e+00 1.2992861420450613e+01 0 0 0
1501 1 5.0464445353926218e-06 1.6747730100506587e+01 6.3027736114816317e+00 1.4581305246217735e+01 0 0 0
1504 1 1.2802410234204149e-06 1.7486222344657694e+01 7.5633283337781165e+00 1.5048309444356654e+01 0 0 0
1505 1 -2.6447811249143198e-06 1.9615995756645223e+01 6.3027736114817845e+00 1.5034145959340478e+01 0 0 0
1650 1 1.5119033898927473e-06 1.7486222344657698e+01 5.0422188891854161e+00 1.5048309444356661e+01 0 0 0
1684 1 1.9365891080124710e-06 1.5284250449807036e+01 1.2605547222971549e+00 1.0400959122044974e+01 0 0 0
1686 1 1.6174351415303257e-06 1.6011162497089874e+01 2.2689985001334232e+01 1.0911067743112536e+01 0 -1 0
1687 1 -5.5705439415672405e-06 1.8195053512119781e+01 1.2605547222958295e+00 1.0908352275723352e+01 0 0 0
1688 1 2.0696316353374543e-06 1.7465194311631556e+01 6.5282533525092620e-14 1.0393142752305039e+01 0 0 0
1689 1 2.3533502798491229e-06 1.6017229652461928e+01 1.5493107539688975e-13 1.2463454587436315e+01 0 0 0
1690 1 -5.2806700195253367e-07 1.8189200677805307e+01 1.2605547222968476e+00 1.2458479236122784e+01 0 0 0
1691 1 2.1575174900409822e-06 2.0377852146566287e+01 2.2689985001334254e+01 1.0911067743112669e+01 0 -1 0
1692 1 1.7499963787241534e-06 1.8925529666034741e+01 3.0751609937877909e-13 1.2965715767294494e+01 0 0 0
1693 1 -2.7981843117559152e-06 2.1105444006168483e+01 1.2605547222964053e+00 1.2992861420452055e+01 0 0 0
1694 1 2.3719070766781527e-06 2.0383919301936881e+01 7.1669471395762930e-13 1.2463454587434184e+01 0 0 0
1695 1 -3.7206484734187485e-06 1.8941225733166327e+01 2.2689985001334257e+01 1.4452191952413070e+01 0 -1 0
1696 1 5.1872365534925056e-06 2.1114419749982758e+01 1.2605547222963378e+00 1.4581305246217481e+01 0 0 0
1739 1 1.7981637870479711e-06 1.6011162497089856e+01 2.5211094445926072e+00 1.0911067743112573e+01 0 0 0
1740 1 1.9143218590891873e-06 1.4558840016559095e+01 2.5211094445922466e+00 1.2965715767295237e+01 0 0 0
1741 1 -2.4527054940835798e-06 1.6738754356691366e+01 1.2605547222966100e+00 1.2992861420450415e+01 0 0 0
1742 1 -2.6690722175395578e-06 1.6738754356691501e+01 3.7816641668899997e+00 1.2992861420450419e+01 0 0 0
1743 1 2.3751002062589740e-06 1.6017229652462106e+01 2.5211094445919029e+00 1.2463454587436553e+01 0 0 0
1744 1 -3.5814668574540697e-06 1.4574536083689726e+01 2.5211094445928022e+00 1.4452191952413004e+01 0 0 0
1745 1 5.7560183533665218e-06 1.6747730100506626e+01 1.2605547222962956e+00 1.4581305246217665e+01 0 0 0
1746 1 5.4612379501456695e-06 1.6747730100506619e+01 3.7816641668888882e+00 1.4581305246217671e+01 0 0 0
1747 1 1.6916405114584768e-06 1.8925529666034855e+01 2.5211094445920814e+00 1.2965715767294624e+01 0 0 0
1748 1 1.6240867489708012e-06 1.7486222344657683e+01 2.5211094445927169e+00 1.5048309444356628e+01 0 0 0
1749 1 -3.0332372606473696e-06 1.9615995756645376e+01 1.2605547222964086e+00 1.5034145959340506e+01 0 0 0
1750 1 -2.8204092096065641e-06 1.9615995756645265e+01 3.7816641668891382e+00 1.5034145959340451e+01 0 0 0
1751 1 -3.6983295282988330e-06 1.8941225733166231e+01 2.5211094445928417e+00 1.4452191952413063e+01 0 0 0
1795 1 1.7967320007748688e-06 1.4558840016558639e+01 5.0422188891847481e+00 1.2965715767294961e+01 0 0 0
1797 1 -2.8321860164288128e-06 1.5249306107168774e+01 3.7816641668891022e+00 1.5034145959340648e+01 0 0 0
1798 1 -2.9410479953907278e-06 1.5249306107168790e+01 6.3027736114817712e+00 1.5034145959340654e+01 0 0 0
1799 1 -3.7351029045846797e-06 1.4574536083689798e+01 5.0422188891855120e+00 1.4452191952413054e+01 0 0 0
3 1 1.4981005285446069e-06 1.9463746752454127e-02 1.5126656667556206e+01 1.5048309444356507e+01 0 0 0
45 1 1.6264868313571908e-06 4.3861533962287300e+00 1.2605547222963500e+01 1.5048309444356546e+01 0 0 0
202 1 1.3671889714771395e-06 1.9463746752452032e-02 1.0084437778370818e+01 1.5048309444356615e+01 0 0 0
206 1 -3.5693934645600583e-06 1.4744671352608421e+00 1.2605547222963500e+01 1.4452191952413058e+01 0 0 0
208 1 -2.7866790802389301e-06 2.1492371587398211e+00 1.3866101945259860e+01 1.5034145959340481e+01 0 0 0
218 1 -2.5811651092099895e-06 2.1492371587398096e+00 8.8238830560744344e+00 1.5034145959340444e+01 0 0 0
221 1 1.3106546577395410e-06 1.9463746752416394e-02 7.5633283337781165e+00 1.5048309444356640e+01 0 0 0
227 1 -2.6042035782111891e-06 2.1492371587397980e+00 1.1344992500667137e+01 1.5034145959340421e+01 0 0 0
229 1 1.4247568790208659e-06 1.9463746752472588e-02 1.2605547222963523e+01 1.5048309444356565e+01 0 0 0
484 1 -3.6228040791566002e-06 5.8411567847372137e+00 7.5633283337780952e+00 1.4452191952413145e+01 0 0 0
487 1 1.6710745275357765e-06 1.4587710681295809e+00 1.2605547222963594e+01 1.2965715767294217e+01 0 0 0
861 1 -9.0860353237485631e-07 5.0891317293761240e+00 8.8238830560749175e+00 1.2458479236125898e+01 0 0 0
874 1 2.0083694054410987e-06 2.9171607040331251e+00 7.5633283337772852e+00 1.2463454587432894e+01 0 0 0
1188 1 2.2408261905053510e-06 4.3651253632027878e+00 1.5126656667556183e+01 1.0393142752305092e+01 0 0 0
1189 1 1.8021776129333022e-06 6.5508711508547020e+00 1.3866101945260636e+01 1.0400959122048482e+01 0 0 0
1216 1 -6.3282458659415869e-06 5.0949845636900353e+00 8.8238830560735337e+00 1.0908352275720098e+01 0 0 0
1255 1 -3.5509276787501739e-06 5.8411567847372057e+00 1.0084437778370757e+01 1.4452191952413068e+01 0 0 0
1256 1 -2.7435134165136268e-06 6.5159268082163102e+00 1.1344992500667152e+01 1.5034145959340401e+01 0 0 0
1282 1 1.2515387379492978e-06 2.1841815013785779e+00 8.8238830560756298e+00 1.0400959122050413e+01 0 0 0
1283 1 -2.8625901519516418e-06 6.5159268082162800e+00 8.8238830560744503e+00 1.5034145959340449e+01 0 0 0
1284 1 1.6718935913560024e-06 4.3861533962287771e+00 1.0084437778370804e+01 1.5048309444356541e+01 0 0 0
1295 1 1.5580657826482571e-06 5.8254607176058899e+00 1.0084437778370877e+01 1.2965715767294050e+01 0 0 0
1512 1 1.6962392572001689e-06 2.1831883961107827e+01 7.5633283337781680e+00 1.0393142752304929e+01 -1 0 0
1533 1 1.6624030381247827e-06 4.3651253632028286e+00 1.0084437778370827e+01 1.0393142752304941e+01 0 0 0
1534 1 1.3914191387386645e-06 6.5508711508550679e+00 8.8238830560752284e+00 1.0400959122049915e+01 0 0 0
1535 1 1.5602959184631446e-06 6.5508711508545705e+00 1.1344992500667997e+01 1.0400959122049480e+01 0 0 0
1562 1 5.8617293032054489e-06 3.6476611520778115e+00 1.1344992500667209e+01 1.4581305246217728e+01 0 0 0
1563 1 5.9290945215260511e-06 3.6476611520778102e+00 8.8238830560744912e+00 1.4581305246217775e+01 0 0 0
1571 1 1.8231346102825466e-06 2.1831883961107799e+01 1.2605547222963470e+01 1.0393142752304767e+01 -1 0 0
1572 1 1.3973182432944398e-06 2.1841815013790211e+00 1.1344992500667985e+01 1.0400959122049398e+01 0 0 0
1573 1 1.6188276400599587e-06 2.1841815013790900e+00 1.3866101945260370e+01 1.0400959122048084e+01 0 0 0
1575 1 1.4453450679480313e-06 2.9110935486608982e+00 1.2605547222963486e+01 1.0911067743112470e+01 0 0 0
1576 1 -6.0614561174913514e-06 5.0949845636903328e+00 1.1344992500666546e+01 1.0908352275721075e+01 0 0 0
1577 1 -5.6140478448680075e-06 5.0949845636902582e+00 1.3866101945259437e+01 1.0908352275722278e+01 0 0 0
1578 1 1.9720063942537681e-06 4.3651253632028713e+00 1.2605547222963509e+01 1.0393142752304952e+01 0 0 0
1579 1 2.2589510673895237e-06 2.9171607040333360e+00 1.2605547222963907e+01 1.2463454587434711e+01 0 0 0
1580 1 -7.7704851761515287e-07 5.0891317293760965e+00 1.1344992500666896e+01 1.2458479236124736e+01 0 0 0
1581 1 -5.1279105603097043e-07 5.0891317293764624e+00 1.3866101945259549e+01 1.2458479236123765e+01 0 0 0
1583 1 1.6962039441714851e-06 5.8254607176059672e+00 1.2605547222963660e+01 1.2965715767294451e+01 0 0 0
1587 1 -3.5052852142010671e-06 5.8411567847372430e+00 1.2605547222963487e+01 1.4452191952413042e+01 0 0 0
1600 1 -3.4887191768130375e-06 1.4744671352608318e+00 1.0084437778370777e+01 1.4452191952413058e+01 0 0 0
1601 1 2.1717611847711154e-06 2.9171607040332863e+00 1.0084437778370837e+01 1.2463454587433862e+01 0 0 0
1605 1 -5.7622087770692547e-06 7.2829491421267867e-01 1.3866101945259500e+01 1.0908352275721544e+01 0 0 0
1608 1 -6.2123629829932751e-07 7.2244207990041520e-01 1.3866101945259828e+01 1.2458479236124607e+01 0 0 0
1611 1 1.7712703610374400e-06 1.4587710681298218e+00 1.5126656667556135e+01 1.2965715767294141e+01 0 0 0
1612 1 -2.5427031957300116e-06 3.6386854082621460e+00 1.3866101945259677e+01 1.2992861420451325e+01 0 0 0
1615 1 -3.7115383758483343e-06 1.4744671352608398e+00 1.5126656667556221e+01 1.4452191952413108e+01 0 0 0
1616 1 5.5909085290410777e-06 3.6476611520777924e+00 1.3866101945259807e+01 1.4581305246217651e+01 0 0 0
1619 1 1.5079150664270531e-06 4.3861533962287140e+00 1.5126656667556185e+01 1.5048309444356583e+01 0 0 0
1620 1 -2.6728922959038980e-06 6.5159268082163377e+00 1.3866101945259887e+01 1.5034145959340453e+01 0 0 0
1628 1 -2.4807282140134927e-06 3.6386854082624769e+00 1.1344992500666978e+01 1.2992861420451499e+01 0 0 0
1629 1 -2.5261879751561558e-06 3.6386854082627593e+00 8.8238830560747061e+00 1.2992861420451970e+01 0 0 0
1641 1 -6.2928868314177962e-06 7.2829491421367798e-01 8.8238830560738570e+00 1.0908352275720000e+01 0 0 0
1642 1 1.6113497203687898e-06 1.4587710681293575e+00 1.0084437778370820e+01 1.2965715767294087e+01 0 0 0
1643 1 1.1543911976815643e-06 2.9110935486609337e+00 1.0084437778370740e+01 1.0911067743112424e+01 0 0 0
1645 1 -6.1302073136072107e-06 7.2829491421299175e-01 1.1344992500666800e+01 1.0908352275720695e+01 0 0 0
1647 1 -8.5915659413037029e-07 7.2244207990042630e-01 1.1344992500667001e+01 1.2458479236124983e+01 0 0 0
1648 1 -1.0348256202270002e-06 7.2244207990016529e-01 8.8238830560748678e+00 1.2458479236125530e+01 0 0 0
1756 1 1.6111633408328828e-06 2.1831883961107803e+01 1.0084437778370797e+01 1.0393142752304808e+01 -1 0 0
9 1 1.4845201476078292e-06 1.3119532695181459e+01 7.5633283337781094e+00 1.5048309444356549e+01 0 0 0
66 1 -3.4143173413636492e-06 1.0882616457692523e+01 8.8238830560744397e+00 1.5034145959340544e+01 0 0 0
209 1 1.3174297036462967e-06 1.0192150367082146e+01 7.5633283337780624e+00 1.2965715767293334e+01 0 0 0
224 1 5.7000373896651458e-06 8.0143508015539826e+00 8.8238830560745214e+00 1.4581305246217592e+01 0 0 0
490 1 -2.6597073155729628e-06 8.0053750577395082e+00 8.8238830560744894e+00 1.2992861420452392e+01 0 0 0
731 1 1.8970183606058070e-06 1.3098504662155410e+01 1.5126656667556132e+01 1.0393142752304994e+01 0 0 0
859 1 1.3131738489382488e-06 7.2777831981373975e+00 7.5633283337780792e+00 1.0911067743112604e+01 0 0 0
872 1 1.6631774193486542e-06 8.7528430457050774e+00 1.0084437778370789e+01 1.5048309444356647e+01 0 0 0
1091 1 2.5984859699213046e-06 1.3098504662155518e+01 1.0084437778370782e+01 1.0393142752304733e+01 0 0 0
1140 1 2.1473508259941988e-06 8.7318150126788332e+00 1.2605547222963546e+01 1.0393142752304906e+01 0 0 0
1141 1 1.8493832218617591e-06 1.0917560800331652e+01 1.1344992500667205e+01 1.0400959122050878e+01 0 0 0
1142 1 1.6866487795693566e-06 1.0917560800330911e+01 1.3866101945260198e+01 1.0400959122050791e+01 0 0 0
1144 1 1.6056860866939737e-06 1.1644472847613669e+01 1.2605547222963491e+01 1.0911067743112412e+01 0 0 0
1145 1 -5.0038185523403088e-06 1.3828363862641430e+01 1.1344992500667919e+01 1.0908352275719960e+01 0 0 0
1146 1 -5.5066010994939742e-06 1.3828363862642062e+01 1.3866101945260526e+01 1.0908352275719709e+01 0 0 0
1147 1 2.2202920372862691e-06 1.3098504662155488e+01 1.2605547222963448e+01 1.0393142752304831e+01 0 0 0
1148 1 1.8616735101423567e-06 1.1650540002985286e+01 1.2605547222963532e+01 1.2463454587432929e+01 0 0 0
1149 1 -5.7200590891502982e-07 1.3822511028329490e+01 1.1344992500666878e+01 1.2458479236125552e+01 0 0 0
1150 1 -7.6095729869118407e-07 1.3822511028328975e+01 1.3866101945259123e+01 1.2458479236125800e+01 0 0 0
1193 1 -5.5737118456861545e-06 9.4616742131665212e+00 1.3866101945259402e+01 1.0908352275720093e+01 0 0 0
1195 1 2.1456896050578654e-06 8.7318150126786787e+00 1.5126656667556171e+01 1.0393142752305014e+01 0 0 0
1196 1 2.3466007352437548e-06 7.2838503535082673e+00 1.5126656667556347e+01 1.2463454587434407e+01 0 0 0
1197 1 -5.4254554169599683e-07 9.4558213788530701e+00 1.3866101945259915e+01 1.2458479236125628e+01 0 0 0
1199 1 1.4899485389131502e-06 1.1644472847613585e+01 1.5126656667556265e+01 1.0911067743112365e+01 0 0 0
1201 1 -2.9974795556057803e-06 1.2372064707215557e+01 1.3866101945259572e+01 1.2992861420451820e+01 0 0 0
1203 1 2.0472468234159133e-06 1.1650540002985862e+01 1.5126656667556770e+01 1.2463454587433249e+01 0 0 0
1204 1 -3.5836567129376890e-06 1.0207846434213435e+01 1.5126656667556226e+01 1.4452191952413202e+01 0 0 0
1205 1 5.2498207753581338e-06 1.2381040451030437e+01 1.3866101945259901e+01 1.4581305246217886e+01 0 0 0
1484 1 2.1893999689045071e-06 8.7318150126789327e+00 7.5633283337781627e+00 1.0393142752305021e+01 0 0 0
1486 1 1.9990452946639519e-06 1.0917560800332407e+01 8.8238830560736634e+00 1.0400959122049757e+01 0 0 0
1490 1 -4.7728586449659140e-06 1.3828363862641078e+01 8.8238830560751644e+00 1.0908352275721187e+01 0 0 0
1491 1 2.6123448213865780e-06 1.3098504662155452e+01 7.5633283337781076e+00 1.0393142752304774e+01 0 0 0
1492 1 1.8976726412114747e-06 1.1650540002984785e+01 7.5633283337778208e+00 1.2463454587433516e+01 0 0 0
1494 1 -4.4550907411985034e-07 1.3822511028329810e+01 8.8238830560747132e+00 1.2458479236124747e+01 0 0 0
1537 1 1.3243036745821085e-06 7.2777831981373158e+00 1.0084437778370752e+01 1.0911067743112563e+01 0 0 0
1538 1 -5.4834528837463813e-06 9.4616742131654750e+00 8.8238830560745516e+00 1.0908352275720029e+01 0 0 0
1539 1 -5.5624888711162261e-06 9.4616742131660345e+00 1.1344992500666757e+01 1.0908352275719727e+01 0 0 0
1540 1 2.2210086939743870e-06 8.7318150126789309e+00 1.0084437778370900e+01 1.0393142752304934e+01 0 0 0
1541 1 2.0167000372092431e-06 7.2838503535086314e+00 1.0084437778370742e+01 1.2463454587433116e+01 0 0 0
1542 1 -7.5276135700510287e-07 9.4558213788530967e+00 8.8238830560746848e+00 1.2458479236126525e+01 0 0 0
1543 1 -7.4719470293323503e-07 9.4558213788530612e+00 1.1344992500667432e+01 1.2458479236126241e+01 0 0 0
1544 1 1.8546043705047238e-06 1.1644472847613777e+01 1.0084437778370761e+01 1.0911067743112485e+01 0 0 0
1545 1 1.2240308059312304e-06 1.0192150367081974e+01 1.0084437778370761e+01 1.2965715767293380e+01 0 0 0
1546 1 -3.1572673933821576e-06 1.2372064707215765e+01 8.8238830560745889e+00 1.2992861420451913e+01 0 0 0
1547 1 -3.1533813165765344e-06 1.2372064707215829e+01 1.1344992500667114e+01 1.2992861420451906e+01 0 0 0
1548 1 1.7948186098157963e-06 1.1650540002984849e+01 1.0084437778370589e+01 1.2463454587432958e+01 0 0 0
1549 1 -4.1517751854633117e-06 1.0207846434213536e+01 1.0084437778370805e+01 1.4452191952413223e+01 0 0 0
1550 1 4.9784923401549245e-06 1.2381040451030383e+01 8.8238830560744592e+00 1.4581305246217820e+01 0 0 0
1551 1 5.0368330537172660e-06 1.2381040451030337e+01 1.1344992500667184e+01 1.4581305246217893e+01 0 0 0
1553 1 1.4710559072183941e-06 1.3119532695181473e+01 1.0084437778370821e+01 1.5048309444356534e+01 0 0 0
1582 1 1.5007381346278661e-06 7.2777831981371994e+00 1.2605547222963462e+01 1.0911067743112472e+01 0 0 0
1584 1 -2.6348331931994608e-06 8.0053750577395242e+00 1.1344992500667082e+01 1.2992861420451955e+01 0 0 0
1585 1 -2.5318391246591078e-06 8.0053750577395952e+00 1.3866101945259770e+01 1.2992861420451630e+01 0 0 0
1586 1 2.1643794884596396e-06 7.2838503535084023e+00 1.2605547222963583e+01 1.2463454587433894e+01 0 0 0
1588 1 5.7817956982664703e-06 8.0143508015539826e+00 1.1344992500667193e+01 1.4581305246217664e+01 0 0 0
1589 1 5.7555080388666214e-06 8.0143508015540252e+00 1.3866101945259819e+01 1.4581305246217633e+01 0 0 0
1590 1 1.4307845059701440e-06 1.0192150367081878e+01 1.2605547222963477e+01 1.2965715767293624e+01 0 0 0
1591 1 1.7305836829517403e-06 8.7528430457050685e+00 1.2605547222963493e+01 1.5048309444356686e+01 0 0 0
1592 1 -3.2900937123937675e-06 1.0882616457692484e+01 1.1344992500667178e+01 1.5034145959340526e+01 0 0 0
1593 1 -2.9859744218394843e-06 1.0882616457692452e+01 1.3866101945259901e+01 1.5034145959340515e+01 0 0 0
1594 1 -3.9063272802825558e-06 1.0207846434213506e+01 1.2605547222963533e+01 1.4452191952413182e+01 0 0 0
1598 1 1.4364454839168918e-06 1.3119532695181476e+01 1.2605547222963505e+01 1.5048309444356542e+01 0 0 0
681 1 2.8004087789729717e-06 1.7465194311631645e+01 1.2605547222963443e+01 1.0393142752304497e+01 0 0 0
682 1 2.4179819685025703e-06 1.9650940099283918e+01 1.1344992500666692e+01 1.0400959122049862e+01 0 0 0
683 1 2.4736685310087846e-06 1.9650940099284849e+01 1.3866101945259818e+01 1.0400959122049549e+01 0 0 0
685 1 2.0382581843472119e-06 2.0377852146566280e+01 1.2605547222963573e+01 1.0911067743112707e+01 0 0 0
687 1 2.2126860543928836e-06 2.0383919301937247e+01 1.2605547222963624e+01 1.2463454587433937e+01 0 0 0
732 1 2.1488580110746483e-06 1.5284250449808745e+01 1.3866101945258988e+01 1.0400959122050430e+01 0 0 0
736 1 -4.9368139951569712e-06 1.8195053512118406e+01 1.3866101945260395e+01 1.0908352275720761e+01 0 0 0
738 1 2.5711717923161972e-06 1.7465194311631731e+01 1.5126656667556091e+01 1.0393142752304584e+01 0 0 0
739 1 1.9097305012847540e-06 1.6017229652461374e+01 1.5126656667556814e+01 1.2463454587433711e+01 0 0 0
740 1 -6.3416282299455721e-07 1.8189200677805424e+01 1.3866101945259384e+01 1.2458479236125232e+01 0 0 0
744 1 -2.7625522954386253e-06 2.1105444006168579e+01 1.3866101945259953e+01 1.2992861420451849e+01 0 0 0
746 1 2.3479474393845646e-06 2.0383919301936846e+01 1.5126656667556167e+01 1.2463454587433755e+01 0 0 0
747 1 -3.8554489472936724e-06 1.8941225733166274e+01 1.5126656667556187e+01 1.4452191952413186e+01 0 0 0
748 1 5.3799996296160653e-06 2.1114419749982829e+01 1.3866101945259810e+01 1.4581305246217701e+01 0 0 0
1043 1 2.3101075140541602e-06 1.9650940099283179e+01 8.8238830560741270e+00 1.0400959122049665e+01 0 0 0
1092 1 2.5217397145341544e-06 1.5284250449809042e+01 8.8238830560735497e+00 1.0400959122049041e+01 0 0 0
1093 1 2.4536821687628519e-06 1.5284250449809011e+01 1.1344992500666001e+01 1.0400959122050253e+01 0 0 0
1095 1 2.3492736145334867e-06 1.6011162497089639e+01 1.0084437778370878e+01 1.0911067743112344e+01 0 0 0
1096 1 -4.9156081496886808e-06 1.8195053512119593e+01 8.8238830560748216e+00 1.0908352275721500e+01 0 0 0
1097 1 -4.8259995633802621e-06 1.8195053512119109e+01 1.1344992500668008e+01 1.0908352275720951e+01 0 0 0
1098 1 2.7371691031515080e-06 1.7465194311631556e+01 1.0084437778370821e+01 1.0393142752304515e+01 0 0 0
1099 1 1.9266887783294326e-06 1.6017229652461680e+01 1.0084437778370948e+01 1.2463454587434690e+01 0 0 0
1100 1 -5.8074480949563246e-07 1.8189200677805033e+01 8.8238830560745747e+00 1.2458479236124107e+01 0 0 0
1101 1 -6.1967603231459466e-07 1.8189200677804997e+01 1.1344992500666610e+01 1.2458479236124749e+01 0 0 0
1102 1 1.8889415646814200e-06 2.0377852146566170e+01 1.0084437778370816e+01 1.0911067743112651e+01 0 0 0
1103 1 1.5587766407779667e-06 1.8925529666034866e+01 1.0084437778370935e+01 1.2965715767294311e+01 0 0 0
1104 1 -2.9717015541810954e-06 2.1105444006168309e+01 8.8238830560744965e+00 1.2992861420451637e+01 0 0 0
1105 1 -2.8983170126166486e-06 2.1105444006168430e+01 1.1344992500667026e+01 1.2992861420451669e+01 0 0 0
1106 1 2.1520490883554227e-06 2.0383919301937620e+01 1.0084437778370916e+01 1.2463454587434057e+01 0 0 0
1107 1 -3.8084221945347777e-06 1.8941225733166192e+01 1.0084437778370779e+01 1.4452191952413068e+01 0 0 0
1108 1 5.3304218878760245e-06 2.1114419749982908e+01 8.8238830560744628e+00 1.4581305246217740e+01 0 0 0
1109 1 5.3491211623276430e-06 2.1114419749982872e+01 1.1344992500667178e+01 1.4581305246217717e+01 0 0 0
1151 1 2.1930890801850462e-06 1.6011162497089739e+01 1.2605547222963608e+01 1.0911067743112419e+01 0 0 0
1152 1 1.3763667225272063e-06 1.4558840016558046e+01 1.2605547222963880e+01 1.2965715767294105e+01 0 0 0
1153 1 -3.3683692233045093e-06 1.6738754356691782e+01 1.1344992500666937e+01 1.2992861420451201e+01 0 0 0
1154 1 -3.1880703883405506e-06 1.6738754356691921e+01 1.3866101945259498e+01 1.2992861420451488e+01 0 0 0
1155 1 1.9123081766974862e-06 1.6017229652461694e+01 1.2605547222964088e+01 1.2463454587433997e+01 0 0 0
1156 1 -4.0112435620599912e-06 1.4574536083689816e+01 1.2605547222963478e+01 1.4452191952413145e+01 0 0 0
1157 1 4.6958493154659785e-06 1.6747730100506555e+01 1.1344992500667200e+01 1.4581305246217763e+01 0 0 0
1158 1 4.9837319555117953e-06 1.6747730100506519e+01 1.3866101945259917e+01 1.4581305246217761e+01 0 0 0
1159 1 1.5299780782081876e-06 1.8925529666034766e+01 1.2605547222963695e+01 1.2965715767293993e+01 0 0 0
1160 1 1.1941621760310666e-06 1.7486222344657641e+01 1.2605547222963507e+01 1.5048309444356587e+01 0 0 0
1161 1 -2.7157047025310833e-06 1.9615995756645216e+01 1.1344992500667111e+01 1.5034145959340528e+01 0 0 0
1162 1 -2.8339021397321523e-06 1.9615995756645251e+01 1.3866101945259842e+01 1.5034145959340567e+01 0 0 0
1163 1 -3.8645199596418707e-06 1.8941225733166224e+01 1.2605547222963477e+01 1.4452191952413152e+01 0 0 0
1207 1 1.3719747705210448e-06 1.4558840016558223e+01 1.5126656667556817e+01 1.2965715767294048e+01 0 0 0
1209 1 -3.0681458886839282e-06 1.5249306107168881e+01 1.3866101945259841e+01 1.5034145959340462e+01 0 0 0
1211 1 -3.8862648238391898e-06 1.4574536083689788e+01 1.5126656667556162e+01 1.4452191952413152e+01 0 0 0
1215 1 1.3504395957407447e-06 1.7486222344657627e+01 1.5126656667556222e+01 1.5048309444356542e+01 0 0 0
1495 1 2.3059847892605704e-06 1.6011162497089661e+01 7.5633283337781112e+00 1.0911067743112428e+01 0 0 0
1498 1 -3.3415711464484350e-06 1.6738754356691810e+01 8.8238830560746742e+00 1.2992861420450886e+01 0 0 0
1499 1 2.0651837565206636e-06 1.6017229652461623e+01 7.5633283337774211e+00 1.2463454587435496e+01 0 0 0
1500 1 -3.9439703791537543e-06 1.4574536083689846e+01 7.5633283337781574e+00 1.4452191952413104e+01 0 0 0
1502 1 4.6998853959708380e-06 1.6747730100506569e+01 8.8238830560744432e+00 1.4581305246217775e+01 0 0 0
1503 1 1.6493144908028103e-06 1.8925529666034794e+01 7.5633283337777231e+00 1.2965715767294569e+01 0 0 0
1506 1 -2.6316567466774304e-06 1.9615995756645216e+01 8.8238830560744308e+00 1.5034145959340512e+01 0 0 0
1507 1 -3.6891780639265438e-06 1.8941225733166181e+01 7.5633283337781725e+00 1.4452191952413035e+01 0 0 0
1552 1 1.4133655330149477e-06 1.4558840016557921e+01 1.0084437778370766e+01 1.2965715767294295e+01 0 0 0
1554 1 -3.0660426673667905e-06 1.5249306107168819e+01 8.8238830560744503e+00 1.5034145959340599e+01 0 0 0
1555 1 -3.1143584607470427e-06 1.5249306107168852e+01 1.1344992500667137e+01 1.5034145959340513e+01 0 0 0
1556 1 -4.0442279051504636e-06 1.4574536083689846e+01 1.0084437778370807e+01 1.4452191952413132e+01 0 0 0
1560 1 1.1284325221186108e-06 1.7486222344657666e+01 1.0084437778370807e+01 1.5048309444356621e+01 0 0 0
829 1 2.7331928432932465e-06 4.3651253632024742e+00 2.0168875556741600e+01 1.0393142752305360e+01 0 0 0
830 1 2.2563210270468952e-06 6.5508711508552970e+00 1.8908320834445114e+01 1.0400959122047034e+01 0 0 0
831 1 2.3228400577855400e-06 6.5508711508560866e+00 2.1429430279037263e+01 1.0400959122047022e+01 0 0 0
867 1 2.2520542339145541e-06 2.1841815013794079e+00 2.1429430279036286e+01 1.0400959122047423e+01 0 0 0
870 1 -4.6363736883632819e-06 5.0949845636888460e+00 2.1429430279038961e+01 1.0908352275722638e+01 0 0 0
873 1 1.0345743917038198e-09 5.0891317293778116e+00 2.1429430279037554e+01 1.2458479236124562e+01 0 0 0
1190 1 2.0143820906474726e-06 6.5508711508549400e+00 1.6387211389852911e+01 1.0400959122047576e+01 0 0 0
1226 1 2.3668358725784117e-06 2.1831883961107671e+01 1.7647766112148869e+01 1.0393142752304946e+01 -1 0 0
1227 1 1.8593884740477905e-06 2.1841815013790469e+00 1.6387211389852435e+01 1.0400959122047498e+01 0 0 0
1228 1 2.0580916086248963e-06 2.1841815013791992e+00 1.8908320834444101e+01 1.0400959122047441e+01 0 0 0
1230 1 2.0942125643727305e-06 2.9110935486608307e+00 1.7647766112148989e+01 1.0911067743112399e+01 0 0 0
1231 1 -5.1593832255854943e-06 5.0949845636900557e+00 1.6387211389852446e+01 1.0908352275723034e+01 0 0 0
1232 1 -4.7470808216052809e-06 5.0949845636896063e+00 1.8908320834445711e+01 1.0908352275723155e+01 0 0 0
1233 1 2.5081197949075041e-06 4.3651253632025995e+00 1.7647766112148890e+01 1.0393142752305270e+01 0 0 0
1234 1 2.4967808415943954e-06 2.9171607040331788e+00 1.7647766112149228e+01 1.2463454587434649e+01 0 0 0
1235 1 -2.1263805029520983e-07 5.0891317293767786e+00 1.6387211389852347e+01 1.2458479236123411e+01 0 0 0
1236 1 1.8668530115969616e-08 5.0891317293771667e+00 1.8908320834444918e+01 1.2458479236123695e+01 0 0 0
1238 1 1.9494158696564105e-06 5.8254607176060125e+00 1.7647766112148876e+01 1.2965715767294263e+01 0 0 0
1242 1 -3.7505247703211239e-06 5.8411567847372527e+00 1.7647766112148922e+01 1.4452191952413219e+01 0 0 0
1260 1 -5.1014831122709437e-06 7.2829491421283798e-01 1.8908320834446410e+01 1.0908352275721819e+01 0 0 0
1261 1 -4.9676675930999604e-06 7.2829491421289816e-01 2.1429430279039412e+01 1.0908352275721780e+01 0 0 0
1262 1 2.5340224943180955e-06 2.1831883961107724e+01 2.0168875556741582e+01 1.0393142752305112e+01 -1 0 0
1263 1 -1.4222095971710706e-07 7.2244207990040654e-01 1.8908320834444048e+01 1.2458479236124786e+01 0 0 0
1264 1 -3.2578442253837768e-07 7.2244207990081311e-01 2.1429430279036534e+01 1.2458479236125092e+01 0 0 0
1265 1 2.2821073104325265e-06 2.9110935486608964e+00 2.0168875556741703e+01 1.0911067743112371e+01 0 0 0
1266 1 1.6935181353681072e-06 1.4587710681296220e+00 2.0168875556742293e+01 1.2965715767293648e+01 0 0 0
1267 1 -2.6149529743614313e-06 3.6386854082622651e+00 1.8908320834444893e+01 1.2992861420451963e+01 0 0 0
1268 1 -2.7878367080960306e-06 3.6386854082627957e+00 2.1429430279037504e+01 1.2992861420452506e+01 0 0 0
1269 1 2.4311746502235543e-06 2.9171607040324785e+00 2.0168875556742258e+01 1.2463454587434009e+01 0 0 0
1270 1 -4.2004964266430448e-06 1.4744671352608545e+00 2.0168875556741561e+01 1.4452191952413248e+01 0 0 0
1271 1 4.9637545066753408e-06 3.6476611520777502e+00 1.8908320834445210e+01 1.4581305246217571e+01 0 0 0
1272 1 4.7681479530298883e-06 3.6476611520776379e+00 2.1429430279038041e+01 1.4581305246217536e+01 0 0 0
1273 1 1.9619835682415142e-06 5.8254607176058606e+00 2.0168875556741639e+01 1.2965715767293871e+01 0 0 0
1274 1 1.1362367807243619e-06 4.3861533962286456e+00 2.0168875556741590e+01 1.5048309444356532e+01 0 0 0
1275 1 -3.0196134306188813e-06 6.5159268082163200e+00 1.8908320834445220e+01 1.5034145959340574e+01 0 0 0
1276 1 -3.2255882442871152e-06 6.5159268082162853e+00 2.1429430279037938e+01 1.5034145959340560e+01 0 0 0
1277 1 -3.9586882420018095e-06 5.8411567847372625e+00 2.0168875556741611e+01 1.4452191952413258e+01 0 0 0
1289 1 -3.5601104720846524e-06 2.1492371587399441e+00 2.1429430279037980e+01 1.5034145959340613e+01 0 0 0
1606 1 -5.3485549024608063e-06 7.2829491421272974e-01 1.6387211389852624e+01 1.0908352275721859e+01 0 0 0
1607 1 2.1386970879160709e-06 2.1831883961107742e+01 1.5126656667556157e+01 1.0393142752304822e+01 -1 0 0
1609 1 -2.7836463995995610e-07 7.2244207990027987e-01 1.6387211389852325e+01 1.2458479236124598e+01 0 0 0
1610 1 1.7762691229379954e-06 2.9110935486608631e+00 1.5126656667556226e+01 1.0911067743112474e+01 0 0 0
1613 1 -2.5615361409933928e-06 3.6386854082620315e+00 1.6387211389852435e+01 1.2992861420451526e+01 0 0 0
1614 1 2.3676284653710833e-06 2.9171607040333778e+00 1.5126656667556404e+01 1.2463454587434967e+01 0 0 0
1617 1 5.2761790299446870e-06 3.6476611520777964e+00 1.6387211389852439e+01 1.4581305246217605e+01 0 0 0
1618 1 1.8533287503734393e-06 5.8254607176059778e+00 1.5126656667556206e+01 1.2965715767294492e+01 0 0 0
1621 1 -2.7815671436860663e-06 6.5159268082163324e+00 1.6387211389852563e+01 1.5034145959340531e+01 0 0 0
1622 1 -3.5637923214884907e-06 5.8411567847372599e+00 1.5126656667556240e+01 1.4452191952413122e+01 0 0 0
1632 1 1.8654726103640420e-06 1.4587710681298229e+00 1.7647766112149132e+01 1.2965715767293938e+01 0 0 0
1633 1 1.4931987884152962e-06 1.9463746752366930e-02 1.7647766112148936e+01 1.5048309444356464e+01 0 0 0
1634 1 -3.0417647078653143e-06 2.1492371587398602e+00 1.6387211389852556e+01 1.5034145959340570e+01 0 0 0
1635 1 -3.3644513207665544e-06 2.1492371587398922e+00 1.8908320834445259e+01 1.5034145959340607e+01 0 0 0
1636 1 -3.9034165691940773e-06 1.4744671352608372e+00 1.7647766112148883e+01 1.4452191952413170e+01 0 0 0
1640 1 1.3297161300155325e-06 4.3861533962286972e+00 1.7647766112148858e+01 1.5048309444356580e+01 0 0 0
1646 1 1.3463440992989691e-06 1.9463746752280686e-02 2.0168875556741675e+01 1.5048309444356443e+01 0 0 0
450 1 1.9265746611472755e-06 1.3098504662155191e+01 2.0168875556741689e+01 1.0393142752305213e+01 0 0 0
494 1 1.8667264891115118e-06 1.0917560800331612e+01 2.1429430279039099e+01 1.0400959122047031e+01 0 0 0
497 1 -5.8409337103797807e-06 1.3828363862642560e+01 2.1429430279036914e+01 1.0908352275723642e+01 0 0 0
500 1 -7.6800179088838904e-07 1.3822511028328467e+01 2.1429430279038097e+01 1.2458479236122486e+01 0 0 0
781 1 2.2018162244638702e-06 8.7318150126785543e+00 1.7647766112148847e+01 1.0393142752305250e+01 0 0 0
782 1 1.7638877888387667e-06 1.0917560800330502e+01 1.6387211389852801e+01 1.0400959122049795e+01 0 0 0
783 1 1.8631662389979678e-06 1.0917560800330785e+01 1.8908320834446030e+01 1.0400959122048315e+01 0 0 0
785 1 1.5350973102859155e-06 1.1644472847613535e+01 1.7647766112148986e+01 1.0911067743112431e+01 0 0 0
786 1 -5.8519407622415036e-06 1.3828363862642272e+01 1.6387211389852776e+01 1.0908352275720411e+01 0 0 0
787 1 -5.9194424607665579e-06 1.3828363862642249e+01 1.8908320834444673e+01 1.0908352275721889e+01 0 0 0
788 1 1.8688346251855090e-06 1.3098504662155307e+01 1.7647766112148901e+01 1.0393142752305129e+01 0 0 0
789 1 2.1452743771111838e-06 1.1650540002986066e+01 1.7647766112149593e+01 1.2463454587433844e+01 0 0 0
790 1 -9.0538106169213472e-07 1.3822511028328792e+01 1.6387211389851629e+01 1.2458479236125370e+01 0 0 0
791 1 -9.2386197662987179e-07 1.3822511028328810e+01 1.8908320834444716e+01 1.2458479236124068e+01 0 0 0
833 1 2.2042376526189827e-06 7.2777831981370378e+00 2.0168875556741686e+01 1.0911067743112268e+01 0 0 0
834 1 -5.3833161487912655e-06 9.4616742131668197e+00 1.8908320834445060e+01 1.0908352275721779e+01 0 0 0
835 1 -5.3748970022466703e-06 9.4616742131661606e+00 2.1429430279037565e+01 1.0908352275722418e+01 0 0 0
836 1 2.2536869392620744e-06 8.7318150126784992e+00 2.0168875556741558e+01 1.0393142752305430e+01 0 0 0
837 1 2.4486191546013599e-06 7.2838503535084795e+00 2.0168875556741604e+01 1.2463454587434246e+01 0 0 0
838 1 -4.0954982125179600e-07 9.4558213788528303e+00 1.8908320834444861e+01 1.2458479236124512e+01 0 0 0
839 1 -3.9424540753883259e-07 9.4558213788529741e+00 2.1429430279038154e+01 1.2458479236124246e+01 0 0 0
840 1 1.5616089048915381e-06 1.1644472847613494e+01 2.0168875556741629e+01 1.0911067743112412e+01 0 0 0
841 1 1.8402324712258399e-06 1.0192150367082728e+01 2.0168875556741519e+01 1.2965715767294109e+01 0 0 0
842 1 -2.8081575006493825e-06 1.2372064707214667e+01 1.8908320834444957e+01 1.2992861420451437e+01 0 0 0
843 1 -2.6998626071458792e-06 1.2372064707214346e+01 2.1429430279038133e+01 1.2992861420451050e+01 0 0 0
844 1 2.1740191678223716e-06 1.1650540002986059e+01 2.0168875556741689e+01 1.2463454587434622e+01 0 0 0
845 1 -3.5786501690696313e-06 1.0207846434213392e+01 2.0168875556741579e+01 1.4452191952413168e+01 0 0 0
846 1 5.5209445914864870e-06 1.2381040451030715e+01 1.8908320834445295e+01 1.4581305246217699e+01 0 0 0
847 1 5.5132106477429260e-06 1.2381040451030810e+01 2.1429430279037931e+01 1.4581305246217655e+01 0 0 0
849 1 1.3635019906890534e-06 1.3119532695181393e+01 2.0168875556741593e+01 1.5048309444356660e+01 0 0 0
876 1 -2.8010503506580398e-06 8.0053750577391778e+00 2.1429430279038101e+01 1.2992861420451995e+01 0 0 0
879 1 4.8770570330397036e-06 8.0143508015542420e+00 2.1429430279037895e+01 1.4581305246217442e+01 0 0 0
882 1 -2.7285647875883650e-06 1.0882616457692555e+01 2.1429430279037934e+01 1.5034145959340510e+01 0 0 0
1192 1 1.7539429330878829e-06 7.2777831981370689e+00 1.5126656667556222e+01 1.0911067743112339e+01 0 0 0
1194 1 -5.4650821366830423e-06 9.4616742131668978e+00 1.6387211389852489e+01 1.0908352275720885e+01 0 0 0
1198 1 -3.8944222721000006e-07 9.4558213788529208e+00 1.6387211389852066e+01 1.2458479236125042e+01 0 0 0
1200 1 1.7567651638662644e-06 1.0192150367082027e+01 1.5126656667556411e+01 1.2965715767293812e+01 0 0 0
1202 1 -2.8462661909447942e-06 1.2372064707215118e+01 1.6387211389852055e+01 1.2992861420451717e+01 0 0 0
1206 1 5.4661091774016281e-06 1.2381040451030605e+01 1.6387211389852634e+01 1.4581305246217797e+01 0 0 0
1208 1 1.4341667808224344e-06 1.3119532695181467e+01 1.5126656667556190e+01 1.5048309444356594e+01 0 0 0
1237 1 2.0095673559939881e-06 7.2777831981370174e+00 1.7647766112148993e+01 1.0911067743112286e+01 0 0 0
1239 1 -2.5780824092553779e-06 8.0053750577394336e+00 1.6387211389852347e+01 1.2992861420451572e+01 0 0 0
1240 1 -2.7426762334110567e-06 8.0053750577391227e+00 1.8908320834445131e+01 1.2992861420451714e+01 0 0 0
1241 1 2.4190880170514529e-06 7.2838503535084298e+00 1.7647766112149075e+01 1.2463454587434498e+01 0 0 0
1243 1 5.5014119077202927e-06 8.0143508015541389e+00 1.6387211389852474e+01 1.4581305246217552e+01 0 0 0
1244 1 5.1153851255782536e-06 8.0143508015542348e+00 1.8908320834445153e+01 1.4581305246217500e+01 0 0 0
1245 1 1.8669196057527681e-06 1.0192150367082432e+01 1.7647766112149174e+01 1.2965715767293947e+01 0 0 0
1246 1 1.4596863669419145e-06 8.7528430457051183e+00 1.7647766112148890e+01 1.5048309444356780e+01 0 0 0
1247 1 -2.6853056106455773e-06 1.0882616457692464e+01 1.6387211389852588e+01 1.5034145959340512e+01 0 0 0
1248 1 -2.6174801907185451e-06 1.0882616457692503e+01 1.8908320834445252e+01 1.5034145959340513e+01 0 0 0
1249 1 -3.4788379395096641e-06 1.0207846434213389e+01 1.7647766112148886e+01 1.4452191952413196e+01 0 0 0
1253 1 1.4222608669999438e-06 1.3119532695181432e+01 1.7647766112148886e+01 1.5048309444356637e+01 0 0 0
1281 1 1.1615023720057924e-06 8.7528430457051378e+00 2.0168875556741597e+01 1.5048309444356764e+01 0 0 0
1626 1 1.6889767709327811e-06 8.7528430457050845e+00 1.5126656667556192e+01 1.5048309444356747e+01 0 0 0
228 1 2.1169616761321851e-06 1.9650940099283943e+01 2.1429430279037124e+01 1.0400959122047373e+01 0 0 0
400 1 2.2710445724678140e-06 1.7465194311631702e+01 1.7647766112148819e+01 1.0393142752304723e+01 0 0 0
401 1 2.3042125751628733e-06 1.9650940099285343e+01 1.6387211389852663e+01 1.0400959122049183e+01 0 0 0
402 1 2.1059774735417146e-06 1.9650940099284917e+01 1.8908320834444662e+01 1.0400959122048492e+01 0 0 0
404 1 2.0929838538172080e-06 2.0377852146566266e+01 1.7647766112148993e+01 1.0911067743112547e+01 0 0 0
406 1 2.4949531754140021e-06 2.0383919301936636e+01 1.7647766112149537e+01 1.2463454587433732e+01 0 0 0
451 1 1.8821844962290367e-06 1.5284250449808455e+01 1.8908320834446158e+01 1.0400959122047578e+01 0 0 0
452 1 1.9042376809697655e-06 1.5284250449807638e+01 2.1429430279038968e+01 1.0400959122045789e+01 0 0 0
454 1 1.5880390680624070e-06 1.6011162497089877e+01 2.0168875556741590e+01 1.0911067743112497e+01 0 0 0
455 1 -5.5844882931723816e-06 1.8195053512118250e+01 1.8908320834445558e+01 1.0908352275721695e+01 0 0 0
456 1 -5.6613340441705109e-06 1.8195053512119141e+01 2.1429430279038339e+01 1.0908352275722736e+01 0 0 0
457 1 2.1347857695810428e-06 1.7465194311631613e+01 2.0168875556741597e+01 1.0393142752304916e+01 0 0 0
458 1 2.2373104469919477e-06 1.6017229652461300e+01 2.0168875556742289e+01 1.2463454587435384e+01 0 0 0
459 1 -5.8478057177595982e-07 1.8189200677806134e+01 1.8908320834444137e+01 1.2458479236124349e+01 0 0 0
460 1 -5.1948028693334711e-07 1.8189200677805687e+01 2.1429430279036847e+01 1.2458479236123321e+01 0 0 0
461 1 2.0637148923405336e-06 2.0377852146566262e+01 2.0168875556741643e+01 1.0911067743112563e+01 0 0 0
462 1 1.7819459073385415e-06 1.8925529666034297e+01 2.0168875556742393e+01 1.2965715767294268e+01 0 0 0
463 1 -2.3651343905607143e-06 2.1105444006168867e+01 1.8908320834444648e+01 1.2992861420452064e+01 0 0 0
464 1 -2.5159242541208267e-06 2.1105444006168728e+01 2.1429430279037160e+01 1.2992861420452073e+01 0 0 0
465 1 2.5075557063879500e-06 2.0383919301936686e+01 2.0168875556743046e+01 1.2463454587433953e+01 0 0 0
466 1 -3.7157567540583878e-06 1.8941225733166341e+01 2.0168875556741458e+01 1.4452191952413083e+01 0 0 0
467 1 5.4538272693005941e-06 2.1114419749982677e+01 1.8908320834445430e+01 1.4581305246217649e+01 0 0 0
468 1 5.3062998117378679e-06 2.1114419749982684e+01 2.1429430279038161e+01 1.4581305246217562e+01 0 0 0
503 1 -2.3859387260440986e-06 1.6738754356691786e+01 2.1429430279037472e+01 1.2992861420450723e+01 0 0 0
506 1 5.8881553744215369e-06 1.6747730100506566e+01 2.1429430279038080e+01 1.4581305246217726e+01 0 0 0
509 1 -3.1057858525770538e-06 1.9615995756645418e+01 2.1429430279037913e+01 1.5034145959340565e+01 0 0 0
733 1 1.8914728419971995e-06 1.5284250449808676e+01 1.6387211389852613e+01 1.0400959122049459e+01 0 0 0
735 1 1.8354281419267861e-06 1.6011162497089867e+01 1.5126656667556299e+01 1.0911067743112559e+01 0 0 0
737 1 -5.3004615595347610e-06 1.8195053512117934e+01 1.6387211389852670e+01 1.0908352275720937e+01 0 0 0
741 1 -6.5842041208509521e-07 1.8189200677806035e+01 1.6387211389852069e+01 1.2458479236125159e+01 0 0 0
742 1 2.1339428595363948e-06 2.0377852146566330e+01 1.5126656667556293e+01 1.0911067743112664e+01 0 0 0
743 1 1.5618063539155874e-06 1.8925529666034418e+01 1.5126656667556302e+01 1.2965715767293831e+01 0 0 0
745 1 -2.5014738044166546e-06 2.1105444006168781e+01 1.6387211389852570e+01 1.2992861420452021e+01 0 0 0
749 1 5.4634746355629685e-06 2.1114419749982751e+01 1.6387211389852531e+01 1.4581305246217701e+01 0 0 0
792 1 1.6048717171987301e-06 1.6011162497089909e+01 1.7647766112148965e+01 1.0911067743112548e+01 0 0 0
793 1 1.4511763214264427e-06 1.4558840016558348e+01 1.7647766112149476e+01 1.2965715767294299e+01 0 0 0
794 1 -2.9237838128654771e-06 1.6738754356692208e+01 1.6387211389852130e+01 1.2992861420451542e+01 0 0 0
795 1 -2.5825846055613618e-06 1.6738754356692240e+01 1.8908320834444666e+01 1.2992861420451217e+01 0 0 0
796 1 2.0248586220358866e-06 1.6017229652461026e+01 1.7647766112149540e+01 1.2463454587434232e+01 0 0 0
797 1 -3.7210227465091284e-06 1.4574536083689775e+01 1.7647766112148844e+01 1.4452191952413111e+01 0 0 0
798 1 5.3772551220811786e-06 1.6747730100506462e+01 1.6387211389852670e+01 1.4581305246217797e+01 0 0 0
799 1 5.7449741614969295e-06 1.6747730100506470e+01 1.8908320834445444e+01 1.4581305246217795e+01 0 0 0
800 1 1.6733615963218695e-06 1.8925529666034109e+01 1.7647766112149309e+01 1.2965715767293965e+01 0 0 0
801 1 1.5194394712563562e-06 1.7486222344657623e+01 1.7647766112148940e+01 1.5048309444356496e+01 0 0 0
802 1 -2.9583466463862264e-06 1.9615995756645294e+01 1.6387211389852542e+01 1.5034145959340613e+01 0 0 0
803 1 -3.0557681253750534e-06 1.9615995756645351e+01 1.8908320834445206e+01 1.5034145959340600e+01 0 0 0
804 1 -3.7850284961299639e-06 1.8941225733166306e+01 1.7647766112148819e+01 1.4452191952413143e+01 0 0 0
848 1 1.6113472069210014e-06 1.4558840016558662e+01 2.0168875556741913e+01 1.2965715767294812e+01 0 0 0
850 1 -2.7950037533544997e-06 1.5249306107168890e+01 1.8908320834445238e+01 1.5034145959340504e+01 0 0 0
851 1 -2.7536019913798599e-06 1.5249306107168845e+01 2.1429430279037962e+01 1.5034145959340544e+01 0 0 0
852 1 -3.6062781873605039e-06 1.4574536083689752e+01 2.0168875556741554e+01 1.4452191952413031e+01 0 0 0
856 1 1.6496938310591176e-06 1.7486222344657648e+01 2.0168875556741618e+01 1.5048309444356487e+01 0 0 0
1210 1 -2.9360116891212399e-06 1.5249306107168893e+01 1.6387211389852542e+01 1.5034145959340474e+01 0 0 0
2 1 2.6546097702740389e-06 6.3902693173936531e-01 2.2689985001334122e+01 1.6562992925199101e+01 0 -1 0
8 1 2.5861284154362537e-06 6.3902693173946545e-01 5.0422188891852535e+00 1.6562992925198973e+01 0 0 0
19 1 2.5508144925116158e-06 5.0057165812154754e+00 2.5211094445925175e+00 1.6562992925199119e+01 0 0 0
49 1 -2.1421636022327142e-06 1.5272230832533684e+00 3.7816641668890862e+00 1.6528088220013526e+01 0 0 0
51 1 -2.1627790842768919e-06 1.5272230832532516e+00 1.2605547222964557e+00 1.6528088220013405e+01 0 0 0
52 1 2.7323615817606260e-06 6.3902693173947489e-01 2.5211094445924926e+00 1.6562992925199083e+01 0 0 0
69 1 -2.1925751949618809e-06 5.8939127327294374e+00 1.2605547222966167e+00 1.6528088220013345e+01 0 0 0
70 1 2.8289195371851353e-06 5.0057165812153404e+00 2.2689985001334282e+01 1.6562992925199222e+01 0 -1 0
205 1 1.9601327419256378e-06 5.0057165812155731e+00 7.5633283337778936e+00 1.6562992925198817e+01 0 0 0
214 1 -2.3427856181499417e-06 1.5272230832534535e+00 6.3027736114817792e+00 1.6528088220013640e+01 0 0 0
215 1 2.3509034004183003e-06 6.3902693173942737e-01 7.5633283337780535e+00 1.6562992925198866e+01 0 0 0
232 1 -2.8173323529168354e-06 5.8939127327296275e+00 6.3027736114819266e+00 1.6528088220013579e+01 0 0 0
233 1 -2.5294848095873169e-06 5.8939127327295218e+00 3.7816641668893385e+00 1.6528088220013480e+01 0 0 0
234 1 2.2124701922885387e-06 5.0057165812155846e+00 5.0422188891851309e+00 1.6562992925198959e+01 0 0 0
1 1 3.4750853013694600e-06 1.3739095880168007e+01 7.5633283337780801e+00 1.6562992925198987e+01 0 0 0
21 1 -2.5342425779890465e-06 1.0260602382206114e+01 6.3027736114819390e+00 1.6528088220013572e+01 0 0 0
63 1 2.3369752629979878e-06 9.3724062306917126e+00 1.4639367969726423e-13 1.6562992925199278e+01 0 0 0
226 1 2.2188198343653355e-06 9.3724062306917890e+00 5.0422188891853130e+00 1.6562992925199051e+01 0 0 0
486 1 2.3605630129394840e-06 1.3739095880167937e+01 2.5211094445929172e+00 1.6562992925199332e+01 0 0 0
493 1 -2.6496898962990056e-06 1.0260602382206123e+01 3.7816641668892417e+00 1.6528088220013466e+01 0 0 0
495 1 -2.5241793748815773e-06 1.0260602382206127e+01 1.2605547222964268e+00 1.6528088220013370e+01 0 0 0
496 1 2.1455890020967887e-06 9.3724062306917002e+00 2.5211094445927436e+00 1.6562992925199175e+01 0 0 0
878 1 1.9971020172532564e-06 1.3739095880167939e+01 1.5936410698762969e-13 1.6562992925199389e+01 0 0 0
1800 1 2.9701436634824482e-06 1.3739095880167968e+01 5.0422188891855271e+00 1.6562992925199179e+01 0 0 0
871 1 2.2040564552381170e-06 1.8105785529644738e+01 2.2689985001334193e+01 1.6562992925199300e+01 0 -1 0
877 1 -2.6492027261200825e-06 1.4627292031682462e+01 1.2605547222962910e+00 1.6528088220013409e+01 0 0 0
1509 1 -1.5715382358710883e-06 1.8993981681158484e+01 6.3027736114816628e+00 1.6528088220013561e+01 0 0 0
1631 1 3.0653071811246428e-06 1.8105785529644638e+01 5.0422188891855262e+00 1.6562992925199133e+01 0 0 0
1697 1 -1.5604481809725293e-06 1.4627292031682424e+01 6.3027736114817863e+00 1.6528088220013490e+01 0 0 0
1752 1 2.6104308179669325e-06 1.8105785529644695e+01 2.5211094445927964e+00 1.6562992925199278e+01 0 0 0
1753 1 -2.4877027330233997e-06 1.8993981681158527e+01 1.2605547222962399e+00 1.6528088220013476e+01 0 0 0
1754 1 -1.9706635789310436e-06 1.8993981681158473e+01 3.7816641668888842e+00 1.6528088220013501e+01 0 0 0
1755 1 -2.1394567370467677e-06 1.4627292031682446e+01 3.7816641668890272e+00 1.6528088220013395e+01 0 0 0
10 1 2.2820190792783098e-06 5.0057165812153848e+00 1.2605547222963688e+01 1.6562992925198973e+01 0 0 0
64 1 -2.2465098962029558e-06 1.5272230832536107e+00 1.3866101945259702e+01 1.6528088220013686e+01 0 0 0
197 1 2.3176944692502144e-06 6.3902693173941005e-01 1.0084437778370898e+01 1.6562992925198852e+01 0 0 0
199 1 -2.4158774509923243e-06 1.5272230832535902e+00 1.1344992500667139e+01 1.6528088220013746e+01 0 0 0
200 1 2.4944406776008516e-06 6.3902693173937597e-01 1.2605547222963743e+01 1.6562992925198891e+01 0 0 0
212 1 -2.4904914282020478e-06 1.5272230832535212e+00 8.8238830560744912e+00 1.6528088220013725e+01 0 0 0
888 1 -2.6992721741619580e-06 5.8939127327296346e+00 1.1344992500667100e+01 1.6528088220013583e+01 0 0 0
1217 1 -2.9077652712957668e-06 5.8939127327296639e+00 8.8238830560745214e+00 1.6528088220013625e+01 0 0 0
1218 1 1.9792046592508290e-06 5.0057165812154762e+00 1.0084437778370768e+01 1.6562992925198827e+01 0 0 0
1623 1 2.6683003655418879e-06 5.0057165812153235e+00 1.5126656667556460e+01 1.6562992925199108e+01 0 0 0
1624 1 -2.3061552246980333e-06 5.8939127327295591e+00 1.3866101945259617e+01 1.6528088220013466e+01 0 0 0
1698 1 2.6662062936120502e-06 6.3902693173928415e-01 1.5126656667556459e+01 1.6562992925198941e+01 0 0 0
12 1 -2.3659652615762534e-06 1.0260602382206082e+01 8.8238830560745569e+00 1.6528088220013629e+01 0 0 0
46 1 2.4537155418752043e-06 9.3724062306919151e+00 7.5633283337779122e+00 1.6562992925198955e+01 0 0 0
858 1 2.6013155398720705e-06 9.3724062306919844e+00 1.0084437778370596e+01 1.6562992925198934e+01 0 0 0
1212 1 2.6372049745920620e-06 1.3739095880168172e+01 1.5126656667556075e+01 1.6562992925198863e+01 0 0 0
1557 1 3.5346099731975930e-06 1.3739095880168078e+01 1.0084437778370669e+01 1.6562992925198824e+01 0 0 0
1595 1 2.6397508366317719e-06 9.3724062306919791e+00 1.2605547222963425e+01 1.6562992925198991e+01 0 0 0
1596 1 -2.3012934825730891e-06 1.0260602382206018e+01 1.1344992500667114e+01 1.6528088220013608e+01 0 0 0
1597 1 -2.2343020422358571e-06 1.0260602382205972e+01 1.3866101945259679e+01 1.6528088220013569e+01 0 0 0
1602 1 3.1469936508277767e-06 1.3739095880168154e+01 1.2605547222963352e+01 1.6562992925198763e+01 0 0 0
1164 1 3.1443040570581445e-06 1.8105785529644670e+01 1.2605547222963564e+01 1.6562992925198873e+01 0 0 0
1165 1 -1.5176178429760939e-06 1.8993981681158544e+01 1.1344992500667257e+01 1.6528088220013633e+01 0 0 0
1166 1 -1.8054416490590889e-06 1.8993981681158537e+01 1.3866101945259938e+01 1.6528088220013636e+01 0 0 0
1213 1 -1.9494214857583527e-06 1.4627292031682481e+01 1.3866101945259874e+01 1.6528088220013682e+01 0 0 0
1219 1 2.7877517113201895e-06 1.8105785529644709e+01 1.5126656667556276e+01 1.6562992925198866e+01 0 0 0
1508 1 3.2964762861458492e-06 1.8105785529644603e+01 7.5633283337781441e+00 1.6562992925199008e+01 0 0 0
1510 1 -1.4407363421252723e-06 1.8993981681158523e+01 8.8238830560745001e+00 1.6528088220013611e+01 0 0 0
1558 1 -1.2831060411477522e-06 1.4627292031682408e+01 8.8238830560745427e+00 1.6528088220013601e+01 0 0 0
1559 1 -1.4743082079466169e-06 1.4627292031682428e+01 1.1344992500667226e+01 1.6528088220013654e+01 0 0 0
1564 1 3.3037390825038033e-06 1.8105785529644621e+01 1.0084437778370814e+01 1.6562992925198920e+01 0 0 0
1278 1 2.9754199475450136e-06 5.0057165812152791e+00 2.0168875556741686e+01 1.6562992925199243e+01 0 0 0
1279 1 -1.8300122885223192e-06 5.8939127327294685e+00 1.8908320834445011e+01 1.6528088220013199e+01 0 0 0
1280 1 -1.9232797180616227e-06 5.8939127327294401e+00 2.1429430279037998e+01 1.6528088220013217e+01 0 0 0
1292 1 -2.2997974811690543e-06 1.5272230832531946e+00 2.1429430279038122e+01 1.6528088220013373e+01 0 0 0
1625 1 -1.9673860496150528e-06 5.8939127327294916e+00 1.6387211389852187e+01 1.6528088220013313e+01 0 0 0
1637 1 2.6668039984943851e-06 6.3902693173918712e-01 1.7647766112149029e+01 1.6562992925199005e+01 0 0 0
1638 1 -2.1894989716494745e-06 1.5272230832535034e+00 1.6387211389852368e+01 1.6528088220013593e+01 0 0 0
1639 1 -2.2805755810271111e-06 1.5272230832533047e+00 1.8908320834445270e+01 1.6528088220013476e+01 0 0 0
1644 1 2.9285436650155429e-06 5.0057165812152808e+00 1.7647766112149075e+01 1.6562992925199193e+01 0 0 0
1649 1 2.5945638120885430e-06 6.3902693173921399e-01 2.0168875556741554e+01 1.6562992925199062e+01 0 0 0
853 1 1.9949367295324249e-06 1.3739095880168025e+01 2.0168875556741611e+01 1.6562992925199293e+01 0 0 0
885 1 -2.2489002653370342e-06 1.0260602382206118e+01 2.1429430279037902e+01 1.6528088220013334e+01 0 0 0
1250 1 2.7252165968859709e-06 9.3724062306918920e+00 1.7647766112149014e+01 1.6562992925199250e+01 0 0 0
1251 1 -2.1017440520301623e-06 1.0260602382206004e+01 1.6387211389852350e+01 1.6528088220013515e+01 0 0 0
1252 1 -2.0676319361720228e-06 1.0260602382206075e+01 1.8908320834445114e+01 1.6528088220013405e+01 0 0 0
1257 1 2.2406180529191816e-06 1.3739095880168126e+01 1.7647766112148801e+01 1.6562992925199080e+01 0 0 0
1285 1 2.6017285546228242e-06 9.3724062306918032e+00 2.0168875556741774e+01 1.6562992925199318e+01 0 0 0
1630 1 2.6931379235734380e-06 9.3724062306919400e+00 1.5126656667556253e+01 1.6562992925199111e+01 0 0 0
512 1 -2.7857274829148560e-06 1.8993981681158562e+01 2.1429430279037945e+01 1.6528088220013501e+01 0 0 0
805 1 2.3581770817360893e-06 1.8105785529644731e+01 1.7647766112148833e+01 1.6562992925198934e+01 0 0 0
806 1 -2.2739113519974767e-06 1.8993981681158516e+01 1.6387211389852624e+01 1.6528088220013618e+01 0 0 0
807 1 -2.6868443902671950e-06 1.8993981681158527e+01 1.8908320834445313e+01 1.6528088220013558e+01 0 0 0
854 1 -2.7052741750819239e-06 1.4627292031682542e+01 1.8908320834445181e+01 1.6528088220013618e+01 0 0 0
855 1 -2.8300143134699082e-06 1.4627292031682503e+01 2.1429430279037877e+01 1.6528088220013512e+01 0 0 0
860 1 2.1104908823666701e-06 1.8105785529644745e+01 2.0168875556741380e+01 1.6562992925199115e+01 0 0 0
1214 1 -2.4003232219988272e-06 1.4627292031682533e+01 1.6387211389852524e+01 1.6528088220013682e+01 0 0 0

Velocities

942 0.0000000000000000e+00 0.0000000000000000e+00 0.0000000000000000e+00
943 0.0000000000000000e+00 0.0000000000000000e+00 0.0000000000000000e+00
944 0.0000000000000000e+00 0.0000000000000000e+00 0.0000000000000000e+00
945 0.0000000000000000e+00 0.0000000000000000e+00 0.0000000000000000e+00
946 0.0000000000000000e+00 0.0000000000000000e+00 0.0000000000000000e+00
947 0.0000000000000000e+00 0.0000000000000000e+00 0.0000000000000000e+00
990 0.0000000000000000e+00 0.0000000000000000e+00 0.0000000000000000e+00
991 0.0000000000000000e+00 0.0000000000000000e+00 0.0000000000000000e+00
993 0.0000000000000000e+00 0.0000000000000000e+00 0.0000000000000000e+00
994 0.0000000000000000e+00 0.0000000000000000e+00 0.0000000000000000e+00
996 0.0000000000000000e+00 0.0000000000000000e+00 0.0000000000000000e+00
997 0.0000000000000000e+00 0.0000000000000000e+00 0.0000000000000000e+00
998 0.0000000000000000e+00 0.0000000000000000e+00 0.0000000000000000e+00
1001 0.0000000000000000e+00 0.0000000000000000e+00 0.0000000000000000e+00
1002 0.0000000000000000e+00 0.0000000000000000e+00 0.0000000000000000e+00
1005 0.0000000000000000e+00 0.0000000000000000e+00 0.0000000000000000e+00
1009 0.0000000000000000e+00 0.0000000000000000e+00 0.0000000000000000e+00
1298 0.0000000000000000e+00 0.0000000000000000e+00 0.0000000000000000e+00
1299 0.0000000000000000e+00 0.0000000000000000e+00 0.0000000000000000e+00
1300 0.0000000000000000e+00 0.0000000000000000e+00 0.0000000000000000e+00
1301 0.0000000000000000e+00 0.0000000000000000e+00 0.0000000000000000e+00
1334 0.0000000000000000e+00 0.0000000000000000e+00 0.0000000000000000e+00
1335 0.0000000000000000e+00 0.0000000000000000e+00 0.0000000000000000e+00
1336 0.0000000000000000e+00 0.0000000000000000e+00 0.0000000000000000e+00
1337 0.0000000000000000e+00 0.0000000000000000e+00 0.0000000000000000e+00
1338 0.0000000000000000e+00 0.0000000000000000e+00 0.0000000000000000e+00
1339 0.0000000000000000e+00 0.0000000000000000e+00 0.0000000000000000e+00
1340 0.0000000000000000e+00 0.0000000000000000e+00 0.0000000000000000e+00
1341 0.0000000000000000e+00 0.0000000000000000e+00 0.0000000000000000e+00
1342 0.0000000000000000e+00 0.0000000000000000e+00 0.0000000000000000e+00
1343 0.0000000000000000e+00 0.0000000000000000e+00 0.0000000000000000e+00
1344 0.0000000000000000e+00 0.0000000000000000e+00 0.0000000000000000e+00
1345 0.0000000000000000e+00 0.0000000000000000e+00 0.0000000000000000e+00
1346 0.0000000000000000e+00 0.0000000000000000e+00 0.0000000000000000e+00
1347 0.0000000000000000e+00 0.0000000000000000e+00 0.0000000000000000e+00
1349 0.0000000000000000e+00 0.0000000000000000e+00 0.0000000000000000e+00
1353 0.0000000000000000e+00 0.0000000000000000e+00 0.0000000000000000e+00
1392 0.0000000000000000e+00 0.0000000000000000e+00 0.0000000000000000e+00
1393 0.0000000000000000e+00 0.0000000000000000e+00 0.0000000000000000e+00
1394 0.0000000000000000e+00 0.0000000000000000e+00 0.0000000000000000e+00
1395 0.0000000000000000e+00 0.0000000000000000e+00 0.0000000000000000e+00
1396 0.0000000000000000e+00 0.0000000000000000e+00 0.0000000000000000e+00
1397 0.0000000000000000e+00 0.0000000000000000e+00 0.0000000000000000e+00
1398 0.0000000000000000e+00 0.0000000000000000e+00 0.0000000000000000e+00
1399 0.0000000000000000e+00 0.0000000000000000e+00 0.0000000000000000e+00
1400 0.0000000000000000e+00 0.0000000000000000e+00 0.0000000000000000e+00
1401 0.0000000000000000e+00 0.0000000000000000e+00 0.0000000000000000e+00
1402 0.0000000000000000e+00 0.0000000000000000e+00 0.0000000000000000e+00
1403 0.0000000000000000e+00 0.0000000000000000e+00 0.0000000000000000e+00
1404 0.0000000000000000e+00 0.0000000000000000e+00 0.0000000000000000e+00
1405 0.0000000000000000e+00 0.0000000000000000e+00 0.0000000000000000e+00
1406 0.0000000000000000e+00 0.0000000000000000e+00 0.0000000000000000e+00
1407 0.0000000000000000e+00 0.0000000000000000e+00 0.0000000000000000e+00
1408 0.0000000000000000e+00 0.0000000000000000e+00 0.0000000000000000e+00
1409 0.0000000000000000e+00 0.0000000000000000e+00 0.0000000000000000e+00
1410 0.0000000000000000e+00 0.0000000000000000e+00 0.0000000000000000e+00
1456 0.0000000000000000e+00 0.0000000000000000e+00 0.0000000000000000e+00
1457 0.0000000000000000e+00 0.0000000000000000e+00 0.0000000000000000e+00
1513 0.0000000000000000e+00 0.0000000000000000e+00 0.0000000000000000e+00
1651 0.0000000000000000e+00 0.0000000000000000e+00 0.0000000000000000e+00
1652 0.0000000000000000e+00 0.0000000000000000e+00 0.0000000000000000e+00
1653 0.0000000000000000e+00 0.0000000000000000e+00 0.0000000000000000e+00
1654 0.0000000000000000e+00 0.0000000000000000e+00 0.0000000000000000e+00
1655 0.0000000000000000e+00 0.0000000000000000e+00 0.0000000000000000e+00
1656 0.0000000000000000e+00 0.0000000000000000e+00 0.0000000000000000e+00
1657 0.0000000000000000e+00 0.0000000000000000e+00 0.0000000000000000e+00
1658 0.0000000000000000e+00 0.0000000000000000e+00 0.0000000000000000e+00
1659 0.0000000000000000e+00 0.0000000000000000e+00 0.0000000000000000e+00
1660 0.0000000000000000e+00 0.0000000000000000e+00 0.0000000000000000e+00
1661 0.0000000000000000e+00 0.0000000000000000e+00 0.0000000000000000e+00
1662 0.0000000000000000e+00 0.0000000000000000e+00 0.0000000000000000e+00
1663 0.0000000000000000e+00 0.0000000000000000e+00 0.0000000000000000e+00
1664 0.0000000000000000e+00 0.0000000000000000e+00 0.0000000000000000e+00
1699 0.0000000000000000e+00 0.0000000000000000e+00 0.0000000000000000e+00
1700 0.0000000000000000e+00 0.0000000000000000e+00 0.0000000000000000e+00
1701 0.0000000000000000e+00 0.0000000000000000e+00 0.0000000000000000e+00
1702 0.0000000000000000e+00 0.0000000000000000e+00 0.0000000000000000e+00
1703 0.0000000000000000e+00 0.0000000000000000e+00 0.0000000000000000e+00
1707 0.0000000000000000e+00 0.0000000000000000e+00 0.0000000000000000e+00
1757 0.0000000000000000e+00 0.0000000000000000e+00 0.0000000000000000e+00
526 0.0000000000000000e+00 0.0000000000000000e+00 0.0000000000000000e+00
529 0.0000000000000000e+00 0.0000000000000000e+00 0.0000000000000000e+00
550 0.0000000000000000e+00 0.0000000000000000e+00 0.0000000000000000e+00
552 0.0000000000000000e+00 0.0000000000000000e+00 0.0000000000000000e+00
553 0.0000000000000000e+00 0.0000000000000000e+00 0.0000000000000000e+00
557 0.0000000000000000e+00 0.0000000000000000e+00 0.0000000000000000e+00
559 0.0000000000000000e+00 0.0000000000000000e+00 0.0000000000000000e+00
560 0.0000000000000000e+00 0.0000000000000000e+00 0.0000000000000000e+00
561 0.0000000000000000e+00 0.0000000000000000e+00 0.0000000000000000e+00
891 0.0000000000000000e+00 0.0000000000000000e+00 0.0000000000000000e+00
893 0.0000000000000000e+00 0.0000000000000000e+00 0.0000000000000000e+00
908 0.0000000000000000e+00 0.0000000000000000e+00 0.0000000000000000e+00
909 0.0000000000000000e+00 0.0000000000000000e+00 0.0000000000000000e+00
910 0.0000000000000000e+00 0.0000000000000000e+00 0.0000000000000000e+00
911 0.0000000000000000e+00 0.0000000000000000e+00 0.0000000000000000e+00
912 0.0000000000000000e+00 0.0000000000000000e+00 0.0000000000000000e+00
913 0.0000000000000000e+00 0.0000000000000000e+00 0.0000000000000000e+00
914 0.0000000000000000e+00 0.0000000000000000e+00 0.0000000000000000e+00
915 0.0000000000000000e+00 0.0000000000000000e+00 0.0000000000000000e+00
916 0.0000000000000000e+00 0.0000000000000000e+00 0.0000000000000000e+00
917 0.0000000000000000e+00 0.0000000000000000e+00 0.0000000000000000e+00
918 0.0000000000000000e+00 0.0000000000000000e+00 0.0000000000000000e+00
919 0.0000000000000000e+00 0.0000000000000000e+00 0.0000000000000000e+00
920 0.0000000000000000e+00 0.0000000000000000e+00 0.0000000000000000e+00
921 0.0000000000000000e+00 0.0000000000000000e+00 0.0000000000000000e+00
948 0.0000000000000000e+00 0.0000000000000000e+00 0.0000000000000000e+00
949 0.0000000000000000e+00 0.0000000000000000e+00 0.0000000000000000e+00
950 0.0000000000000000e+00 0.0000000000000000e+00 0.0000000000000000e+00
951 0.0000000000000000e+00 0.0000000000000000e+00 0.0000000000000000e+00
952 0.0000000000000000e+00 0.0000000000000000e+00 0.0000000000000000e+00
953 0.0000000000000000e+00 0.0000000000000000e+00 0.0000000000000000e+00
954 0.0000000000000000e+00 0.0000000000000000e+00 0.0000000000000000e+00
955 0.0000000000000000e+00 0.0000000000000000e+00 0.0000000000000000e+00
956 0.0000000000000000e+00 0.0000000000000000e+00 0.0000000000000000e+00
957 0.0000000000000000e+00 0.0000000000000000e+00 0.0000000000000000e+00
958 0.0000000000000000e+00 0.0000000000000000e+00 0.0000000000000000e+00
959 0.0000000000000000e+00 0.0000000000000000e+00 0.0000000000000000e+00
960 0.0000000000000000e+00 0.0000000000000000e+00 0.0000000000000000e+00
961 0.0000000000000000e+00 0.0000000000000000e+00 0.0000000000000000e+00
962 0.0000000000000000e+00 0.0000000000000000e+00 0.0000000000000000e+00
963 0.0000000000000000e+00 0.0000000000000000e+00 0.0000000000000000e+00
965 0.0000000000000000e+00 0.0000000000000000e+00 0.0000000000000000e+00
1004 0.0000000000000000e+00 0.0000000000000000e+00 0.0000000000000000e+00
1006 0.0000000000000000e+00 0.0000000000000000e+00 0.0000000000000000e+00
1010 0.0000000000000000e+00 0.0000000000000000e+00 0.0000000000000000e+00
1012 0.0000000000000000e+00 0.0000000000000000e+00 0.0000000000000000e+00
1013 0.0000000000000000e+00 0.0000000000000000e+00 0.0000000000000000e+00
1014 0.0000000000000000e+00 0.0000000000000000e+00 0.0000000000000000e+00
1020 0.0000000000000000e+00 0.0000000000000000e+00 0.0000000000000000e+00
1302 0.0000000000000000e+00 0.0000000000000000e+00 0.0000000000000000e+00
1303 0.0000000000000000e+00 0.0000000000000000e+00 0.0000000000000000e+00
1304 0.0000000000000000e+00 0.0000000000000000e+00 0.0000000000000000e+00
1305 0.0000000000000000e+00 0.0000000000000000e+00 0.0000000000000000e+00
1306 0.0000000000000000e+00 0.0000000000000000e+00 0.0000000000000000e+00
1307 0.0000000000000000e+00 0.0000000000000000e+00 0.0000000000000000e+00
1308 0.0000000000000000e+00 0.0000000000000000e+00 0.0000000000000000e+00
1309 0.0000000000000000e+00 0.0000000000000000e+00 0.0000000000000000e+00
1310 0.0000000000000000e+00 0.0000000000000000e+00 0.0000000000000000e+00
1311 0.0000000000000000e+00 0.0000000000000000e+00 0.0000000000000000e+00
1312 0.0000000000000000e+00 0.0000000000000000e+00 0.0000000000000000e+00
1313 0.0000000000000000e+00 0.0000000000000000e+00 0.0000000000000000e+00
1315 0.0000000000000000e+00 0.0000000000000000e+00 0.0000000000000000e+00
1348 0.0000000000000000e+00 0.0000000000000000e+00 0.0000000000000000e+00
1350 0.0000000000000000e+00 0.0000000000000000e+00 0.0000000000000000e+00
1351 0.0000000000000000e+00 0.0000000000000000e+00 0.0000000000000000e+00
1352 0.0000000000000000e+00 0.0000000000000000e+00 0.0000000000000000e+00
1354 0.0000000000000000e+00 0.0000000000000000e+00 0.0000000000000000e+00
1355 0.0000000000000000e+00 0.0000000000000000e+00 0.0000000000000000e+00
1356 0.0000000000000000e+00 0.0000000000000000e+00 0.0000000000000000e+00
1357 0.0000000000000000e+00 0.0000000000000000e+00 0.0000000000000000e+00
1358 0.0000000000000000e+00 0.0000000000000000e+00 0.0000000000000000e+00
1359 0.0000000000000000e+00 0.0000000000000000e+00 0.0000000000000000e+00
1360 0.0000000000000000e+00 0.0000000000000000e+00 0.0000000000000000e+00
1364 0.0000000000000000e+00 0.0000000000000000e+00 0.0000000000000000e+00
1414 0.0000000000000000e+00 0.0000000000000000e+00 0.0000000000000000e+00
1667 0.0000000000000000e+00 0.0000000000000000e+00 0.0000000000000000e+00
235 0.0000000000000000e+00 0.0000000000000000e+00 0.0000000000000000e+00
236 0.0000000000000000e+00 0.0000000000000000e+00 0.0000000000000000e+00
239 0.0000000000000000e+00 0.0000000000000000e+00 0.0000000000000000e+00
242 0.0000000000000000e+00 0.0000000000000000e+00 0.0000000000000000e+00
517 0.0000000000000000e+00 0.0000000000000000e+00 0.0000000000000000e+00
518 0.0000000000000000e+00 0.0000000000000000e+00 0.0000000000000000e+00
519 0.0000000000000000e+00 0.0000000000000000e+00 0.0000000000000000e+00
520 0.0000000000000000e+00 0.0000000000000000e+00 0.0000000000000000e+00
521 0.0000000000000000e+00 0.0000000000000000e+00 0.0000000000000000e+00
522 0.0000000000000000e+00 0.0000000000000000e+00 0.0000000000000000e+00
523 0.0000000000000000e+00 0.0000000000000000e+00 0.0000000000000000e+00
525 0.0000000000000000e+00 0.0000000000000000e+00 0.0000000000000000e+00
527 0.0000000000000000e+00 0.0000000000000000e+00 0.0000000000000000e+00
528 0.0000000000000000e+00 0.0000000000000000e+00 0.0000000000000000e+00
530 0.0000000000000000e+00 0.0000000000000000e+00 0.0000000000000000e+00
531 0.0000000000000000e+00 0.0000000000000000e+00 0.0000000000000000e+00
532 0.0000000000000000e+00 0.0000000000000000e+00 0.0000000000000000e+00
533 0.0000000000000000e+00 0.0000000000000000e+00 0.0000000000000000e+00
534 0.0000000000000000e+00 0.0000000000000000e+00 0.0000000000000000e+00
535 0.0000000000000000e+00 0.0000000000000000e+00 0.0000000000000000e+00
536 0.0000000000000000e+00 0.0000000000000000e+00 0.0000000000000000e+00
537 0.0000000000000000e+00 0.0000000000000000e+00 0.0000000000000000e+00
538 0.0000000000000000e+00 0.0000000000000000e+00 0.0000000000000000e+00
539 0.0000000000000000e+00 0.0000000000000000e+00 0.0000000000000000e+00
540 0.0000000000000000e+00 0.0000000000000000e+00 0.0000000000000000e+00
541 0.0000000000000000e+00 0.0000000000000000e+00 0.0000000000000000e+00
542 0.0000000000000000e+00 0.0000000000000000e+00 0.0000000000000000e+00
543 0.0000000000000000e+00 0.0000000000000000e+00 0.0000000000000000e+00
544 0.0000000000000000e+00 0.0000000000000000e+00 0.0000000000000000e+00
545 0.0000000000000000e+00 0.0000000000000000e+00 0.0000000000000000e+00
546 0.0000000000000000e+00 0.0000000000000000e+00 0.0000000000000000e+00
547 0.0000000000000000e+00 0.0000000000000000e+00 0.0000000000000000e+00
565 0.0000000000000000e+00 0.0000000000000000e+00 0.0000000000000000e+00
567 0.0000000000000000e+00 0.0000000000000000e+00 0.0000000000000000e+00
568 0.0000000000000000e+00 0.0000000000000000e+00 0.0000000000000000e+00
569 0.0000000000000000e+00 0.0000000000000000e+00 0.0000000000000000e+00
573 0.0000000000000000e+00 0.0000000000000000e+00 0.0000000000000000e+00
575 0.0000000000000000e+00 0.0000000000000000e+00 0.0000000000000000e+00
892 0.0000000000000000e+00 0.0000000000000000e+00 0.0000000000000000e+00
894 0.0000000000000000e+00 0.0000000000000000e+00 0.0000000000000000e+00
895 0.0000000000000000e+00 0.0000000000000000e+00 0.0000000000000000e+00
896 0.0000000000000000e+00 0.0000000000000000e+00 0.0000000000000000e+00
897 0.0000000000000000e+00 0.0000000000000000e+00 0.0000000000000000e+00
898 0.0000000000000000e+00 0.0000000000000000e+00 0.0000000000000000e+00
899 0.0000000000000000e+00 0.0000000000000000e+00 0.0000000000000000e+00
900 0.0000000000000000e+00 0.0000000000000000e+00 0.0000000000000000e+00
901 0.0000000000000000e+00 0.0000000000000000e+00 0.0000000000000000e+00
902 0.0000000000000000e+00 0.0000000000000000e+00 0.0000000000000000e+00
903 0.0000000000000000e+00 0.0000000000000000e+00 0.0000000000000000e+00
904 0.0000000000000000e+00 0.0000000000000000e+00 0.0000000000000000e+00
905 0.0000000000000000e+00 0.0000000000000000e+00 0.0000000000000000e+00
906 0.0000000000000000e+00 0.0000000000000000e+00 0.0000000000000000e+00
922 0.0000000000000000e+00 0.0000000000000000e+00 0.0000000000000000e+00
923 0.0000000000000000e+00 0.0000000000000000e+00 0.0000000000000000e+00
924 0.0000000000000000e+00 0.0000000000000000e+00 0.0000000000000000e+00
925 0.0000000000000000e+00 0.0000000000000000e+00 0.0000000000000000e+00
926 0.0000000000000000e+00 0.0000000000000000e+00 0.0000000000000000e+00
927 0.0000000000000000e+00 0.0000000000000000e+00 0.0000000000000000e+00
928 0.0000000000000000e+00 0.0000000000000000e+00 0.0000000000000000e+00
929 0.0000000000000000e+00 0.0000000000000000e+00 0.0000000000000000e+00
930 0.0000000000000000e+00 0.0000000000000000e+00 0.0000000000000000e+00
931 0.0000000000000000e+00 0.0000000000000000e+00 0.0000000000000000e+00
932 0.0000000000000000e+00 0.0000000000000000e+00 0.0000000000000000e+00
933 0.0000000000000000e+00 0.0000000000000000e+00 0.0000000000000000e+00
934 0.0000000000000000e+00 0.0000000000000000e+00 0.0000000000000000e+00
964 0.0000000000000000e+00 0.0000000000000000e+00 0.0000000000000000e+00
966 0.0000000000000000e+00 0.0000000000000000e+00 0.0000000000000000e+00
967 0.0000000000000000e+00 0.0000000000000000e+00 0.0000000000000000e+00
968 0.0000000000000000e+00 0.0000000000000000e+00 0.0000000000000000e+00
972 0.0000000000000000e+00 0.0000000000000000e+00 0.0000000000000000e+00
1314 0.0000000000000000e+00 0.0000000000000000e+00 0.0000000000000000e+00
1316 0.0000000000000000e+00 0.0000000000000000e+00 0.0000000000000000e+00
1317 0.0000000000000000e+00 0.0000000000000000e+00 0.0000000000000000e+00
1320 0.0000000000000000e+00 0.0000000000000000e+00 0.0000000000000000e+00
301 0.0000000000000000e+00 0.0000000000000000e+00 0.0000000000000000e+00
302 0.0000000000000000e+00 0.0000000000000000e+00 0.0000000000000000e+00
305 0.0000000000000000e+00 0.0000000000000000e+00 0.0000000000000000e+00
582 0.0000000000000000e+00 0.0000000000000000e+00 0.0000000000000000e+00
583 0.0000000000000000e+00 0.0000000000000000e+00 0.0000000000000000e+00
584 0.0000000000000000e+00 0.0000000000000000e+00 0.0000000000000000e+00
585 0.0000000000000000e+00 0.0000000000000000e+00 0.0000000000000000e+00
586 0.0000000000000000e+00 0.0000000000000000e+00 0.0000000000000000e+00
587 0.0000000000000000e+00 0.0000000000000000e+00 0.0000000000000000e+00
630 0.0000000000000000e+00 0.0000000000000000e+00 0.0000000000000000e+00
631 0.0000000000000000e+00 0.0000000000000000e+00 0.0000000000000000e+00
632 0.0000000000000000e+00 0.0000000000000000e+00 0.0000000000000000e+00
633 0.0000000000000000e+00 0.0000000000000000e+00 0.0000000000000000e+00
634 0.0000000000000000e+00 0.0000000000000000e+00 0.0000000000000000e+00
635 0.0000000000000000e+00 0.0000000000000000e+00 0.0000000000000000e+00
636 0.0000000000000000e+00 0.0000000000000000e+00 0.0000000000000000e+00
637 0.0000000000000000e+00 0.0000000000000000e+00 0.0000000000000000e+00
638 0.0000000000000000e+00 0.0000000000000000e+00 0.0000000000000000e+00
639 0.0000000000000000e+00 0.0000000000000000e+00 0.0000000000000000e+00
640 0.0000000000000000e+00 0.0000000000000000e+00 0.0000000000000000e+00
641 0.0000000000000000e+00 0.0000000000000000e+00 0.0000000000000000e+00
642 0.0000000000000000e+00 0.0000000000000000e+00 0.0000000000000000e+00
643 0.0000000000000000e+00 0.0000000000000000e+00 0.0000000000000000e+00
645 0.0000000000000000e+00 0.0000000000000000e+00 0.0000000000000000e+00
649 0.0000000000000000e+00 0.0000000000000000e+00 0.0000000000000000e+00
689 0.0000000000000000e+00 0.0000000000000000e+00 0.0000000000000000e+00
691 0.0000000000000000e+00 0.0000000000000000e+00 0.0000000000000000e+00
692 0.0000000000000000e+00 0.0000000000000000e+00 0.0000000000000000e+00
696 0.0000000000000000e+00 0.0000000000000000e+00 0.0000000000000000e+00
698 0.0000000000000000e+00 0.0000000000000000e+00 0.0000000000000000e+00
699 0.0000000000000000e+00 0.0000000000000000e+00 0.0000000000000000e+00
700 0.0000000000000000e+00 0.0000000000000000e+00 0.0000000000000000e+00
704 0.0000000000000000e+00 0.0000000000000000e+00 0.0000000000000000e+00
706 0.0000000000000000e+00 0.0000000000000000e+00 0.0000000000000000e+00
992 0.0000000000000000e+00 0.0000000000000000e+00 0.0000000000000000e+00
995 0.0000000000000000e+00 0.0000000000000000e+00 0.0000000000000000e+00
999 0.0000000000000000e+00 0.0000000000000000e+00 0.0000000000000000e+00
1000 0.0000000000000000e+00 0.0000000000000000e+00 0.0000000000000000e+00
1003 0.0000000000000000e+00 0.0000000000000000e+00 0.0000000000000000e+00
1048 0.0000000000000000e+00 0.0000000000000000e+00 0.0000000000000000e+00
1049 0.0000000000000000e+00 0.0000000000000000e+00 0.0000000000000000e+00
1050 0.0000000000000000e+00 0.0000000000000000e+00 0.0000000000000000e+00
1051 0.0000000000000000e+00 0.0000000000000000e+00 0.0000000000000000e+00
1052 0.0000000000000000e+00 0.0000000000000000e+00 0.0000000000000000e+00
1053 0.0000000000000000e+00 0.0000000000000000e+00 0.0000000000000000e+00
1054 0.0000000000000000e+00 0.0000000000000000e+00 0.0000000000000000e+00
1055 0.0000000000000000e+00 0.0000000000000000e+00 0.0000000000000000e+00
1056 0.0000000000000000e+00 0.0000000000000000e+00 0.0000000000000000e+00
1057 0.0000000000000000e+00 0.0000000000000000e+00 0.0000000000000000e+00
1058 0.0000000000000000e+00 0.0000000000000000e+00 0.0000000000000000e+00
1059 0.0000000000000000e+00 0.0000000000000000e+00 0.0000000000000000e+00
1060 0.0000000000000000e+00 0.0000000000000000e+00 0.0000000000000000e+00
1061 0.0000000000000000e+00 0.0000000000000000e+00 0.0000000000000000e+00
1062 0.0000000000000000e+00 0.0000000000000000e+00 0.0000000000000000e+00
1063 0.0000000000000000e+00 0.0000000000000000e+00 0.0000000000000000e+00
1064 0.0000000000000000e+00 0.0000000000000000e+00 0.0000000000000000e+00
1065 0.0000000000000000e+00 0.0000000000000000e+00 0.0000000000000000e+00
1066 0.0000000000000000e+00 0.0000000000000000e+00 0.0000000000000000e+00
1111 0.0000000000000000e+00 0.0000000000000000e+00 0.0000000000000000e+00
1112 0.0000000000000000e+00 0.0000000000000000e+00 0.0000000000000000e+00
1113 0.0000000000000000e+00 0.0000000000000000e+00 0.0000000000000000e+00
1114 0.0000000000000000e+00 0.0000000000000000e+00 0.0000000000000000e+00
1115 0.0000000000000000e+00 0.0000000000000000e+00 0.0000000000000000e+00
1119 0.0000000000000000e+00 0.0000000000000000e+00 0.0000000000000000e+00
1169 0.0000000000000000e+00 0.0000000000000000e+00 0.0000000000000000e+00
1455 0.0000000000000000e+00 0.0000000000000000e+00 0.0000000000000000e+00
1458 0.0000000000000000e+00 0.0000000000000000e+00 0.0000000000000000e+00
1459 0.0000000000000000e+00 0.0000000000000000e+00 0.0000000000000000e+00
1463 0.0000000000000000e+00 0.0000000000000000e+00 0.0000000000000000e+00
1514 0.0000000000000000e+00 0.0000000000000000e+00 0.0000000000000000e+00
87 0.0000000000000000e+00 0.0000000000000000e+00 0.0000000000000000e+00
244 0.0000000000000000e+00 0.0000000000000000e+00 0.0000000000000000e+00
247 0.0000000000000000e+00 0.0000000000000000e+00 0.0000000000000000e+00
268 0.0000000000000000e+00 0.0000000000000000e+00 0.0000000000000000e+00
269 0.0000000000000000e+00 0.0000000000000000e+00 0.0000000000000000e+00
270 0.0000000000000000e+00 0.0000000000000000e+00 0.0000000000000000e+00
271 0.0000000000000000e+00 0.0000000000000000e+00 0.0000000000000000e+00
272 0.0000000000000000e+00 0.0000000000000000e+00 0.0000000000000000e+00
273 0.0000000000000000e+00 0.0000000000000000e+00 0.0000000000000000e+00
274 0.0000000000000000e+00 0.0000000000000000e+00 0.0000000000000000e+00
275 0.0000000000000000e+00 0.0000000000000000e+00 0.0000000000000000e+00
276 0.0000000000000000e+00 0.0000000000000000e+00 0.0000000000000000e+00
277 0.0000000000000000e+00 0.0000000000000000e+00 0.0000000000000000e+00
278 0.0000000000000000e+00 0.0000000000000000e+00 0.0000000000000000e+00
279 0.0000000000000000e+00 0.0000000000000000e+00 0.0000000000000000e+00
280 0.0000000000000000e+00 0.0000000000000000e+00 0.0000000000000000e+00
281 0.0000000000000000e+00 0.0000000000000000e+00 0.0000000000000000e+00
307 0.0000000000000000e+00 0.0000000000000000e+00 0.0000000000000000e+00
308 0.0000000000000000e+00 0.0000000000000000e+00 0.0000000000000000e+00
309 0.0000000000000000e+00 0.0000000000000000e+00 0.0000000000000000e+00
311 0.0000000000000000e+00 0.0000000000000000e+00 0.0000000000000000e+00
313 0.0000000000000000e+00 0.0000000000000000e+00 0.0000000000000000e+00
315 0.0000000000000000e+00 0.0000000000000000e+00 0.0000000000000000e+00
316 0.0000000000000000e+00 0.0000000000000000e+00 0.0000000000000000e+00
317 0.0000000000000000e+00 0.0000000000000000e+00 0.0000000000000000e+00
319 0.0000000000000000e+00 0.0000000000000000e+00 0.0000000000000000e+00
321 0.0000000000000000e+00 0.0000000000000000e+00 0.0000000000000000e+00
324 0.0000000000000000e+00 0.0000000000000000e+00 0.0000000000000000e+00
549 0.0000000000000000e+00 0.0000000000000000e+00 0.0000000000000000e+00
551 0.0000000000000000e+00 0.0000000000000000e+00 0.0000000000000000e+00
554 0.0000000000000000e+00 0.0000000000000000e+00 0.0000000000000000e+00
555 0.0000000000000000e+00 0.0000000000000000e+00 0.0000000000000000e+00
556 0.0000000000000000e+00 0.0000000000000000e+00 0.0000000000000000e+00
558 0.0000000000000000e+00 0.0000000000000000e+00 0.0000000000000000e+00
562 0.0000000000000000e+00 0.0000000000000000e+00 0.0000000000000000e+00
588 0.0000000000000000e+00 0.0000000000000000e+00 0.0000000000000000e+00
589 0.0000000000000000e+00 0.0000000000000000e+00 0.0000000000000000e+00
590 0.0000000000000000e+00 0.0000000000000000e+00 0.0000000000000000e+00
591 0.0000000000000000e+00 0.0000000000000000e+00 0.0000000000000000e+00
592 0.0000000000000000e+00 0.0000000000000000e+00 0.0000000000000000e+00
593 0.0000000000000000e+00 0.0000000000000000e+00 0.0000000000000000e+00
594 0.0000000000000000e+00 0.0000000000000000e+00 0.0000000000000000e+00
595 0.0000000000000000e+00 0.0000000000000000e+00 0.0000000000000000e+00
596 0.0000000000000000e+00 0.0000000000000000e+00 0.0000000000000000e+00
597 0.0000000000000000e+00 0.0000000000000000e+00 0.0000000000000000e+00
598 0.0000000000000000e+00 0.0000000000000000e+00 0.0000000000000000e+00
599 0.0000000000000000e+00 0.0000000000000000e+00 0.0000000000000000e+00
600 0.0000000000000000e+00 0.0000000000000000e+00 0.0000000000000000e+00
601 0.0000000000000000e+00 0.0000000000000000e+00 0.0000000000000000e+00
602 0.0000000000000000e+00 0.0000000000000000e+00 0.0000000000000000e+00
603 0.0000000000000000e+00 0.0000000000000000e+00 0.0000000000000000e+00
605 0.0000000000000000e+00 0.0000000000000000e+00 0.0000000000000000e+00
644 0.0000000000000000e+00 0.0000000000000000e+00 0.0000000000000000e+00
646 0.0000000000000000e+00 0.0000000000000000e+00 0.0000000000000000e+00
647 0.0000000000000000e+00 0.0000000000000000e+00 0.0000000000000000e+00
648 0.0000000000000000e+00 0.0000000000000000e+00 0.0000000000000000e+00
650 0.0000000000000000e+00 0.0000000000000000e+00 0.0000000000000000e+00
651 0.0000000000000000e+00 0.0000000000000000e+00 0.0000000000000000e+00
652 0.0000000000000000e+00 0.0000000000000000e+00 0.0000000000000000e+00
653 0.0000000000000000e+00 0.0000000000000000e+00 0.0000000000000000e+00
654 0.0000000000000000e+00 0.0000000000000000e+00 0.0000000000000000e+00
655 0.0000000000000000e+00 0.0000000000000000e+00 0.0000000000000000e+00
656 0.0000000000000000e+00 0.0000000000000000e+00 0.0000000000000000e+00
660 0.0000000000000000e+00 0.0000000000000000e+00 0.0000000000000000e+00
1007 0.0000000000000000e+00 0.0000000000000000e+00 0.0000000000000000e+00
1008 0.0000000000000000e+00 0.0000000000000000e+00 0.0000000000000000e+00
1011 0.0000000000000000e+00 0.0000000000000000e+00 0.0000000000000000e+00
1015 0.0000000000000000e+00 0.0000000000000000e+00 0.0000000000000000e+00
1016 0.0000000000000000e+00 0.0000000000000000e+00 0.0000000000000000e+00
1070 0.0000000000000000e+00 0.0000000000000000e+00 0.0000000000000000e+00
74 0.0000000000000000e+00 0.0000000000000000e+00 0.0000000000000000e+00
75 0.0000000000000000e+00 0.0000000000000000e+00 0.0000000000000000e+00
76 0.0000000000000000e+00 0.0000000000000000e+00 0.0000000000000000e+00
77 0.0000000000000000e+00 0.0000000000000000e+00 0.0000000000000000e+00
78 0.0000000000000000e+00 0.0000000000000000e+00 0.0000000000000000e+00
79 0.0000000000000000e+00 0.0000000000000000e+00 0.0000000000000000e+00
81 0.0000000000000000e+00 0.0000000000000000e+00 0.0000000000000000e+00
83 0.0000000000000000e+00 0.0000000000000000e+00 0.0000000000000000e+00
85 0.0000000000000000e+00 0.0000000000000000e+00 0.0000000000000000e+00
88 0.0000000000000000e+00 0.0000000000000000e+00 0.0000000000000000e+00
90 0.0000000000000000e+00 0.0000000000000000e+00 0.0000000000000000e+00
92 0.0000000000000000e+00 0.0000000000000000e+00 0.0000000000000000e+00
94 0.0000000000000000e+00 0.0000000000000000e+00 0.0000000000000000e+00
95 0.0000000000000000e+00 0.0000000000000000e+00 0.0000000000000000e+00
96 0.0000000000000000e+00 0.0000000000000000e+00 0.0000000000000000e+00
98 0.0000000000000000e+00 0.0000000000000000e+00 0.0000000000000000e+00
100 0.0000000000000000e+00 0.0000000000000000e+00 0.0000000000000000e+00
102 0.0000000000000000e+00 0.0000000000000000e+00 0.0000000000000000e+00
103 0.0000000000000000e+00 0.0000000000000000e+00 0.0000000000000000e+00
104 0.0000000000000000e+00 0.0000000000000000e+00 0.0000000000000000e+00
237 0.0000000000000000e+00 0.0000000000000000e+00 0.0000000000000000e+00
238 0.0000000000000000e+00 0.0000000000000000e+00 0.0000000000000000e+00
240 0.0000000000000000e+00 0.0000000000000000e+00 0.0000000000000000e+00
243 0.0000000000000000e+00 0.0000000000000000e+00 0.0000000000000000e+00
245 0.0000000000000000e+00 0.0000000000000000e+00 0.0000000000000000e+00
246 0.0000000000000000e+00 0.0000000000000000e+00 0.0000000000000000e+00
248 0.0000000000000000e+00 0.0000000000000000e+00 0.0000000000000000e+00
249 0.0000000000000000e+00 0.0000000000000000e+00 0.0000000000000000e+00
250 0.0000000000000000e+00 0.0000000000000000e+00 0.0000000000000000e+00
251 0.0000000000000000e+00 0.0000000000000000e+00 0.0000000000000000e+00
252 0.0000000000000000e+00 0.0000000000000000e+00 0.0000000000000000e+00
253 0.0000000000000000e+00 0.0000000000000000e+00 0.0000000000000000e+00
254 0.0000000000000000e+00 0.0000000000000000e+00 0.0000000000000000e+00
255 0.0000000000000000e+00 0.0000000000000000e+00 0.0000000000000000e+00
256 0.0000000000000000e+00 0.0000000000000000e+00 0.0000000000000000e+00
257 0.0000000000000000e+00 0.0000000000000000e+00 0.0000000000000000e+00
258 0.0000000000000000e+00 0.0000000000000000e+00 0.0000000000000000e+00
259 0.0000000000000000e+00 0.0000000000000000e+00 0.0000000000000000e+00
260 0.0000000000000000e+00 0.0000000000000000e+00 0.0000000000000000e+00
261 0.0000000000000000e+00 0.0000000000000000e+00 0.0000000000000000e+00
262 0.0000000000000000e+00 0.0000000000000000e+00 0.0000000000000000e+00
263 0.0000000000000000e+00 0.0000000000000000e+00 0.0000000000000000e+00
264 0.0000000000000000e+00 0.0000000000000000e+00 0.0000000000000000e+00
265 0.0000000000000000e+00 0.0000000000000000e+00 0.0000000000000000e+00
282 0.0000000000000000e+00 0.0000000000000000e+00 0.0000000000000000e+00
283 0.0000000000000000e+00 0.0000000000000000e+00 0.0000000000000000e+00
284 0.0000000000000000e+00 0.0000000000000000e+00 0.0000000000000000e+00
285 0.0000000000000000e+00 0.0000000000000000e+00 0.0000000000000000e+00
286 0.0000000000000000e+00 0.0000000000000000e+00 0.0000000000000000e+00
287 0.0000000000000000e+00 0.0000000000000000e+00 0.0000000000000000e+00
288 0.0000000000000000e+00 0.0000000000000000e+00 0.0000000000000000e+00
289 0.0000000000000000e+00 0.0000000000000000e+00 0.0000000000000000e+00
290 0.0000000000000000e+00 0.0000000000000000e+00 0.0000000000000000e+00
291 0.0000000000000000e+00 0.0000000000000000e+00 0.0000000000000000e+00
292 0.0000000000000000e+00 0.0000000000000000e+00 0.0000000000000000e+00
293 0.0000000000000000e+00 0.0000000000000000e+00 0.0000000000000000e+00
294 0.0000000000000000e+00 0.0000000000000000e+00 0.0000000000000000e+00
323 0.0000000000000000e+00 0.0000000000000000e+00 0.0000000000000000e+00
325 0.0000000000000000e+00 0.0000000000000000e+00 0.0000000000000000e+00
327 0.0000000000000000e+00 0.0000000000000000e+00 0.0000000000000000e+00
331 0.0000000000000000e+00 0.0000000000000000e+00 0.0000000000000000e+00
563 0.0000000000000000e+00 0.0000000000000000e+00 0.0000000000000000e+00
564 0.0000000000000000e+00 0.0000000000000000e+00 0.0000000000000000e+00
566 0.0000000000000000e+00 0.0000000000000000e+00 0.0000000000000000e+00
570 0.0000000000000000e+00 0.0000000000000000e+00 0.0000000000000000e+00
571 0.0000000000000000e+00 0.0000000000000000e+00 0.0000000000000000e+00
572 0.0000000000000000e+00 0.0000000000000000e+00 0.0000000000000000e+00
574 0.0000000000000000e+00 0.0000000000000000e+00 0.0000000000000000e+00
604 0.0000000000000000e+00 0.0000000000000000e+00 0.0000000000000000e+00
606 0.0000000000000000e+00 0.0000000000000000e+00 0.0000000000000000e+00
607 0.0000000000000000e+00 0.0000000000000000e+00 0.0000000000000000e+00
608 0.0000000000000000e+00 0.0000000000000000e+00 0.0000000000000000e+00
612 0.0000000000000000e+00 0.0000000000000000e+00 0.0000000000000000e+00
141 0.0000000000000000e+00 0.0000000000000000e+00 0.0000000000000000e+00
142 0.0000000000000000e+00 0.0000000000000000e+00 0.0000000000000000e+00
143 0.0000000000000000e+00 0.0000000000000000e+00 0.0000000000000000e+00
144 0.0000000000000000e+00 0.0000000000000000e+00 0.0000000000000000e+00
145 0.0000000000000000e+00 0.0000000000000000e+00 0.0000000000000000e+00
146 0.0000000000000000e+00 0.0000000000000000e+00 0.0000000000000000e+00
190 0.0000000000000000e+00 0.0000000000000000e+00 0.0000000000000000e+00
192 0.0000000000000000e+00 0.0000000000000000e+00 0.0000000000000000e+00
195 0.0000000000000000e+00 0.0000000000000000e+00 0.0000000000000000e+00
198 0.0000000000000000e+00 0.0000000000000000e+00 0.0000000000000000e+00
303 0.0000000000000000e+00 0.0000000000000000e+00 0.0000000000000000e+00
304 0.0000000000000000e+00 0.0000000000000000e+00 0.0000000000000000e+00
306 0.0000000000000000e+00 0.0000000000000000e+00 0.0000000000000000e+00
349 0.0000000000000000e+00 0.0000000000000000e+00 0.0000000000000000e+00
350 0.0000000000000000e+00 0.0000000000000000e+00 0.0000000000000000e+00
351 0.0000000000000000e+00 0.0000000000000000e+00 0.0000000000000000e+00
352 0.0000000000000000e+00 0.0000000000000000e+00 0.0000000000000000e+00
353 0.0000000000000000e+00 0.0000000000000000e+00 0.0000000000000000e+00
354 0.0000000000000000e+00 0.0000000000000000e+00 0.0000000000000000e+00
355 0.0000000000000000e+00 0.0000000000000000e+00 0.0000000000000000e+00
356 0.0000000000000000e+00 0.0000000000000000e+00 0.0000000000000000e+00
357 0.0000000000000000e+00 0.0000000000000000e+00 0.0000000000000000e+00
358 0.0000000000000000e+00 0.0000000000000000e+00 0.0000000000000000e+00
359 0.0000000000000000e+00 0.0000000000000000e+00 0.0000000000000000e+00
360 0.0000000000000000e+00 0.0000000000000000e+00 0.0000000000000000e+00
361 0.0000000000000000e+00 0.0000000000000000e+00 0.0000000000000000e+00
362 0.0000000000000000e+00 0.0000000000000000e+00 0.0000000000000000e+00
364 0.0000000000000000e+00 0.0000000000000000e+00 0.0000000000000000e+00
368 0.0000000000000000e+00 0.0000000000000000e+00 0.0000000000000000e+00
407 0.0000000000000000e+00 0.0000000000000000e+00 0.0000000000000000e+00
408 0.0000000000000000e+00 0.0000000000000000e+00 0.0000000000000000e+00
409 0.0000000000000000e+00 0.0000000000000000e+00 0.0000000000000000e+00
410 0.0000000000000000e+00 0.0000000000000000e+00 0.0000000000000000e+00
411 0.0000000000000000e+00 0.0000000000000000e+00 0.0000000000000000e+00
412 0.0000000000000000e+00 0.0000000000000000e+00 0.0000000000000000e+00
413 0.0000000000000000e+00 0.0000000000000000e+00 0.0000000000000000e+00
414 0.0000000000000000e+00 0.0000000000000000e+00 0.0000000000000000e+00
415 0.0000000000000000e+00 0.0000000000000000e+00 0.0000000000000000e+00
416 0.0000000000000000e+00 0.0000000000000000e+00 0.0000000000000000e+00
417 0.0000000000000000e+00 0.0000000000000000e+00 0.0000000000000000e+00
418 0.0000000000000000e+00 0.0000000000000000e+00 0.0000000000000000e+00
419 0.0000000000000000e+00 0.0000000000000000e+00 0.0000000000000000e+00
420 0.0000000000000000e+00 0.0000000000000000e+00 0.0000000000000000e+00
421 0.0000000000000000e+00 0.0000000000000000e+00 0.0000000000000000e+00
422 0.0000000000000000e+00 0.0000000000000000e+00 0.0000000000000000e+00
423 0.0000000000000000e+00 0.0000000000000000e+00 0.0000000000000000e+00
424 0.0000000000000000e+00 0.0000000000000000e+00 0.0000000000000000e+00
425 0.0000000000000000e+00 0.0000000000000000e+00 0.0000000000000000e+00
473 0.0000000000000000e+00 0.0000000000000000e+00 0.0000000000000000e+00
688 0.0000000000000000e+00 0.0000000000000000e+00 0.0000000000000000e+00
690 0.0000000000000000e+00 0.0000000000000000e+00 0.0000000000000000e+00
693 0.0000000000000000e+00 0.0000000000000000e+00 0.0000000000000000e+00
694 0.0000000000000000e+00 0.0000000000000000e+00 0.0000000000000000e+00
695 0.0000000000000000e+00 0.0000000000000000e+00 0.0000000000000000e+00
697 0.0000000000000000e+00 0.0000000000000000e+00 0.0000000000000000e+00
701 0.0000000000000000e+00 0.0000000000000000e+00 0.0000000000000000e+00
702 0.0000000000000000e+00 0.0000000000000000e+00 0.0000000000000000e+00
703 0.0000000000000000e+00 0.0000000000000000e+00 0.0000000000000000e+00
705 0.0000000000000000e+00 0.0000000000000000e+00 0.0000000000000000e+00
752 0.0000000000000000e+00 0.0000000000000000e+00 0.0000000000000000e+00
753 0.0000000000000000e+00 0.0000000000000000e+00 0.0000000000000000e+00
754 0.0000000000000000e+00 0.0000000000000000e+00 0.0000000000000000e+00
755 0.0000000000000000e+00 0.0000000000000000e+00 0.0000000000000000e+00
756 0.0000000000000000e+00 0.0000000000000000e+00 0.0000000000000000e+00
760 0.0000000000000000e+00 0.0000000000000000e+00 0.0000000000000000e+00
810 0.0000000000000000e+00 0.0000000000000000e+00 0.0000000000000000e+00
23 0.0000000000000000e+00 0.0000000000000000e+00 0.0000000000000000e+00
26 0.0000000000000000e+00 0.0000000000000000e+00 0.0000000000000000e+00
48 0.0000000000000000e+00 0.0000000000000000e+00 0.0000000000000000e+00
50 0.0000000000000000e+00 0.0000000000000000e+00 0.0000000000000000e+00
53 0.0000000000000000e+00 0.0000000000000000e+00 0.0000000000000000e+00
56 0.0000000000000000e+00 0.0000000000000000e+00 0.0000000000000000e+00
84 0.0000000000000000e+00 0.0000000000000000e+00 0.0000000000000000e+00
107 0.0000000000000000e+00 0.0000000000000000e+00 0.0000000000000000e+00
108 0.0000000000000000e+00 0.0000000000000000e+00 0.0000000000000000e+00
109 0.0000000000000000e+00 0.0000000000000000e+00 0.0000000000000000e+00
110 0.0000000000000000e+00 0.0000000000000000e+00 0.0000000000000000e+00
111 0.0000000000000000e+00 0.0000000000000000e+00 0.0000000000000000e+00
112 0.0000000000000000e+00 0.0000000000000000e+00 0.0000000000000000e+00
113 0.0000000000000000e+00 0.0000000000000000e+00 0.0000000000000000e+00
114 0.0000000000000000e+00 0.0000000000000000e+00 0.0000000000000000e+00
115 0.0000000000000000e+00 0.0000000000000000e+00 0.0000000000000000e+00
116 0.0000000000000000e+00 0.0000000000000000e+00 0.0000000000000000e+00
117 0.0000000000000000e+00 0.0000000000000000e+00 0.0000000000000000e+00
118 0.0000000000000000e+00 0.0000000000000000e+00 0.0000000000000000e+00
119 0.0000000000000000e+00 0.0000000000000000e+00 0.0000000000000000e+00
120 0.0000000000000000e+00 0.0000000000000000e+00 0.0000000000000000e+00
147 0.0000000000000000e+00 0.0000000000000000e+00 0.0000000000000000e+00
148 0.0000000000000000e+00 0.0000000000000000e+00 0.0000000000000000e+00
149 0.0000000000000000e+00 0.0000000000000000e+00 0.0000000000000000e+00
150 0.0000000000000000e+00 0.0000000000000000e+00 0.0000000000000000e+00
151 0.0000000000000000e+00 0.0000000000000000e+00 0.0000000000000000e+00
152 0.0000000000000000e+00 0.0000000000000000e+00 0.0000000000000000e+00
153 0.0000000000000000e+00 0.0000000000000000e+00 0.0000000000000000e+00
154 0.0000000000000000e+00 0.0000000000000000e+00 0.0000000000000000e+00
155 0.0000000000000000e+00 0.0000000000000000e+00 0.0000000000000000e+00
156 0.0000000000000000e+00 0.0000000000000000e+00 0.0000000000000000e+00
157 0.0000000000000000e+00 0.0000000000000000e+00 0.0000000000000000e+00
158 0.0000000000000000e+00 0.0000000000000000e+00 0.0000000000000000e+00
159 0.0000000000000000e+00 0.0000000000000000e+00 0.0000000000000000e+00
160 0.0000000000000000e+00 0.0000000000000000e+00 0.0000000000000000e+00
161 0.0000000000000000e+00 0.0000000000000000e+00 0.0000000000000000e+00
162 0.0000000000000000e+00 0.0000000000000000e+00 0.0000000000000000e+00
164 0.0000000000000000e+00 0.0000000000000000e+00 0.0000000000000000e+00
201 0.0000000000000000e+00 0.0000000000000000e+00 0.0000000000000000e+00
204 0.0000000000000000e+00 0.0000000000000000e+00 0.0000000000000000e+00
207 0.0000000000000000e+00 0.0000000000000000e+00 0.0000000000000000e+00
310 0.0000000000000000e+00 0.0000000000000000e+00 0.0000000000000000e+00
312 0.0000000000000000e+00 0.0000000000000000e+00 0.0000000000000000e+00
314 0.0000000000000000e+00 0.0000000000000000e+00 0.0000000000000000e+00
318 0.0000000000000000e+00 0.0000000000000000e+00 0.0000000000000000e+00
320 0.0000000000000000e+00 0.0000000000000000e+00 0.0000000000000000e+00
322 0.0000000000000000e+00 0.0000000000000000e+00 0.0000000000000000e+00
363 0.0000000000000000e+00 0.0000000000000000e+00 0.0000000000000000e+00
365 0.0000000000000000e+00 0.0000000000000000e+00 0.0000000000000000e+00
366 0.0000000000000000e+00 0.0000000000000000e+00 0.0000000000000000e+00
367 0.0000000000000000e+00 0.0000000000000000e+00 0.0000000000000000e+00
369 0.0000000000000000e+00 0.0000000000000000e+00 0.0000000000000000e+00
370 0.0000000000000000e+00 0.0000000000000000e+00 0.0000000000000000e+00
371 0.0000000000000000e+00 0.0000000000000000e+00 0.0000000000000000e+00
372 0.0000000000000000e+00 0.0000000000000000e+00 0.0000000000000000e+00
373 0.0000000000000000e+00 0.0000000000000000e+00 0.0000000000000000e+00
374 0.0000000000000000e+00 0.0000000000000000e+00 0.0000000000000000e+00
375 0.0000000000000000e+00 0.0000000000000000e+00 0.0000000000000000e+00
379 0.0000000000000000e+00 0.0000000000000000e+00 0.0000000000000000e+00
429 0.0000000000000000e+00 0.0000000000000000e+00 0.0000000000000000e+00
710 0.0000000000000000e+00 0.0000000000000000e+00 0.0000000000000000e+00
4 0.0000000000000000e+00 0.0000000000000000e+00 0.0000000000000000e+00
6 0.0000000000000000e+00 0.0000000000000000e+00 0.0000000000000000e+00
13 0.0000000000000000e+00 0.0000000000000000e+00 0.0000000000000000e+00
14 0.0000000000000000e+00 0.0000000000000000e+00 0.0000000000000000e+00
15 0.0000000000000000e+00 0.0000000000000000e+00 0.0000000000000000e+00
16 0.0000000000000000e+00 0.0000000000000000e+00 0.0000000000000000e+00
17 0.0000000000000000e+00 0.0000000000000000e+00 0.0000000000000000e+00
18 0.0000000000000000e+00 0.0000000000000000e+00 0.0000000000000000e+00
20 0.0000000000000000e+00 0.0000000000000000e+00 0.0000000000000000e+00
22 0.0000000000000000e+00 0.0000000000000000e+00 0.0000000000000000e+00
24 0.0000000000000000e+00 0.0000000000000000e+00 0.0000000000000000e+00
25 0.0000000000000000e+00 0.0000000000000000e+00 0.0000000000000000e+00
27 0.0000000000000000e+00 0.0000000000000000e+00 0.0000000000000000e+00
28 0.0000000000000000e+00 0.0000000000000000e+00 0.0000000000000000e+00
29 0.0000000000000000e+00 0.0000000000000000e+00 0.0000000000000000e+00
30 0.0000000000000000e+00 0.0000000000000000e+00 0.0000000000000000e+00
31 0.0000000000000000e+00 0.0000000000000000e+00 0.0000000000000000e+00
32 0.0000000000000000e+00 0.0000000000000000e+00 0.0000000000000000e+00
33 0.0000000000000000e+00 0.0000000000000000e+00 0.0000000000000000e+00
34 0.0000000000000000e+00 0.0000000000000000e+00 0.0000000000000000e+00
35 0.0000000000000000e+00 0.0000000000000000e+00 0.0000000000000000e+00
36 0.0000000000000000e+00 0.0000000000000000e+00 0.0000000000000000e+00
37 0.0000000000000000e+00 0.0000000000000000e+00 0.0000000000000000e+00
38 0.0000000000000000e+00 0.0000000000000000e+00 0.0000000000000000e+00
39 0.0000000000000000e+00 0.0000000000000000e+00 0.0000000000000000e+00
40 0.0000000000000000e+00 0.0000000000000000e+00 0.0000000000000000e+00
41 0.0000000000000000e+00 0.0000000000000000e+00 0.0000000000000000e+00
42 0.0000000000000000e+00 0.0000000000000000e+00 0.0000000000000000e+00
43 0.0000000000000000e+00 0.0000000000000000e+00 0.0000000000000000e+00
44 0.0000000000000000e+00 0.0000000000000000e+00 0.0000000000000000e+00
59 0.0000000000000000e+00 0.0000000000000000e+00 0.0000000000000000e+00
62 0.0000000000000000e+00 0.0000000000000000e+00 0.0000000000000000e+00
65 0.0000000000000000e+00 0.0000000000000000e+00 0.0000000000000000e+00
86 0.0000000000000000e+00 0.0000000000000000e+00 0.0000000000000000e+00
89 0.0000000000000000e+00 0.0000000000000000e+00 0.0000000000000000e+00
91 0.0000000000000000e+00 0.0000000000000000e+00 0.0000000000000000e+00
93 0.0000000000000000e+00 0.0000000000000000e+00 0.0000000000000000e+00
97 0.0000000000000000e+00 0.0000000000000000e+00 0.0000000000000000e+00
99 0.0000000000000000e+00 0.0000000000000000e+00 0.0000000000000000e+00
101 0.0000000000000000e+00 0.0000000000000000e+00 0.0000000000000000e+00
105 0.0000000000000000e+00 0.0000000000000000e+00 0.0000000000000000e+00
121 0.0000000000000000e+00 0.0000000000000000e+00 0.0000000000000000e+00
122 0.0000000000000000e+00 0.0000000000000000e+00 0.0000000000000000e+00
123 0.0000000000000000e+00 0.0000000000000000e+00 0.0000000000000000e+00
124 0.0000000000000000e+00 0.0000000000000000e+00 0.0000000000000000e+00
125 0.0000000000000000e+00 0.0000000000000000e+00 0.0000000000000000e+00
126 0.0000000000000000e+00 0.0000000000000000e+00 0.0000000000000000e+00
127 0.0000000000000000e+00 0.0000000000000000e+00 0.0000000000000000e+00
128 0.0000000000000000e+00 0.0000000000000000e+00 0.0000000000000000e+00
129 0.0000000000000000e+00 0.0000000000000000e+00 0.0000000000000000e+00
130 0.0000000000000000e+00 0.0000000000000000e+00 0.0000000000000000e+00
131 0.0000000000000000e+00 0.0000000000000000e+00 0.0000000000000000e+00
132 0.0000000000000000e+00 0.0000000000000000e+00 0.0000000000000000e+00
133 0.0000000000000000e+00 0.0000000000000000e+00 0.0000000000000000e+00
163 0.0000000000000000e+00 0.0000000000000000e+00 0.0000000000000000e+00
165 0.0000000000000000e+00 0.0000000000000000e+00 0.0000000000000000e+00
166 0.0000000000000000e+00 0.0000000000000000e+00 0.0000000000000000e+00
167 0.0000000000000000e+00 0.0000000000000000e+00 0.0000000000000000e+00
171 0.0000000000000000e+00 0.0000000000000000e+00 0.0000000000000000e+00
326 0.0000000000000000e+00 0.0000000000000000e+00 0.0000000000000000e+00
194 0.0000000000000000e+00 0.0000000000000000e+00 0.0000000000000000e+00
483 0.0000000000000000e+00 0.0000000000000000e+00 0.0000000000000000e+00
686 0.0000000000000000e+00 0.0000000000000000e+00 0.0000000000000000e+00
862 0.0000000000000000e+00 0.0000000000000000e+00 0.0000000000000000e+00
863 0.0000000000000000e+00 0.0000000000000000e+00 0.0000000000000000e+00
865 0.0000000000000000e+00 0.0000000000000000e+00 0.0000000000000000e+00
866 0.0000000000000000e+00 0.0000000000000000e+00 0.0000000000000000e+00
868 0.0000000000000000e+00 0.0000000000000000e+00 0.0000000000000000e+00
1288 0.0000000000000000e+00 0.0000000000000000e+00 0.0000000000000000e+00
1290 0.0000000000000000e+00 0.0000000000000000e+00 0.0000000000000000e+00
1291 0.0000000000000000e+00 0.0000000000000000e+00 0.0000000000000000e+00
1293 0.0000000000000000e+00 0.0000000000000000e+00 0.0000000000000000e+00
1294 0.0000000000000000e+00 0.0000000000000000e+00 0.0000000000000000e+00
1296 0.0000000000000000e+00 0.0000000000000000e+00 0.0000000000000000e+00
1297 0.0000000000000000e+00 0.0000000000000000e+00 0.0000000000000000e+00
1332 0.0000000000000000e+00 0.0000000000000000e+00 0.0000000000000000e+00
1333 0.0000000000000000e+00 0.0000000000000000e+00 0.0000000000000000e+00
1388 0.0000000000000000e+00 0.0000000000000000e+00 0.0000000000000000e+00
1390 0.0000000000000000e+00 0.0000000000000000e+00 0.0000000000000000e+00
1411 0.0000000000000000e+00 0.0000000000000000e+00 0.0000000000000000e+00
1412 0.0000000000000000e+00 0.0000000000000000e+00 0.0000000000000000e+00
1413 0.0000000000000000e+00 0.0000000000000000e+00 0.0000000000000000e+00
1454 0.0000000000000000e+00 0.0000000000000000e+00 0.0000000000000000e+00
1461 0.0000000000000000e+00 0.0000000000000000e+00 0.0000000000000000e+00
1464 0.0000000000000000e+00 0.0000000000000000e+00 0.0000000000000000e+00
1465 0.0000000000000000e+00 0.0000000000000000e+00 0.0000000000000000e+00
1469 0.0000000000000000e+00 0.0000000000000000e+00 0.0000000000000000e+00
1472 0.0000000000000000e+00 0.0000000000000000e+00 0.0000000000000000e+00
1511 0.0000000000000000e+00 0.0000000000000000e+00 0.0000000000000000e+00
1561 0.0000000000000000e+00 0.0000000000000000e+00 0.0000000000000000e+00
1599 0.0000000000000000e+00 0.0000000000000000e+00 0.0000000000000000e+00
1603 0.0000000000000000e+00 0.0000000000000000e+00 0.0000000000000000e+00
1665 0.0000000000000000e+00 0.0000000000000000e+00 0.0000000000000000e+00
1666 0.0000000000000000e+00 0.0000000000000000e+00 0.0000000000000000e+00
1704 0.0000000000000000e+00 0.0000000000000000e+00 0.0000000000000000e+00
1705 0.0000000000000000e+00 0.0000000000000000e+00 0.0000000000000000e+00
1706 0.0000000000000000e+00 0.0000000000000000e+00 0.0000000000000000e+00
1708 0.0000000000000000e+00 0.0000000000000000e+00 0.0000000000000000e+00
1709 0.0000000000000000e+00 0.0000000000000000e+00 0.0000000000000000e+00
1710 0.0000000000000000e+00 0.0000000000000000e+00 0.0000000000000000e+00
1711 0.0000000000000000e+00 0.0000000000000000e+00 0.0000000000000000e+00
1712 0.0000000000000000e+00 0.0000000000000000e+00 0.0000000000000000e+00
1713 0.0000000000000000e+00 0.0000000000000000e+00 0.0000000000000000e+00
1714 0.0000000000000000e+00 0.0000000000000000e+00 0.0000000000000000e+00
1716 0.0000000000000000e+00 0.0000000000000000e+00 0.0000000000000000e+00
1720 0.0000000000000000e+00 0.0000000000000000e+00 0.0000000000000000e+00
1758 0.0000000000000000e+00 0.0000000000000000e+00 0.0000000000000000e+00
1759 0.0000000000000000e+00 0.0000000000000000e+00 0.0000000000000000e+00
1760 0.0000000000000000e+00 0.0000000000000000e+00 0.0000000000000000e+00
1761 0.0000000000000000e+00 0.0000000000000000e+00 0.0000000000000000e+00
1762 0.0000000000000000e+00 0.0000000000000000e+00 0.0000000000000000e+00
1763 0.0000000000000000e+00 0.0000000000000000e+00 0.0000000000000000e+00
1764 0.0000000000000000e+00 0.0000000000000000e+00 0.0000000000000000e+00
1765 0.0000000000000000e+00 0.0000000000000000e+00 0.0000000000000000e+00
1766 0.0000000000000000e+00 0.0000000000000000e+00 0.0000000000000000e+00
1767 0.0000000000000000e+00 0.0000000000000000e+00 0.0000000000000000e+00
1768 0.0000000000000000e+00 0.0000000000000000e+00 0.0000000000000000e+00
1769 0.0000000000000000e+00 0.0000000000000000e+00 0.0000000000000000e+00
1770 0.0000000000000000e+00 0.0000000000000000e+00 0.0000000000000000e+00
1771 0.0000000000000000e+00 0.0000000000000000e+00 0.0000000000000000e+00
1772 0.0000000000000000e+00 0.0000000000000000e+00 0.0000000000000000e+00
1773 0.0000000000000000e+00 0.0000000000000000e+00 0.0000000000000000e+00
1774 0.0000000000000000e+00 0.0000000000000000e+00 0.0000000000000000e+00
1775 0.0000000000000000e+00 0.0000000000000000e+00 0.0000000000000000e+00
969 0.0000000000000000e+00 0.0000000000000000e+00 0.0000000000000000e+00
1017 0.0000000000000000e+00 0.0000000000000000e+00 0.0000000000000000e+00
1018 0.0000000000000000e+00 0.0000000000000000e+00 0.0000000000000000e+00
1021 0.0000000000000000e+00 0.0000000000000000e+00 0.0000000000000000e+00
1022 0.0000000000000000e+00 0.0000000000000000e+00 0.0000000000000000e+00
1025 0.0000000000000000e+00 0.0000000000000000e+00 0.0000000000000000e+00
1026 0.0000000000000000e+00 0.0000000000000000e+00 0.0000000000000000e+00
1110 0.0000000000000000e+00 0.0000000000000000e+00 0.0000000000000000e+00
1318 0.0000000000000000e+00 0.0000000000000000e+00 0.0000000000000000e+00
1361 0.0000000000000000e+00 0.0000000000000000e+00 0.0000000000000000e+00
1362 0.0000000000000000e+00 0.0000000000000000e+00 0.0000000000000000e+00
1363 0.0000000000000000e+00 0.0000000000000000e+00 0.0000000000000000e+00
1365 0.0000000000000000e+00 0.0000000000000000e+00 0.0000000000000000e+00
1366 0.0000000000000000e+00 0.0000000000000000e+00 0.0000000000000000e+00
1367 0.0000000000000000e+00 0.0000000000000000e+00 0.0000000000000000e+00
1368 0.0000000000000000e+00 0.0000000000000000e+00 0.0000000000000000e+00
1369 0.0000000000000000e+00 0.0000000000000000e+00 0.0000000000000000e+00
1370 0.0000000000000000e+00 0.0000000000000000e+00 0.0000000000000000e+00
1371 0.0000000000000000e+00 0.0000000000000000e+00 0.0000000000000000e+00
1415 0.0000000000000000e+00 0.0000000000000000e+00 0.0000000000000000e+00
1416 0.0000000000000000e+00 0.0000000000000000e+00 0.0000000000000000e+00
1417 0.0000000000000000e+00 0.0000000000000000e+00 0.0000000000000000e+00
1418 0.0000000000000000e+00 0.0000000000000000e+00 0.0000000000000000e+00
1419 0.0000000000000000e+00 0.0000000000000000e+00 0.0000000000000000e+00
1420 0.0000000000000000e+00 0.0000000000000000e+00 0.0000000000000000e+00
1421 0.0000000000000000e+00 0.0000000000000000e+00 0.0000000000000000e+00
1422 0.0000000000000000e+00 0.0000000000000000e+00 0.0000000000000000e+00
1423 0.0000000000000000e+00 0.0000000000000000e+00 0.0000000000000000e+00
1424 0.0000000000000000e+00 0.0000000000000000e+00 0.0000000000000000e+00
1425 0.0000000000000000e+00 0.0000000000000000e+00 0.0000000000000000e+00
1426 0.0000000000000000e+00 0.0000000000000000e+00 0.0000000000000000e+00
1427 0.0000000000000000e+00 0.0000000000000000e+00 0.0000000000000000e+00
1428 0.0000000000000000e+00 0.0000000000000000e+00 0.0000000000000000e+00
1429 0.0000000000000000e+00 0.0000000000000000e+00 0.0000000000000000e+00
1431 0.0000000000000000e+00 0.0000000000000000e+00 0.0000000000000000e+00
1473 0.0000000000000000e+00 0.0000000000000000e+00 0.0000000000000000e+00
1477 0.0000000000000000e+00 0.0000000000000000e+00 0.0000000000000000e+00
1480 0.0000000000000000e+00 0.0000000000000000e+00 0.0000000000000000e+00
1481 0.0000000000000000e+00 0.0000000000000000e+00 0.0000000000000000e+00
1668 0.0000000000000000e+00 0.0000000000000000e+00 0.0000000000000000e+00
1669 0.0000000000000000e+00 0.0000000000000000e+00 0.0000000000000000e+00
1670 0.0000000000000000e+00 0.0000000000000000e+00 0.0000000000000000e+00
1671 0.0000000000000000e+00 0.0000000000000000e+00 0.0000000000000000e+00
1672 0.0000000000000000e+00 0.0000000000000000e+00 0.0000000000000000e+00
1673 0.0000000000000000e+00 0.0000000000000000e+00 0.0000000000000000e+00
1674 0.0000000000000000e+00 0.0000000000000000e+00 0.0000000000000000e+00
1675 0.0000000000000000e+00 0.0000000000000000e+00 0.0000000000000000e+00
1676 0.0000000000000000e+00 0.0000000000000000e+00 0.0000000000000000e+00
1677 0.0000000000000000e+00 0.0000000000000000e+00 0.0000000000000000e+00
1678 0.0000000000000000e+00 0.0000000000000000e+00 0.0000000000000000e+00
1680 0.0000000000000000e+00 0.0000000000000000e+00 0.0000000000000000e+00
1715 0.0000000000000000e+00 0.0000000000000000e+00 0.0000000000000000e+00
1717 0.0000000000000000e+00 0.0000000000000000e+00 0.0000000000000000e+00
1718 0.0000000000000000e+00 0.0000000000000000e+00 0.0000000000000000e+00
1719 0.0000000000000000e+00 0.0000000000000000e+00 0.0000000000000000e+00
1721 0.0000000000000000e+00 0.0000000000000000e+00 0.0000000000000000e+00
1722 0.0000000000000000e+00 0.0000000000000000e+00 0.0000000000000000e+00
1723 0.0000000000000000e+00 0.0000000000000000e+00 0.0000000000000000e+00
1724 0.0000000000000000e+00 0.0000000000000000e+00 0.0000000000000000e+00
1725 0.0000000000000000e+00 0.0000000000000000e+00 0.0000000000000000e+00
1726 0.0000000000000000e+00 0.0000000000000000e+00 0.0000000000000000e+00
1727 0.0000000000000000e+00 0.0000000000000000e+00 0.0000000000000000e+00
1731 0.0000000000000000e+00 0.0000000000000000e+00 0.0000000000000000e+00
1779 0.0000000000000000e+00 0.0000000000000000e+00 0.0000000000000000e+00
576 0.0000000000000000e+00 0.0000000000000000e+00 0.0000000000000000e+00
577 0.0000000000000000e+00 0.0000000000000000e+00 0.0000000000000000e+00
581 0.0000000000000000e+00 0.0000000000000000e+00 0.0000000000000000e+00
935 0.0000000000000000e+00 0.0000000000000000e+00 0.0000000000000000e+00
936 0.0000000000000000e+00 0.0000000000000000e+00 0.0000000000000000e+00
937 0.0000000000000000e+00 0.0000000000000000e+00 0.0000000000000000e+00
939 0.0000000000000000e+00 0.0000000000000000e+00 0.0000000000000000e+00
941 0.0000000000000000e+00 0.0000000000000000e+00 0.0000000000000000e+00
970 0.0000000000000000e+00 0.0000000000000000e+00 0.0000000000000000e+00
971 0.0000000000000000e+00 0.0000000000000000e+00 0.0000000000000000e+00
973 0.0000000000000000e+00 0.0000000000000000e+00 0.0000000000000000e+00
974 0.0000000000000000e+00 0.0000000000000000e+00 0.0000000000000000e+00
975 0.0000000000000000e+00 0.0000000000000000e+00 0.0000000000000000e+00
976 0.0000000000000000e+00 0.0000000000000000e+00 0.0000000000000000e+00
977 0.0000000000000000e+00 0.0000000000000000e+00 0.0000000000000000e+00
978 0.0000000000000000e+00 0.0000000000000000e+00 0.0000000000000000e+00
979 0.0000000000000000e+00 0.0000000000000000e+00 0.0000000000000000e+00
980 0.0000000000000000e+00 0.0000000000000000e+00 0.0000000000000000e+00
981 0.0000000000000000e+00 0.0000000000000000e+00 0.0000000000000000e+00
982 0.0000000000000000e+00 0.0000000000000000e+00 0.0000000000000000e+00
983 0.0000000000000000e+00 0.0000000000000000e+00 0.0000000000000000e+00
984 0.0000000000000000e+00 0.0000000000000000e+00 0.0000000000000000e+00
985 0.0000000000000000e+00 0.0000000000000000e+00 0.0000000000000000e+00
986 0.0000000000000000e+00 0.0000000000000000e+00 0.0000000000000000e+00
987 0.0000000000000000e+00 0.0000000000000000e+00 0.0000000000000000e+00
1028 0.0000000000000000e+00 0.0000000000000000e+00 0.0000000000000000e+00
1029 0.0000000000000000e+00 0.0000000000000000e+00 0.0000000000000000e+00
1030 0.0000000000000000e+00 0.0000000000000000e+00 0.0000000000000000e+00
1033 0.0000000000000000e+00 0.0000000000000000e+00 0.0000000000000000e+00
1034 0.0000000000000000e+00 0.0000000000000000e+00 0.0000000000000000e+00
1036 0.0000000000000000e+00 0.0000000000000000e+00 0.0000000000000000e+00
1037 0.0000000000000000e+00 0.0000000000000000e+00 0.0000000000000000e+00
1038 0.0000000000000000e+00 0.0000000000000000e+00 0.0000000000000000e+00
1319 0.0000000000000000e+00 0.0000000000000000e+00 0.0000000000000000e+00
1321 0.0000000000000000e+00 0.0000000000000000e+00 0.0000000000000000e+00
1322 0.0000000000000000e+00 0.0000000000000000e+00 0.0000000000000000e+00
1323 0.0000000000000000e+00 0.0000000000000000e+00 0.0000000000000000e+00
1324 0.0000000000000000e+00 0.0000000000000000e+00 0.0000000000000000e+00
1325 0.0000000000000000e+00 0.0000000000000000e+00 0.0000000000000000e+00
1326 0.0000000000000000e+00 0.0000000000000000e+00 0.0000000000000000e+00
1327 0.0000000000000000e+00 0.0000000000000000e+00 0.0000000000000000e+00
1328 0.0000000000000000e+00 0.0000000000000000e+00 0.0000000000000000e+00
1329 0.0000000000000000e+00 0.0000000000000000e+00 0.0000000000000000e+00
1330 0.0000000000000000e+00 0.0000000000000000e+00 0.0000000000000000e+00
1331 0.0000000000000000e+00 0.0000000000000000e+00 0.0000000000000000e+00
1372 0.0000000000000000e+00 0.0000000000000000e+00 0.0000000000000000e+00
1373 0.0000000000000000e+00 0.0000000000000000e+00 0.0000000000000000e+00
1374 0.0000000000000000e+00 0.0000000000000000e+00 0.0000000000000000e+00
1375 0.0000000000000000e+00 0.0000000000000000e+00 0.0000000000000000e+00
1376 0.0000000000000000e+00 0.0000000000000000e+00 0.0000000000000000e+00
1377 0.0000000000000000e+00 0.0000000000000000e+00 0.0000000000000000e+00
1378 0.0000000000000000e+00 0.0000000000000000e+00 0.0000000000000000e+00
1379 0.0000000000000000e+00 0.0000000000000000e+00 0.0000000000000000e+00
1380 0.0000000000000000e+00 0.0000000000000000e+00 0.0000000000000000e+00
1381 0.0000000000000000e+00 0.0000000000000000e+00 0.0000000000000000e+00
1382 0.0000000000000000e+00 0.0000000000000000e+00 0.0000000000000000e+00
1383 0.0000000000000000e+00 0.0000000000000000e+00 0.0000000000000000e+00
1384 0.0000000000000000e+00 0.0000000000000000e+00 0.0000000000000000e+00
1430 0.0000000000000000e+00 0.0000000000000000e+00 0.0000000000000000e+00
1432 0.0000000000000000e+00 0.0000000000000000e+00 0.0000000000000000e+00
1433 0.0000000000000000e+00 0.0000000000000000e+00 0.0000000000000000e+00
1434 0.0000000000000000e+00 0.0000000000000000e+00 0.0000000000000000e+00
1438 0.0000000000000000e+00 0.0000000000000000e+00 0.0000000000000000e+00
1679 0.0000000000000000e+00 0.0000000000000000e+00 0.0000000000000000e+00
1681 0.0000000000000000e+00 0.0000000000000000e+00 0.0000000000000000e+00
1682 0.0000000000000000e+00 0.0000000000000000e+00 0.0000000000000000e+00
1685 0.0000000000000000e+00 0.0000000000000000e+00 0.0000000000000000e+00
7 0.0000000000000000e+00 0.0000000000000000e+00 0.0000000000000000e+00
707 0.0000000000000000e+00 0.0000000000000000e+00 0.0000000000000000e+00
708 0.0000000000000000e+00 0.0000000000000000e+00 0.0000000000000000e+00
1067 0.0000000000000000e+00 0.0000000000000000e+00 0.0000000000000000e+00
1068 0.0000000000000000e+00 0.0000000000000000e+00 0.0000000000000000e+00
1069 0.0000000000000000e+00 0.0000000000000000e+00 0.0000000000000000e+00
1116 0.0000000000000000e+00 0.0000000000000000e+00 0.0000000000000000e+00
1117 0.0000000000000000e+00 0.0000000000000000e+00 0.0000000000000000e+00
1118 0.0000000000000000e+00 0.0000000000000000e+00 0.0000000000000000e+00
1120 0.0000000000000000e+00 0.0000000000000000e+00 0.0000000000000000e+00
1121 0.0000000000000000e+00 0.0000000000000000e+00 0.0000000000000000e+00
1122 0.0000000000000000e+00 0.0000000000000000e+00 0.0000000000000000e+00
1123 0.0000000000000000e+00 0.0000000000000000e+00 0.0000000000000000e+00
1124 0.0000000000000000e+00 0.0000000000000000e+00 0.0000000000000000e+00
1125 0.0000000000000000e+00 0.0000000000000000e+00 0.0000000000000000e+00
1126 0.0000000000000000e+00 0.0000000000000000e+00 0.0000000000000000e+00
1128 0.0000000000000000e+00 0.0000000000000000e+00 0.0000000000000000e+00
1132 0.0000000000000000e+00 0.0000000000000000e+00 0.0000000000000000e+00
1170 0.0000000000000000e+00 0.0000000000000000e+00 0.0000000000000000e+00
1172 0.0000000000000000e+00 0.0000000000000000e+00 0.0000000000000000e+00
1173 0.0000000000000000e+00 0.0000000000000000e+00 0.0000000000000000e+00
1175 0.0000000000000000e+00 0.0000000000000000e+00 0.0000000000000000e+00
1177 0.0000000000000000e+00 0.0000000000000000e+00 0.0000000000000000e+00
1179 0.0000000000000000e+00 0.0000000000000000e+00 0.0000000000000000e+00
1180 0.0000000000000000e+00 0.0000000000000000e+00 0.0000000000000000e+00
1181 0.0000000000000000e+00 0.0000000000000000e+00 0.0000000000000000e+00
1183 0.0000000000000000e+00 0.0000000000000000e+00 0.0000000000000000e+00
1185 0.0000000000000000e+00 0.0000000000000000e+00 0.0000000000000000e+00
1187 0.0000000000000000e+00 0.0000000000000000e+00 0.0000000000000000e+00
1258 0.0000000000000000e+00 0.0000000000000000e+00 0.0000000000000000e+00
1460 0.0000000000000000e+00 0.0000000000000000e+00 0.0000000000000000e+00
1462 0.0000000000000000e+00 0.0000000000000000e+00 0.0000000000000000e+00
1466 0.0000000000000000e+00 0.0000000000000000e+00 0.0000000000000000e+00
1467 0.0000000000000000e+00 0.0000000000000000e+00 0.0000000000000000e+00
1468 0.0000000000000000e+00 0.0000000000000000e+00 0.0000000000000000e+00
1470 0.0000000000000000e+00 0.0000000000000000e+00 0.0000000000000000e+00
1476 0.0000000000000000e+00 0.0000000000000000e+00 0.0000000000000000e+00
1515 0.0000000000000000e+00 0.0000000000000000e+00 0.0000000000000000e+00
1516 0.0000000000000000e+00 0.0000000000000000e+00 0.0000000000000000e+00
1517 0.0000000000000000e+00 0.0000000000000000e+00 0.0000000000000000e+00
1518 0.0000000000000000e+00 0.0000000000000000e+00 0.0000000000000000e+00
1519 0.0000000000000000e+00 0.0000000000000000e+00 0.0000000000000000e+00
1520 0.0000000000000000e+00 0.0000000000000000e+00 0.0000000000000000e+00
1521 0.0000000000000000e+00 0.0000000000000000e+00 0.0000000000000000e+00
1522 0.0000000000000000e+00 0.0000000000000000e+00 0.0000000000000000e+00
1523 0.0000000000000000e+00 0.0000000000000000e+00 0.0000000000000000e+00
1524 0.0000000000000000e+00 0.0000000000000000e+00 0.0000000000000000e+00
1525 0.0000000000000000e+00 0.0000000000000000e+00 0.0000000000000000e+00
1526 0.0000000000000000e+00 0.0000000000000000e+00 0.0000000000000000e+00
1527 0.0000000000000000e+00 0.0000000000000000e+00 0.0000000000000000e+00
1528 0.0000000000000000e+00 0.0000000000000000e+00 0.0000000000000000e+00
1529 0.0000000000000000e+00 0.0000000000000000e+00 0.0000000000000000e+00
1530 0.0000000000000000e+00 0.0000000000000000e+00 0.0000000000000000e+00
1531 0.0000000000000000e+00 0.0000000000000000e+00 0.0000000000000000e+00
1532 0.0000000000000000e+00 0.0000000000000000e+00 0.0000000000000000e+00
1565 0.0000000000000000e+00 0.0000000000000000e+00 0.0000000000000000e+00
1566 0.0000000000000000e+00 0.0000000000000000e+00 0.0000000000000000e+00
1567 0.0000000000000000e+00 0.0000000000000000e+00 0.0000000000000000e+00
1568 0.0000000000000000e+00 0.0000000000000000e+00 0.0000000000000000e+00
1569 0.0000000000000000e+00 0.0000000000000000e+00 0.0000000000000000e+00
1570 0.0000000000000000e+00 0.0000000000000000e+00 0.0000000000000000e+00
1574 0.0000000000000000e+00 0.0000000000000000e+00 0.0000000000000000e+00
1627 0.0000000000000000e+00 0.0000000000000000e+00 0.0000000000000000e+00
609 0.0000000000000000e+00 0.0000000000000000e+00 0.0000000000000000e+00
657 0.0000000000000000e+00 0.0000000000000000e+00 0.0000000000000000e+00
658 0.0000000000000000e+00 0.0000000000000000e+00 0.0000000000000000e+00
659 0.0000000000000000e+00 0.0000000000000000e+00 0.0000000000000000e+00
661 0.0000000000000000e+00 0.0000000000000000e+00 0.0000000000000000e+00
662 0.0000000000000000e+00 0.0000000000000000e+00 0.0000000000000000e+00
663 0.0000000000000000e+00 0.0000000000000000e+00 0.0000000000000000e+00
664 0.0000000000000000e+00 0.0000000000000000e+00 0.0000000000000000e+00
665 0.0000000000000000e+00 0.0000000000000000e+00 0.0000000000000000e+00
666 0.0000000000000000e+00 0.0000000000000000e+00 0.0000000000000000e+00
667 0.0000000000000000e+00 0.0000000000000000e+00 0.0000000000000000e+00
712 0.0000000000000000e+00 0.0000000000000000e+00 0.0000000000000000e+00
714 0.0000000000000000e+00 0.0000000000000000e+00 0.0000000000000000e+00
715 0.0000000000000000e+00 0.0000000000000000e+00 0.0000000000000000e+00
716 0.0000000000000000e+00 0.0000000000000000e+00 0.0000000000000000e+00
720 0.0000000000000000e+00 0.0000000000000000e+00 0.0000000000000000e+00
722 0.0000000000000000e+00 0.0000000000000000e+00 0.0000000000000000e+00
723 0.0000000000000000e+00 0.0000000000000000e+00 0.0000000000000000e+00
724 0.0000000000000000e+00 0.0000000000000000e+00 0.0000000000000000e+00
1019 0.0000000000000000e+00 0.0000000000000000e+00 0.0000000000000000e+00
1023 0.0000000000000000e+00 0.0000000000000000e+00 0.0000000000000000e+00
1024 0.0000000000000000e+00 0.0000000000000000e+00 0.0000000000000000e+00
1027 0.0000000000000000e+00 0.0000000000000000e+00 0.0000000000000000e+00
1071 0.0000000000000000e+00 0.0000000000000000e+00 0.0000000000000000e+00
1072 0.0000000000000000e+00 0.0000000000000000e+00 0.0000000000000000e+00
1073 0.0000000000000000e+00 0.0000000000000000e+00 0.0000000000000000e+00
1074 0.0000000000000000e+00 0.0000000000000000e+00 0.0000000000000000e+00
1075 0.0000000000000000e+00 0.0000000000000000e+00 0.0000000000000000e+00
1076 0.0000000000000000e+00 0.0000000000000000e+00 0.0000000000000000e+00
1077 0.0000000000000000e+00 0.0000000000000000e+00 0.0000000000000000e+00
1078 0.0000000000000000e+00 0.0000000000000000e+00 0.0000000000000000e+00
1079 0.0000000000000000e+00 0.0000000000000000e+00 0.0000000000000000e+00
1080 0.0000000000000000e+00 0.0000000000000000e+00 0.0000000000000000e+00
1081 0.0000000000000000e+00 0.0000000000000000e+00 0.0000000000000000e+00
1082 0.0000000000000000e+00 0.0000000000000000e+00 0.0000000000000000e+00
1083 0.0000000000000000e+00 0.0000000000000000e+00 0.0000000000000000e+00
1084 0.0000000000000000e+00 0.0000000000000000e+00 0.0000000000000000e+00
1085 0.0000000000000000e+00 0.0000000000000000e+00 0.0000000000000000e+00
1087 0.0000000000000000e+00 0.0000000000000000e+00 0.0000000000000000e+00
1127 0.0000000000000000e+00 0.0000000000000000e+00 0.0000000000000000e+00
1129 0.0000000000000000e+00 0.0000000000000000e+00 0.0000000000000000e+00
1130 0.0000000000000000e+00 0.0000000000000000e+00 0.0000000000000000e+00
1131 0.0000000000000000e+00 0.0000000000000000e+00 0.0000000000000000e+00
1133 0.0000000000000000e+00 0.0000000000000000e+00 0.0000000000000000e+00
1134 0.0000000000000000e+00 0.0000000000000000e+00 0.0000000000000000e+00
1135 0.0000000000000000e+00 0.0000000000000000e+00 0.0000000000000000e+00
1136 0.0000000000000000e+00 0.0000000000000000e+00 0.0000000000000000e+00
1137 0.0000000000000000e+00 0.0000000000000000e+00 0.0000000000000000e+00
1138 0.0000000000000000e+00 0.0000000000000000e+00 0.0000000000000000e+00
1139 0.0000000000000000e+00 0.0000000000000000e+00 0.0000000000000000e+00
1143 0.0000000000000000e+00 0.0000000000000000e+00 0.0000000000000000e+00
1191 0.0000000000000000e+00 0.0000000000000000e+00 0.0000000000000000e+00
1471 0.0000000000000000e+00 0.0000000000000000e+00 0.0000000000000000e+00
1474 0.0000000000000000e+00 0.0000000000000000e+00 0.0000000000000000e+00
1475 0.0000000000000000e+00 0.0000000000000000e+00 0.0000000000000000e+00
1478 0.0000000000000000e+00 0.0000000000000000e+00 0.0000000000000000e+00
1479 0.0000000000000000e+00 0.0000000000000000e+00 0.0000000000000000e+00
1482 0.0000000000000000e+00 0.0000000000000000e+00 0.0000000000000000e+00
1483 0.0000000000000000e+00 0.0000000000000000e+00 0.0000000000000000e+00
1487 0.0000000000000000e+00 0.0000000000000000e+00 0.0000000000000000e+00
1536 0.0000000000000000e+00 0.0000000000000000e+00 0.0000000000000000e+00
295 0.0000000000000000e+00 0.0000000000000000e+00 0.0000000000000000e+00
296 0.0000000000000000e+00 0.0000000000000000e+00 0.0000000000000000e+00
297 0.0000000000000000e+00 0.0000000000000000e+00 0.0000000000000000e+00
299 0.0000000000000000e+00 0.0000000000000000e+00 0.0000000000000000e+00
300 0.0000000000000000e+00 0.0000000000000000e+00 0.0000000000000000e+00
329 0.0000000000000000e+00 0.0000000000000000e+00 0.0000000000000000e+00
332 0.0000000000000000e+00 0.0000000000000000e+00 0.0000000000000000e+00
333 0.0000000000000000e+00 0.0000000000000000e+00 0.0000000000000000e+00
335 0.0000000000000000e+00 0.0000000000000000e+00 0.0000000000000000e+00
337 0.0000000000000000e+00 0.0000000000000000e+00 0.0000000000000000e+00
339 0.0000000000000000e+00 0.0000000000000000e+00 0.0000000000000000e+00
340 0.0000000000000000e+00 0.0000000000000000e+00 0.0000000000000000e+00
341 0.0000000000000000e+00 0.0000000000000000e+00 0.0000000000000000e+00
343 0.0000000000000000e+00 0.0000000000000000e+00 0.0000000000000000e+00
345 0.0000000000000000e+00 0.0000000000000000e+00 0.0000000000000000e+00
578 0.0000000000000000e+00 0.0000000000000000e+00 0.0000000000000000e+00
579 0.0000000000000000e+00 0.0000000000000000e+00 0.0000000000000000e+00
610 0.0000000000000000e+00 0.0000000000000000e+00 0.0000000000000000e+00
611 0.0000000000000000e+00 0.0000000000000000e+00 0.0000000000000000e+00
613 0.0000000000000000e+00 0.0000000000000000e+00 0.0000000000000000e+00
614 0.0000000000000000e+00 0.0000000000000000e+00 0.0000000000000000e+00
615 0.0000000000000000e+00 0.0000000000000000e+00 0.0000000000000000e+00
616 0.0000000000000000e+00 0.0000000000000000e+00 0.0000000000000000e+00
617 0.0000000000000000e+00 0.0000000000000000e+00 0.0000000000000000e+00
618 0.0000000000000000e+00 0.0000000000000000e+00 0.0000000000000000e+00
619 0.0000000000000000e+00 0.0000000000000000e+00 0.0000000000000000e+00
620 0.0000000000000000e+00 0.0000000000000000e+00 0.0000000000000000e+00
621 0.0000000000000000e+00 0.0000000000000000e+00 0.0000000000000000e+00
622 0.0000000000000000e+00 0.0000000000000000e+00 0.0000000000000000e+00
623 0.0000000000000000e+00 0.0000000000000000e+00 0.0000000000000000e+00
624 0.0000000000000000e+00 0.0000000000000000e+00 0.0000000000000000e+00
625 0.0000000000000000e+00 0.0000000000000000e+00 0.0000000000000000e+00
626 0.0000000000000000e+00 0.0000000000000000e+00 0.0000000000000000e+00
627 0.0000000000000000e+00 0.0000000000000000e+00 0.0000000000000000e+00
668 0.0000000000000000e+00 0.0000000000000000e+00 0.0000000000000000e+00
669 0.0000000000000000e+00 0.0000000000000000e+00 0.0000000000000000e+00
670 0.0000000000000000e+00 0.0000000000000000e+00 0.0000000000000000e+00
671 0.0000000000000000e+00 0.0000000000000000e+00 0.0000000000000000e+00
672 0.0000000000000000e+00 0.0000000000000000e+00 0.0000000000000000e+00
673 0.0000000000000000e+00 0.0000000000000000e+00 0.0000000000000000e+00
674 0.0000000000000000e+00 0.0000000000000000e+00 0.0000000000000000e+00
675 0.0000000000000000e+00 0.0000000000000000e+00 0.0000000000000000e+00
676 0.0000000000000000e+00 0.0000000000000000e+00 0.0000000000000000e+00
677 0.0000000000000000e+00 0.0000000000000000e+00 0.0000000000000000e+00
678 0.0000000000000000e+00 0.0000000000000000e+00 0.0000000000000000e+00
679 0.0000000000000000e+00 0.0000000000000000e+00 0.0000000000000000e+00
680 0.0000000000000000e+00 0.0000000000000000e+00 0.0000000000000000e+00
728 0.0000000000000000e+00 0.0000000000000000e+00 0.0000000000000000e+00
730 0.0000000000000000e+00 0.0000000000000000e+00 0.0000000000000000e+00
1031 0.0000000000000000e+00 0.0000000000000000e+00 0.0000000000000000e+00
1032 0.0000000000000000e+00 0.0000000000000000e+00 0.0000000000000000e+00
1035 0.0000000000000000e+00 0.0000000000000000e+00 0.0000000000000000e+00
1039 0.0000000000000000e+00 0.0000000000000000e+00 0.0000000000000000e+00
1040 0.0000000000000000e+00 0.0000000000000000e+00 0.0000000000000000e+00
1086 0.0000000000000000e+00 0.0000000000000000e+00 0.0000000000000000e+00
1088 0.0000000000000000e+00 0.0000000000000000e+00 0.0000000000000000e+00
1089 0.0000000000000000e+00 0.0000000000000000e+00 0.0000000000000000e+00
1090 0.0000000000000000e+00 0.0000000000000000e+00 0.0000000000000000e+00
1094 0.0000000000000000e+00 0.0000000000000000e+00 0.0000000000000000e+00
426 0.0000000000000000e+00 0.0000000000000000e+00 0.0000000000000000e+00
427 0.0000000000000000e+00 0.0000000000000000e+00 0.0000000000000000e+00
428 0.0000000000000000e+00 0.0000000000000000e+00 0.0000000000000000e+00
476 0.0000000000000000e+00 0.0000000000000000e+00 0.0000000000000000e+00
479 0.0000000000000000e+00 0.0000000000000000e+00 0.0000000000000000e+00
482 0.0000000000000000e+00 0.0000000000000000e+00 0.0000000000000000e+00
709 0.0000000000000000e+00 0.0000000000000000e+00 0.0000000000000000e+00
757 0.0000000000000000e+00 0.0000000000000000e+00 0.0000000000000000e+00
758 0.0000000000000000e+00 0.0000000000000000e+00 0.0000000000000000e+00
759 0.0000000000000000e+00 0.0000000000000000e+00 0.0000000000000000e+00
761 0.0000000000000000e+00 0.0000000000000000e+00 0.0000000000000000e+00
762 0.0000000000000000e+00 0.0000000000000000e+00 0.0000000000000000e+00
763 0.0000000000000000e+00 0.0000000000000000e+00 0.0000000000000000e+00
764 0.0000000000000000e+00 0.0000000000000000e+00 0.0000000000000000e+00
765 0.0000000000000000e+00 0.0000000000000000e+00 0.0000000000000000e+00
766 0.0000000000000000e+00 0.0000000000000000e+00 0.0000000000000000e+00
767 0.0000000000000000e+00 0.0000000000000000e+00 0.0000000000000000e+00
769 0.0000000000000000e+00 0.0000000000000000e+00 0.0000000000000000e+00
773 0.0000000000000000e+00 0.0000000000000000e+00 0.0000000000000000e+00
811 0.0000000000000000e+00 0.0000000000000000e+00 0.0000000000000000e+00
812 0.0000000000000000e+00 0.0000000000000000e+00 0.0000000000000000e+00
813 0.0000000000000000e+00 0.0000000000000000e+00 0.0000000000000000e+00
814 0.0000000000000000e+00 0.0000000000000000e+00 0.0000000000000000e+00
815 0.0000000000000000e+00 0.0000000000000000e+00 0.0000000000000000e+00
816 0.0000000000000000e+00 0.0000000000000000e+00 0.0000000000000000e+00
817 0.0000000000000000e+00 0.0000000000000000e+00 0.0000000000000000e+00
818 0.0000000000000000e+00 0.0000000000000000e+00 0.0000000000000000e+00
819 0.0000000000000000e+00 0.0000000000000000e+00 0.0000000000000000e+00
820 0.0000000000000000e+00 0.0000000000000000e+00 0.0000000000000000e+00
821 0.0000000000000000e+00 0.0000000000000000e+00 0.0000000000000000e+00
822 0.0000000000000000e+00 0.0000000000000000e+00 0.0000000000000000e+00
823 0.0000000000000000e+00 0.0000000000000000e+00 0.0000000000000000e+00
824 0.0000000000000000e+00 0.0000000000000000e+00 0.0000000000000000e+00
825 0.0000000000000000e+00 0.0000000000000000e+00 0.0000000000000000e+00
826 0.0000000000000000e+00 0.0000000000000000e+00 0.0000000000000000e+00
827 0.0000000000000000e+00 0.0000000000000000e+00 0.0000000000000000e+00
828 0.0000000000000000e+00 0.0000000000000000e+00 0.0000000000000000e+00
864 0.0000000000000000e+00 0.0000000000000000e+00 0.0000000000000000e+00
1171 0.0000000000000000e+00 0.0000000000000000e+00 0.0000000000000000e+00
1174 0.0000000000000000e+00 0.0000000000000000e+00 0.0000000000000000e+00
1176 0.0000000000000000e+00 0.0000000000000000e+00 0.0000000000000000e+00
1178 0.0000000000000000e+00 0.0000000000000000e+00 0.0000000000000000e+00
1182 0.0000000000000000e+00 0.0000000000000000e+00 0.0000000000000000e+00
1184 0.0000000000000000e+00 0.0000000000000000e+00 0.0000000000000000e+00
1186 0.0000000000000000e+00 0.0000000000000000e+00 0.0000000000000000e+00
1221 0.0000000000000000e+00 0.0000000000000000e+00 0.0000000000000000e+00
1222 0.0000000000000000e+00 0.0000000000000000e+00 0.0000000000000000e+00
1223 0.0000000000000000e+00 0.0000000000000000e+00 0.0000000000000000e+00
1224 0.0000000000000000e+00 0.0000000000000000e+00 0.0000000000000000e+00
1225 0.0000000000000000e+00 0.0000000000000000e+00 0.0000000000000000e+00
1229 0.0000000000000000e+00 0.0000000000000000e+00 0.0000000000000000e+00
1259 0.0000000000000000e+00 0.0000000000000000e+00 0.0000000000000000e+00
1604 0.0000000000000000e+00 0.0000000000000000e+00 0.0000000000000000e+00
168 0.0000000000000000e+00 0.0000000000000000e+00 0.0000000000000000e+00
210 0.0000000000000000e+00 0.0000000000000000e+00 0.0000000000000000e+00
213 0.0000000000000000e+00 0.0000000000000000e+00 0.0000000000000000e+00
216 0.0000000000000000e+00 0.0000000000000000e+00 0.0000000000000000e+00
328 0.0000000000000000e+00 0.0000000000000000e+00 0.0000000000000000e+00
376 0.0000000000000000e+00 0.0000000000000000e+00 0.0000000000000000e+00
377 0.0000000000000000e+00 0.0000000000000000e+00 0.0000000000000000e+00
378 0.0000000000000000e+00 0.0000000000000000e+00 0.0000000000000000e+00
380 0.0000000000000000e+00 0.0000000000000000e+00 0.0000000000000000e+00
381 0.0000000000000000e+00 0.0000000000000000e+00 0.0000000000000000e+00
382 0.0000000000000000e+00 0.0000000000000000e+00 0.0000000000000000e+00
383 0.0000000000000000e+00 0.0000000000000000e+00 0.0000000000000000e+00
384 0.0000000000000000e+00 0.0000000000000000e+00 0.0000000000000000e+00
385 0.0000000000000000e+00 0.0000000000000000e+00 0.0000000000000000e+00
386 0.0000000000000000e+00 0.0000000000000000e+00 0.0000000000000000e+00
430 0.0000000000000000e+00 0.0000000000000000e+00 0.0000000000000000e+00
431 0.0000000000000000e+00 0.0000000000000000e+00 0.0000000000000000e+00
432 0.0000000000000000e+00 0.0000000000000000e+00 0.0000000000000000e+00
433 0.0000000000000000e+00 0.0000000000000000e+00 0.0000000000000000e+00
434 0.0000000000000000e+00 0.0000000000000000e+00 0.0000000000000000e+00
435 0.0000000000000000e+00 0.0000000000000000e+00 0.0000000000000000e+00
436 0.0000000000000000e+00 0.0000000000000000e+00 0.0000000000000000e+00
437 0.0000000000000000e+00 0.0000000000000000e+00 0.0000000000000000e+00
438 0.0000000000000000e+00 0.0000000000000000e+00 0.0000000000000000e+00
439 0.0000000000000000e+00 0.0000000000000000e+00 0.0000000000000000e+00
440 0.0000000000000000e+00 0.0000000000000000e+00 0.0000000000000000e+00
441 0.0000000000000000e+00 0.0000000000000000e+00 0.0000000000000000e+00
442 0.0000000000000000e+00 0.0000000000000000e+00 0.0000000000000000e+00
443 0.0000000000000000e+00 0.0000000000000000e+00 0.0000000000000000e+00
444 0.0000000000000000e+00 0.0000000000000000e+00 0.0000000000000000e+00
446 0.0000000000000000e+00 0.0000000000000000e+00 0.0000000000000000e+00
485 0.0000000000000000e+00 0.0000000000000000e+00 0.0000000000000000e+00
488 0.0000000000000000e+00 0.0000000000000000e+00 0.0000000000000000e+00
491 0.0000000000000000e+00 0.0000000000000000e+00 0.0000000000000000e+00
711 0.0000000000000000e+00 0.0000000000000000e+00 0.0000000000000000e+00
713 0.0000000000000000e+00 0.0000000000000000e+00 0.0000000000000000e+00
717 0.0000000000000000e+00 0.0000000000000000e+00 0.0000000000000000e+00
718 0.0000000000000000e+00 0.0000000000000000e+00 0.0000000000000000e+00
719 0.0000000000000000e+00 0.0000000000000000e+00 0.0000000000000000e+00
721 0.0000000000000000e+00 0.0000000000000000e+00 0.0000000000000000e+00
725 0.0000000000000000e+00 0.0000000000000000e+00 0.0000000000000000e+00
727 0.0000000000000000e+00 0.0000000000000000e+00 0.0000000000000000e+00
768 0.0000000000000000e+00 0.0000000000000000e+00 0.0000000000000000e+00
770 0.0000000000000000e+00 0.0000000000000000e+00 0.0000000000000000e+00
771 0.0000000000000000e+00 0.0000000000000000e+00 0.0000000000000000e+00
772 0.0000000000000000e+00 0.0000000000000000e+00 0.0000000000000000e+00
774 0.0000000000000000e+00 0.0000000000000000e+00 0.0000000000000000e+00
775 0.0000000000000000e+00 0.0000000000000000e+00 0.0000000000000000e+00
776 0.0000000000000000e+00 0.0000000000000000e+00 0.0000000000000000e+00
777 0.0000000000000000e+00 0.0000000000000000e+00 0.0000000000000000e+00
778 0.0000000000000000e+00 0.0000000000000000e+00 0.0000000000000000e+00
779 0.0000000000000000e+00 0.0000000000000000e+00 0.0000000000000000e+00
780 0.0000000000000000e+00 0.0000000000000000e+00 0.0000000000000000e+00
784 0.0000000000000000e+00 0.0000000000000000e+00 0.0000000000000000e+00
832 0.0000000000000000e+00 0.0000000000000000e+00 0.0000000000000000e+00
68 0.0000000000000000e+00 0.0000000000000000e+00 0.0000000000000000e+00
134 0.0000000000000000e+00 0.0000000000000000e+00 0.0000000000000000e+00
135 0.0000000000000000e+00 0.0000000000000000e+00 0.0000000000000000e+00
136 0.0000000000000000e+00 0.0000000000000000e+00 0.0000000000000000e+00
138 0.0000000000000000e+00 0.0000000000000000e+00 0.0000000000000000e+00
140 0.0000000000000000e+00 0.0000000000000000e+00 0.0000000000000000e+00
169 0.0000000000000000e+00 0.0000000000000000e+00 0.0000000000000000e+00
170 0.0000000000000000e+00 0.0000000000000000e+00 0.0000000000000000e+00
172 0.0000000000000000e+00 0.0000000000000000e+00 0.0000000000000000e+00
173 0.0000000000000000e+00 0.0000000000000000e+00 0.0000000000000000e+00
174 0.0000000000000000e+00 0.0000000000000000e+00 0.0000000000000000e+00
175 0.0000000000000000e+00 0.0000000000000000e+00 0.0000000000000000e+00
176 0.0000000000000000e+00 0.0000000000000000e+00 0.0000000000000000e+00
177 0.0000000000000000e+00 0.0000000000000000e+00 0.0000000000000000e+00
178 0.0000000000000000e+00 0.0000000000000000e+00 0.0000000000000000e+00
179 0.0000000000000000e+00 0.0000000000000000e+00 0.0000000000000000e+00
180 0.0000000000000000e+00 0.0000000000000000e+00 0.0000000000000000e+00
181 0.0000000000000000e+00 0.0000000000000000e+00 0.0000000000000000e+00
182 0.0000000000000000e+00 0.0000000000000000e+00 0.0000000000000000e+00
183 0.0000000000000000e+00 0.0000000000000000e+00 0.0000000000000000e+00
184 0.0000000000000000e+00 0.0000000000000000e+00 0.0000000000000000e+00
185 0.0000000000000000e+00 0.0000000000000000e+00 0.0000000000000000e+00
186 0.0000000000000000e+00 0.0000000000000000e+00 0.0000000000000000e+00
219 0.0000000000000000e+00 0.0000000000000000e+00 0.0000000000000000e+00
222 0.0000000000000000e+00 0.0000000000000000e+00 0.0000000000000000e+00
225 0.0000000000000000e+00 0.0000000000000000e+00 0.0000000000000000e+00
330 0.0000000000000000e+00 0.0000000000000000e+00 0.0000000000000000e+00
334 0.0000000000000000e+00 0.0000000000000000e+00 0.0000000000000000e+00
336 0.0000000000000000e+00 0.0000000000000000e+00 0.0000000000000000e+00
338 0.0000000000000000e+00 0.0000000000000000e+00 0.0000000000000000e+00
342 0.0000000000000000e+00 0.0000000000000000e+00 0.0000000000000000e+00
344 0.0000000000000000e+00 0.0000000000000000e+00 0.0000000000000000e+00
346 0.0000000000000000e+00 0.0000000000000000e+00 0.0000000000000000e+00
387 0.0000000000000000e+00 0.0000000000000000e+00 0.0000000000000000e+00
388 0.0000000000000000e+00 0.0000000000000000e+00 0.0000000000000000e+00
389 0.0000000000000000e+00 0.0000000000000000e+00 0.0000000000000000e+00
390 0.0000000000000000e+00 0.0000000000000000e+00 0.0000000000000000e+00
391 0.0000000000000000e+00 0.0000000000000000e+00 0.0000000000000000e+00
392 0.0000000000000000e+00 0.0000000000000000e+00 0.0000000000000000e+00
393 0.0000000000000000e+00 0.0000000000000000e+00 0.0000000000000000e+00
394 0.0000000000000000e+00 0.0000000000000000e+00 0.0000000000000000e+00
395 0.0000000000000000e+00 0.0000000000000000e+00 0.0000000000000000e+00
396 0.0000000000000000e+00 0.0000000000000000e+00 0.0000000000000000e+00
397 0.0000000000000000e+00 0.0000000000000000e+00 0.0000000000000000e+00
398 0.0000000000000000e+00 0.0000000000000000e+00 0.0000000000000000e+00
399 0.0000000000000000e+00 0.0000000000000000e+00 0.0000000000000000e+00
445 0.0000000000000000e+00 0.0000000000000000e+00 0.0000000000000000e+00
447 0.0000000000000000e+00 0.0000000000000000e+00 0.0000000000000000e+00
448 0.0000000000000000e+00 0.0000000000000000e+00 0.0000000000000000e+00
449 0.0000000000000000e+00 0.0000000000000000e+00 0.0000000000000000e+00
453 0.0000000000000000e+00 0.0000000000000000e+00 0.0000000000000000e+00
726 0.0000000000000000e+00 0.0000000000000000e+00 0.0000000000000000e+00
729 0.0000000000000000e+00 0.0000000000000000e+00 0.0000000000000000e+00
734 0.0000000000000000e+00 0.0000000000000000e+00 0.0000000000000000e+00
5 0.0000000000000000e+00 0.0000000000000000e+00 0.0000000000000000e+00
11 0.0000000000000000e+00 0.0000000000000000e+00 0.0000000000000000e+00
47 0.0000000000000000e+00 0.0000000000000000e+00 0.0000000000000000e+00
54 0.0000000000000000e+00 0.0000000000000000e+00 0.0000000000000000e+00
55 0.0000000000000000e+00 0.0000000000000000e+00 0.0000000000000000e+00
57 0.0000000000000000e+00 0.0000000000000000e+00 0.0000000000000000e+00
58 0.0000000000000000e+00 0.0000000000000000e+00 0.0000000000000000e+00
60 0.0000000000000000e+00 0.0000000000000000e+00 0.0000000000000000e+00
71 0.0000000000000000e+00 0.0000000000000000e+00 0.0000000000000000e+00
72 0.0000000000000000e+00 0.0000000000000000e+00 0.0000000000000000e+00
73 0.0000000000000000e+00 0.0000000000000000e+00 0.0000000000000000e+00
80 0.0000000000000000e+00 0.0000000000000000e+00 0.0000000000000000e+00
82 0.0000000000000000e+00 0.0000000000000000e+00 0.0000000000000000e+00
106 0.0000000000000000e+00 0.0000000000000000e+00 0.0000000000000000e+00
137 0.0000000000000000e+00 0.0000000000000000e+00 0.0000000000000000e+00
139 0.0000000000000000e+00 0.0000000000000000e+00 0.0000000000000000e+00
187 0.0000000000000000e+00 0.0000000000000000e+00 0.0000000000000000e+00
188 0.0000000000000000e+00 0.0000000000000000e+00 0.0000000000000000e+00
189 0.0000000000000000e+00 0.0000000000000000e+00 0.0000000000000000e+00
191 0.0000000000000000e+00 0.0000000000000000e+00 0.0000000000000000e+00
193 0.0000000000000000e+00 0.0000000000000000e+00 0.0000000000000000e+00
211 0.0000000000000000e+00 0.0000000000000000e+00 0.0000000000000000e+00
217 0.0000000000000000e+00 0.0000000000000000e+00 0.0000000000000000e+00
220 0.0000000000000000e+00 0.0000000000000000e+00 0.0000000000000000e+00
223 0.0000000000000000e+00 0.0000000000000000e+00 0.0000000000000000e+00
241 0.0000000000000000e+00 0.0000000000000000e+00 0.0000000000000000e+00
266 0.0000000000000000e+00 0.0000000000000000e+00 0.0000000000000000e+00
267 0.0000000000000000e+00 0.0000000000000000e+00 0.0000000000000000e+00
298 0.0000000000000000e+00 0.0000000000000000e+00 0.0000000000000000e+00
347 0.0000000000000000e+00 0.0000000000000000e+00 0.0000000000000000e+00
348 0.0000000000000000e+00 0.0000000000000000e+00 0.0000000000000000e+00
403 0.0000000000000000e+00 0.0000000000000000e+00 0.0000000000000000e+00
405 0.0000000000000000e+00 0.0000000000000000e+00 0.0000000000000000e+00
469 0.0000000000000000e+00 0.0000000000000000e+00 0.0000000000000000e+00
470 0.0000000000000000e+00 0.0000000000000000e+00 0.0000000000000000e+00
471 0.0000000000000000e+00 0.0000000000000000e+00 0.0000000000000000e+00
472 0.0000000000000000e+00 0.0000000000000000e+00 0.0000000000000000e+00
474 0.0000000000000000e+00 0.0000000000000000e+00 0.0000000000000000e+00
475 0.0000000000000000e+00 0.0000000000000000e+00 0.0000000000000000e+00
477 0.0000000000000000e+00 0.0000000000000000e+00 0.0000000000000000e+00
478 0.0000000000000000e+00 0.0000000000000000e+00 0.0000000000000000e+00
480 0.0000000000000000e+00 0.0000000000000000e+00 0.0000000000000000e+00
481 0.0000000000000000e+00 0.0000000000000000e+00 0.0000000000000000e+00
508 0.0000000000000000e+00 0.0000000000000000e+00 0.0000000000000000e+00
514 0.0000000000000000e+00 0.0000000000000000e+00 0.0000000000000000e+00
516 0.0000000000000000e+00 0.0000000000000000e+00 0.0000000000000000e+00
524 0.0000000000000000e+00 0.0000000000000000e+00 0.0000000000000000e+00
548 0.0000000000000000e+00 0.0000000000000000e+00 0.0000000000000000e+00
580 0.0000000000000000e+00 0.0000000000000000e+00 0.0000000000000000e+00
628 0.0000000000000000e+00 0.0000000000000000e+00 0.0000000000000000e+00
629 0.0000000000000000e+00 0.0000000000000000e+00 0.0000000000000000e+00
684 0.0000000000000000e+00 0.0000000000000000e+00 0.0000000000000000e+00
750 0.0000000000000000e+00 0.0000000000000000e+00 0.0000000000000000e+00
751 0.0000000000000000e+00 0.0000000000000000e+00 0.0000000000000000e+00
809 0.0000000000000000e+00 0.0000000000000000e+00 0.0000000000000000e+00
857 0.0000000000000000e+00 0.0000000000000000e+00 0.0000000000000000e+00
869 0.0000000000000000e+00 0.0000000000000000e+00 0.0000000000000000e+00
1167 0.0000000000000000e+00 0.0000000000000000e+00 0.0000000000000000e+00
1168 0.0000000000000000e+00 0.0000000000000000e+00 0.0000000000000000e+00
1220 0.0000000000000000e+00 0.0000000000000000e+00 0.0000000000000000e+00
1254 0.0000000000000000e+00 0.0000000000000000e+00 0.0000000000000000e+00
1286 0.0000000000000000e+00 0.0000000000000000e+00 0.0000000000000000e+00
1287 0.0000000000000000e+00 0.0000000000000000e+00 0.0000000000000000e+00
1776 0.0000000000000000e+00 0.0000000000000000e+00 0.0000000000000000e+00
1777 0.0000000000000000e+00 0.0000000000000000e+00 0.0000000000000000e+00
1778 0.0000000000000000e+00 0.0000000000000000e+00 0.0000000000000000e+00
61 0.0000000000000000e+00 0.0000000000000000e+00 0.0000000000000000e+00
67 0.0000000000000000e+00 0.0000000000000000e+00 0.0000000000000000e+00
196 0.0000000000000000e+00 0.0000000000000000e+00 0.0000000000000000e+00
203 0.0000000000000000e+00 0.0000000000000000e+00 0.0000000000000000e+00
230 0.0000000000000000e+00 0.0000000000000000e+00 0.0000000000000000e+00
231 0.0000000000000000e+00 0.0000000000000000e+00 0.0000000000000000e+00
489 0.0000000000000000e+00 0.0000000000000000e+00 0.0000000000000000e+00
492 0.0000000000000000e+00 0.0000000000000000e+00 0.0000000000000000e+00
498 0.0000000000000000e+00 0.0000000000000000e+00 0.0000000000000000e+00
499 0.0000000000000000e+00 0.0000000000000000e+00 0.0000000000000000e+00
501 0.0000000000000000e+00 0.0000000000000000e+00 0.0000000000000000e+00
502 0.0000000000000000e+00 0.0000000000000000e+00 0.0000000000000000e+00
504 0.0000000000000000e+00 0.0000000000000000e+00 0.0000000000000000e+00
505 0.0000000000000000e+00 0.0000000000000000e+00 0.0000000000000000e+00
507 0.0000000000000000e+00 0.0000000000000000e+00 0.0000000000000000e+00
510 0.0000000000000000e+00 0.0000000000000000e+00 0.0000000000000000e+00
511 0.0000000000000000e+00 0.0000000000000000e+00 0.0000000000000000e+00
513 0.0000000000000000e+00 0.0000000000000000e+00 0.0000000000000000e+00
515 0.0000000000000000e+00 0.0000000000000000e+00 0.0000000000000000e+00
808 0.0000000000000000e+00 0.0000000000000000e+00 0.0000000000000000e+00
883 0.0000000000000000e+00 0.0000000000000000e+00 0.0000000000000000e+00
886 0.0000000000000000e+00 0.0000000000000000e+00 0.0000000000000000e+00
887 0.0000000000000000e+00 0.0000000000000000e+00 0.0000000000000000e+00
889 0.0000000000000000e+00 0.0000000000000000e+00 0.0000000000000000e+00
890 0.0000000000000000e+00 0.0000000000000000e+00 0.0000000000000000e+00
907 0.0000000000000000e+00 0.0000000000000000e+00 0.0000000000000000e+00
938 0.0000000000000000e+00 0.0000000000000000e+00 0.0000000000000000e+00
940 0.0000000000000000e+00 0.0000000000000000e+00 0.0000000000000000e+00
988 0.0000000000000000e+00 0.0000000000000000e+00 0.0000000000000000e+00
989 0.0000000000000000e+00 0.0000000000000000e+00 0.0000000000000000e+00
1044 0.0000000000000000e+00 0.0000000000000000e+00 0.0000000000000000e+00
1046 0.0000000000000000e+00 0.0000000000000000e+00 0.0000000000000000e+00
1435 0.0000000000000000e+00 0.0000000000000000e+00 0.0000000000000000e+00
1485 0.0000000000000000e+00 0.0000000000000000e+00 0.0000000000000000e+00
1488 0.0000000000000000e+00 0.0000000000000000e+00 0.0000000000000000e+00
1489 0.0000000000000000e+00 0.0000000000000000e+00 0.0000000000000000e+00
1493 0.0000000000000000e+00 0.0000000000000000e+00 0.0000000000000000e+00
1683 0.0000000000000000e+00 0.0000000000000000e+00 0.0000000000000000e+00
1728 0.0000000000000000e+00 0.0000000000000000e+00 0.0000000000000000e+00
1729 0.0000000000000000e+00 0.0000000000000000e+00 0.0000000000000000e+00
1730 0.0000000000000000e+00 0.0000000000000000e+00 0.0000000000000000e+00
1732 0.0000000000000000e+00 0.0000000000000000e+00 0.0000000000000000e+00
1733 0.0000000000000000e+00 0.0000000000000000e+00 0.0000000000000000e+00
1734 0.0000000000000000e+00 0.0000000000000000e+00 0.0000000000000000e+00
1735 0.0000000000000000e+00 0.0000000000000000e+00 0.0000000000000000e+00
1736 0.0000000000000000e+00 0.0000000000000000e+00 0.0000000000000000e+00
1737 0.0000000000000000e+00 0.0000000000000000e+00 0.0000000000000000e+00
1738 0.0000000000000000e+00 0.0000000000000000e+00 0.0000000000000000e+00
1780 0.0000000000000000e+00 0.0000000000000000e+00 0.0000000000000000e+00
1781 0.0000000000000000e+00 0.0000000000000000e+00 0.0000000000000000e+00
1782 0.0000000000000000e+00 0.0000000000000000e+00 0.0000000000000000e+00
1783 0.0000000000000000e+00 0.0000000000000000e+00 0.0000000000000000e+00
1784 0.0000000000000000e+00 0.0000000000000000e+00 0.0000000000000000e+00
1785 0.0000000000000000e+00 0.0000000000000000e+00 0.0000000000000000e+00
1786 0.0000000000000000e+00 0.0000000000000000e+00 0.0000000000000000e+00
1787 0.0000000000000000e+00 0.0000000000000000e+00 0.0000000000000000e+00
1788 0.0000000000000000e+00 0.0000000000000000e+00 0.0000000000000000e+00
1789 0.0000000000000000e+00 0.0000000000000000e+00 0.0000000000000000e+00
1790 0.0000000000000000e+00 0.0000000000000000e+00 0.0000000000000000e+00
1791 0.0000000000000000e+00 0.0000000000000000e+00 0.0000000000000000e+00
1792 0.0000000000000000e+00 0.0000000000000000e+00 0.0000000000000000e+00
1793 0.0000000000000000e+00 0.0000000000000000e+00 0.0000000000000000e+00
1794 0.0000000000000000e+00 0.0000000000000000e+00 0.0000000000000000e+00
1796 0.0000000000000000e+00 0.0000000000000000e+00 0.0000000000000000e+00
875 0.0000000000000000e+00 0.0000000000000000e+00 0.0000000000000000e+00
880 0.0000000000000000e+00 0.0000000000000000e+00 0.0000000000000000e+00
881 0.0000000000000000e+00 0.0000000000000000e+00 0.0000000000000000e+00
884 0.0000000000000000e+00 0.0000000000000000e+00 0.0000000000000000e+00
1041 0.0000000000000000e+00 0.0000000000000000e+00 0.0000000000000000e+00
1042 0.0000000000000000e+00 0.0000000000000000e+00 0.0000000000000000e+00
1045 0.0000000000000000e+00 0.0000000000000000e+00 0.0000000000000000e+00
1047 0.0000000000000000e+00 0.0000000000000000e+00 0.0000000000000000e+00
1385 0.0000000000000000e+00 0.0000000000000000e+00 0.0000000000000000e+00
1386 0.0000000000000000e+00 0.0000000000000000e+00 0.0000000000000000e+00
1387 0.0000000000000000e+00 0.0000000000000000e+00 0.0000000000000000e+00
1389 0.0000000000000000e+00 0.0000000000000000e+00 0.0000000000000000e+00
1391 0.0000000000000000e+00 0.0000000000000000e+00 0.0000000000000000e+00
1436 0.0000000000000000e+00 0.0000000000000000e+00 0.0000000000000000e+00
1437 0.0000000000000000e+00 0.0000000000000000e+00 0.0000000000000000e+00
1439 0.0000000000000000e+00 0.0000000000000000e+00 0.0000000000000000e+00
1440 0.0000000000000000e+00 0.0000000000000000e+00 0.0000000000000000e+00
1441 0.0000000000000000e+00 0.0000000000000000e+00 0.0000000000000000e+00
1442 0.0000000000000000e+00 0.0000000000000000e+00 0.0000000000000000e+00
1443 0.0000000000000000e+00 0.0000000000000000e+00 0.0000000000000000e+00
1444 0.0000000000000000e+00 0.0000000000000000e+00 0.0000000000000000e+00
1445 0.0000000000000000e+00 0.0000000000000000e+00 0.0000000000000000e+00
1446 0.0000000000000000e+00 0.0000000000000000e+00 0.0000000000000000e+00
1447 0.0000000000000000e+00 0.0000000000000000e+00 0.0000000000000000e+00
1448 0.0000000000000000e+00 0.0000000000000000e+00 0.0000000000000000e+00
1449 0.0000000000000000e+00 0.0000000000000000e+00 0.0000000000000000e+00
1450 0.0000000000000000e+00 0.0000000000000000e+00 0.0000000000000000e+00
1451 0.0000000000000000e+00 0.0000000000000000e+00 0.0000000000000000e+00
1452 0.0000000000000000e+00 0.0000000000000000e+00 0.0000000000000000e+00
1453 0.0000000000000000e+00 0.0000000000000000e+00 0.0000000000000000e+00
1496 0.0000000000000000e+00 0.0000000000000000e+00 0.0000000000000000e+00
1497 0.0000000000000000e+00 0.0000000000000000e+00 0.0000000000000000e+00
1501 0.0000000000000000e+00 0.0000000000000000e+00 0.0000000000000000e+00
1504 0.0000000000000000e+00 0.0000000000000000e+00 0.0000000000000000e+00
1505 0.0000000000000000e+00 0.0000000000000000e+00 0.0000000000000000e+00
1650 0.0000000000000000e+00 0.0000000000000000e+00 0.0000000000000000e+00
1684 0.0000000000000000e+00 0.0000000000000000e+00 0.0000000000000000e+00
1686 0.0000000000000000e+00 0.0000000000000000e+00 0.0000000000000000e+00
1687 0.0000000000000000e+00 0.0000000000000000e+00 0.0000000000000000e+00
1688 0.0000000000000000e+00 0.0000000000000000e+00 0.0000000000000000e+00
1689 0.0000000000000000e+00 0.0000000000000000e+00 0.0000000000000000e+00
1690 0.0000000000000000e+00 0.0000000000000000e+00 0.0000000000000000e+00
1691 0.0000000000000000e+00 0.0000000000000000e+00 0.0000000000000000e+00
1692 0.0000000000000000e+00 0.0000000000000000e+00 0.0000000000000000e+00
1693 0.0000000000000000e+00 0.0000000000000000e+00 0.0000000000000000e+00
1694 0.0000000000000000e+00 0.0000000000000000e+00 0.0000000000000000e+00
1695 0.0000000000000000e+00 0.0000000000000000e+00 0.0000000000000000e+00
1696 0.0000000000000000e+00 0.0000000000000000e+00 0.0000000000000000e+00
1739 0.0000000000000000e+00 0.0000000000000000e+00 0.0000000000000000e+00
1740 0.0000000000000000e+00 0.0000000000000000e+00 0.0000000000000000e+00
1741 0.0000000000000000e+00 0.0000000000000000e+00 0.0000000000000000e+00
1742 0.0000000000000000e+00 0.0000000000000000e+00 0.0000000000000000e+00
1743 0.0000000000000000e+00 0.0000000000000000e+00 0.0000000000000000e+00
1744 0.0000000000000000e+00 0.0000000000000000e+00 0.0000000000000000e+00
1745 0.0000000000000000e+00 0.0000000000000000e+00 0.0000000000000000e+00
1746 0.0000000000000000e+00 0.0000000000000000e+00 0.0000000000000000e+00
1747 0.0000000000000000e+00 0.0000000000000000e+00 0.0000000000000000e+00
1748 0.0000000000000000e+00 0.0000000000000000e+00 0.0000000000000000e+00
1749 0.0000000000000000e+00 0.0000000000000000e+00 0.0000000000000000e+00
1750 0.0000000000000000e+00 0.0000000000000000e+00 0.0000000000000000e+00
1751 0.0000000000000000e+00 0.0000000000000000e+00 0.0000000000000000e+00
1795 0.0000000000000000e+00 0.0000000000000000e+00 0.0000000000000000e+00
1797 0.0000000000000000e+00 0.0000000000000000e+00 0.0000000000000000e+00
1798 0.0000000000000000e+00 0.0000000000000000e+00 0.0000000000000000e+00
1799 0.0000000000000000e+00 0.0000000000000000e+00 0.0000000000000000e+00
3 0.0000000000000000e+00 0.0000000000000000e+00 0.0000000000000000e+00
45 0.0000000000000000e+00 0.0000000000000000e+00 0.0000000000000000e+00
202 0.0000000000000000e+00 0.0000000000000000e+00 0.0000000000000000e+00
206 0.0000000000000000e+00 0.0000000000000000e+00 0.0000000000000000e+00
208 0.0000000000000000e+00 0.0000000000000000e+00 0.0000000000000000e+00
218 0.0000000000000000e+00 0.0000000000000000e+00 0.0000000000000000e+00
221 0.0000000000000000e+00 0.0000000000000000e+00 0.0000000000000000e+00
227 0.0000000000000000e+00 0.0000000000000000e+00 0.0000000000000000e+00
229 0.0000000000000000e+00 0.0000000000000000e+00 0.0000000000000000e+00
484 0.0000000000000000e+00 0.0000000000000000e+00 0.0000000000000000e+00
487 0.0000000000000000e+00 0.0000000000000000e+00 0.0000000000000000e+00
861 0.0000000000000000e+00 0.0000000000000000e+00 0.0000000000000000e+00
874 0.0000000000000000e+00 0.0000000000000000e+00 0.0000000000000000e+00
1188 0.0000000000000000e+00 0.0000000000000000e+00 0.0000000000000000e+00
1189 0.0000000000000000e+00 0.0000000000000000e+00 0.0000000000000000e+00
1216 0.0000000000000000e+00 0.0000000000000000e+00 0.0000000000000000e+00
1255 0.0000000000000000e+00 0.0000000000000000e+00 0.0000000000000000e+00
1256 0.0000000000000000e+00 0.0000000000000000e+00 0.0000000000000000e+00
1282 0.0000000000000000e+00 0.0000000000000000e+00 0.0000000000000000e+00
1283 0.0000000000000000e+00 0.0000000000000000e+00 0.0000000000000000e+00
1284 0.0000000000000000e+00 0.0000000000000000e+00 0.0000000000000000e+00
1295 0.0000000000000000e+00 0.0000000000000000e+00 0.0000000000000000e+00
1512 0.0000000000000000e+00 0.0000000000000000e+00 0.0000000000000000e+00
1533 0.0000000000000000e+00 0.0000000000000000e+00 0.0000000000000000e+00
1534 0.0000000000000000e+00 0.0000000000000000e+00 0.0000000000000000e+00
1535 0.0000000000000000e+00 0.0000000000000000e+00 0.0000000000000000e+00
1562 0.0000000000000000e+00 0.0000000000000000e+00 0.0000000000000000e+00
1563 0.0000000000000000e+00 0.0000000000000000e+00 0.0000000000000000e+00
1571 0.0000000000000000e+00 0.0000000000000000e+00 0.0000000000000000e+00
1572 0.0000000000000000e+00 0.0000000000000000e+00 0.0000000000000000e+00
1573 0.0000000000000000e+00 0.0000000000000000e+00 0.0000000000000000e+00
1575 0.0000000000000000e+00 0.0000000000000000e+00 0.0000000000000000e+00
1576 0.0000000000000000e+00 0.0000000000000000e+00 0.0000000000000000e+00
1577 0.0000000000000000e+00 0.0000000000000000e+00 0.0000000000000000e+00
1578 0.0000000000000000e+00 0.0000000000000000e+00 0.0000000000000000e+00
1579 0.0000000000000000e+00 0.0000000000000000e+00 0.0000000000000000e+00
1580 0.0000000000000000e+00 0.0000000000000000e+00 0.0000000000000000e+00
1581 0.0000000000000000e+00 0.0000000000000000e+00 0.0000000000000000e+00
1583 0.0000000000000000e+00 0.0000000000000000e+00 0.0000000000000000e+00
1587 0.0000000000000000e+00 0.0000000000000000e+00 0.0000000000000000e+00
1600 0.0000000000000000e+00 0.0000000000000000e+00 0.0000000000000000e+00
1601 0.0000000000000000e+00 0.0000000000000000e+00 0.0000000000000000e+00
1605 0.0000000000000000e+00 0.0000000000000000e+00 0.0000000000000000e+00
1608 0.0000000000000000e+00 0.0000000000000000e+00 0.0000000000000000e+00
1611 0.0000000000000000e+00 0.0000000000000000e+00 0.0000000000000000e+00
1612 0.0000000000000000e+00 0.0000000000000000e+00 0.0000000000000000e+00
1615 0.0000000000000000e+00 0.0000000000000000e+00 0.0000000000000000e+00
1616 0.0000000000000000e+00 0.0000000000000000e+00 0.0000000000000000e+00
1619 0.0000000000000000e+00 0.0000000000000000e+00 0.0000000000000000e+00
1620 0.0000000000000000e+00 0.0000000000000000e+00 0.0000000000000000e+00
1628 0.0000000000000000e+00 0.0000000000000000e+00 0.0000000000000000e+00
1629 0.0000000000000000e+00 0.0000000000000000e+00 0.0000000000000000e+00
1641 0.0000000000000000e+00 0.0000000000000000e+00 0.0000000000000000e+00
1642 0.0000000000000000e+00 0.0000000000000000e+00 0.0000000000000000e+00
1643 0.0000000000000000e+00 0.0000000000000000e+00 0.0000000000000000e+00
1645 0.0000000000000000e+00 0.0000000000000000e+00 0.0000000000000000e+00
1647 0.0000000000000000e+00 0.0000000000000000e+00 0.0000000000000000e+00
1648 0.0000000000000000e+00 0.0000000000000000e+00 0.0000000000000000e+00
1756 0.0000000000000000e+00 0.0000000000000000e+00 0.0000000000000000e+00
9 0.0000000000000000e+00 0.0000000000000000e+00 0.0000000000000000e+00
66 0.0000000000000000e+00 0.0000000000000000e+00 0.0000000000000000e+00
209 0.0000000000000000e+00 0.0000000000000000e+00 0.0000000000000000e+00
224 0.0000000000000000e+00 0.0000000000000000e+00 0.0000000000000000e+00
490 0.0000000000000000e+00 0.0000000000000000e+00 0.0000000000000000e+00
731 0.0000000000000000e+00 0.0000000000000000e+00 0.0000000000000000e+00
859 0.0000000000000000e+00 0.0000000000000000e+00 0.0000000000000000e+00
872 0.0000000000000000e+00 0.0000000000000000e+00 0.0000000000000000e+00
1091 0.0000000000000000e+00 0.0000000000000000e+00 0.0000000000000000e+00
1140 0.0000000000000000e+00 0.0000000000000000e+00 0.0000000000000000e+00
1141 0.0000000000000000e+00 0.0000000000000000e+00 0.0000000000000000e+00
1142 0.0000000000000000e+00 0.0000000000000000e+00 0.0000000000000000e+00
1144 0.0000000000000000e+00 0.0000000000000000e+00 0.0000000000000000e+00
1145 0.0000000000000000e+00 0.0000000000000000e+00 0.0000000000000000e+00
1146 0.0000000000000000e+00 0.0000000000000000e+00 0.0000000000000000e+00
1147 0.0000000000000000e+00 0.0000000000000000e+00 0.0000000000000000e+00
1148 0.0000000000000000e+00 0.0000000000000000e+00 0.0000000000000000e+00
1149 0.0000000000000000e+00 0.0000000000000000e+00 0.0000000000000000e+00
1150 0.0000000000000000e+00 0.0000000000000000e+00 0.0000000000000000e+00
1193 0.0000000000000000e+00 0.0000000000000000e+00 0.0000000000000000e+00
1195 0.0000000000000000e+00 0.0000000000000000e+00 0.0000000000000000e+00
1196 0.0000000000000000e+00 0.0000000000000000e+00 0.0000000000000000e+00
1197 0.0000000000000000e+00 0.0000000000000000e+00 0.0000000000000000e+00
1199 0.0000000000000000e+00 0.0000000000000000e+00 0.0000000000000000e+00
1201 0.0000000000000000e+00 0.0000000000000000e+00 0.0000000000000000e+00
1203 0.0000000000000000e+00 0.0000000000000000e+00 0.0000000000000000e+00
1204 0.0000000000000000e+00 0.0000000000000000e+00 0.0000000000000000e+00
1205 0.0000000000000000e+00 0.0000000000000000e+00 0.0000000000000000e+00
1484 0.0000000000000000e+00 0.0000000000000000e+00 0.0000000000000000e+00
1486 0.0000000000000000e+00 0.0000000000000000e+00 0.0000000000000000e+00
1490 0.0000000000000000e+00 0.0000000000000000e+00 0.0000000000000000e+00
1491 0.0000000000000000e+00 0.0000000000000000e+00 0.0000000000000000e+00
1492 0.0000000000000000e+00 0.0000000000000000e+00 0.0000000000000000e+00
1494 0.0000000000000000e+00 0.0000000000000000e+00 0.0000000000000000e+00
1537 0.0000000000000000e+00 0.0000000000000000e+00 0.0000000000000000e+00
1538 0.0000000000000000e+00 0.0000000000000000e+00 0.0000000000000000e+00
1539 0.0000000000000000e+00 0.0000000000000000e+00 0.0000000000000000e+00
1540 0.0000000000000000e+00 0.0000000000000000e+00 0.0000000000000000e+00
1541 0.0000000000000000e+00 0.0000000000000000e+00 0.0000000000000000e+00
1542 0.0000000000000000e+00 0.0000000000000000e+00 0.0000000000000000e+00
1543 0.0000000000000000e+00 0.0000000000000000e+00 0.0000000000000000e+00
1544 0.0000000000000000e+00 0.0000000000000000e+00 0.0000000000000000e+00
1545 0.0000000000000000e+00 0.0000000000000000e+00 0.0000000000000000e+00
1546 0.0000000000000000e+00 0.0000000000000000e+00 0.0000000000000000e+00
1547 0.0000000000000000e+00 0.0000000000000000e+00 0.0000000000000000e+00
1548 0.0000000000000000e+00 0.0000000000000000e+00 0.0000000000000000e+00
1549 0.0000000000000000e+00 0.0000000000000000e+00 0.0000000000000000e+00
1550 0.0000000000000000e+00 0.0000000000000000e+00 0.0000000000000000e+00
1551 0.0000000000000000e+00 0.0000000000000000e+00 0.0000000000000000e+00
1553 0.0000000000000000e+00 0.0000000000000000e+00 0.0000000000000000e+00
1582 0.0000000000000000e+00 0.0000000000000000e+00 0.0000000000000000e+00
1584 0.0000000000000000e+00 0.0000000000000000e+00 0.0000000000000000e+00
1585 0.0000000000000000e+00 0.0000000000000000e+00 0.0000000000000000e+00
1586 0.0000000000000000e+00 0.0000000000000000e+00 0.0000000000000000e+00
1588 0.0000000000000000e+00 0.0000000000000000e+00 0.0000000000000000e+00
1589 0.0000000000000000e+00 0.0000000000000000e+00 0.0000000000000000e+00
1590 0.0000000000000000e+00 0.0000000000000000e+00 0.0000000000000000e+00
1591 0.0000000000000000e+00 0.0000000000000000e+00 0.0000000000000000e+00
1592 0.0000000000000000e+00 0.0000000000000000e+00 0.0000000000000000e+00
1593 0.0000000000000000e+00 0.0000000000000000e+00 0.0000000000000000e+00
1594 0.0000000000000000e+00 0.0000000000000000e+00 0.0000000000000000e+00
1598 0.0000000000000000e+00 0.0000000000000000e+00 0.0000000000000000e+00
681 0.0000000000000000e+00 0.0000000000000000e+00 0.0000000000000000e+00
682 0.0000000000000000e+00 0.0000000000000000e+00 0.0000000000000000e+00
683 0.0000000000000000e+00 0.0000000000000000e+00 0.0000000000000000e+00
685 0.0000000000000000e+00 0.0000000000000000e+00 0.0000000000000000e+00
687 0.0000000000000000e+00 0.0000000000000000e+00 0.0000000000000000e+00
732 0.0000000000000000e+00 0.0000000000000000e+00 0.0000000000000000e+00
736 0.0000000000000000e+00 0.0000000000000000e+00 0.0000000000000000e+00
738 0.0000000000000000e+00 0.0000000000000000e+00 0.0000000000000000e+00
739 0.0000000000000000e+00 0.0000000000000000e+00 0.0000000000000000e+00
740 0.0000000000000000e+00 0.0000000000000000e+00 0.0000000000000000e+00
744 0.0000000000000000e+00 0.0000000000000000e+00 0.0000000000000000e+00
746 0.0000000000000000e+00 0.0000000000000000e+00 0.0000000000000000e+00
747 0.0000000000000000e+00 0.0000000000000000e+00 0.0000000000000000e+00
748 0.0000000000000000e+00 0.0000000000000000e+00 0.0000000000000000e+00
1043 0.0000000000000000e+00 0.0000000000000000e+00 0.0000000000000000e+00
1092 0.0000000000000000e+00 0.0000000000000000e+00 0.0000000000000000e+00
1093 0.0000000000000000e+00 0.0000000000000000e+00 0.0000000000000000e+00
1095 0.0000000000000000e+00 0.0000000000000000e+00 0.0000000000000000e+00
1096 0.0000000000000000e+00 0.0000000000000000e+00 0.0000000000000000e+00
1097 0.0000000000000000e+00 0.0000000000000000e+00 0.0000000000000000e+00
1098 0.0000000000000000e+00 0.0000000000000000e+00 0.0000000000000000e+00
1099 0.0000000000000000e+00 0.0000000000000000e+00 0.0000000000000000e+00
1100 0.0000000000000000e+00 0.0000000000000000e+00 0.0000000000000000e+00
1101 0.0000000000000000e+00 0.0000000000000000e+00 0.0000000000000000e+00
1102 0.0000000000000000e+00 0.0000000000000000e+00 0.0000000000000000e+00
1103 0.0000000000000000e+00 0.0000000000000000e+00 0.0000000000000000e+00
1104 0.0000000000000000e+00 0.0000000000000000e+00 0.0000000000000000e+00
1105 0.0000000000000000e+00 0.0000000000000000e+00 0.0000000000000000e+00
1106 0.0000000000000000e+00 0.0000000000000000e+00 0.0000000000000000e+00
1107 0.0000000000000000e+00 0.0000000000000000e+00 0.0000000000000000e+00
1108 0.0000000000000000e+00 0.0000000000000000e+00 0.0000000000000000e+00
1109 0.0000000000000000e+00 0.0000000000000000e+00 0.0000000000000000e+00
1151 0.0000000000000000e+00 0.0000000000000000e+00 0.0000000000000000e+00
1152 0.0000000000000000e+00 0.0000000000000000e+00 0.0000000000000000e+00
1153 0.0000000000000000e+00 0.0000000000000000e+00 0.0000000000000000e+00
1154 0.0000000000000000e+00 0.0000000000000000e+00 0.0000000000000000e+00
1155 0.0000000000000000e+00 0.0000000000000000e+00 0.0000000000000000e+00
1156 0.0000000000000000e+00 0.0000000000000000e+00 0.0000000000000000e+00
1157 0.0000000000000000e+00 0.0000000000000000e+00 0.0000000000000000e+00
1158 0.0000000000000000e+00 0.0000000000000000e+00 0.0000000000000000e+00
1159 0.0000000000000000e+00 0.0000000000000000e+00 0.0000000000000000e+00
1160 0.0000000000000000e+00 0.0000000000000000e+00 0.0000000000000000e+00
1161 0.0000000000000000e+00 0.0000000000000000e+00 0.0000000000000000e+00
1162 0.0000000000000000e+00 0.0000000000000000e+00 0.0000000000000000e+00
1163 0.0000000000000000e+00 0.0000000000000000e+00 0.0000000000000000e+00
1207 0.0000000000000000e+00 0.0000000000000000e+00 0.0000000000000000e+00
1209 0.0000000000000000e+00 0.0000000000000000e+00 0.0000000000000000e+00
1211 0.0000000000000000e+00 0.0000000000000000e+00 0.0000000000000000e+00
1215 0.0000000000000000e+00 0.0000000000000000e+00 0.0000000000000000e+00
1495 0.0000000000000000e+00 0.0000000000000000e+00 0.0000000000000000e+00
1498 0.0000000000000000e+00 0.0000000000000000e+00 0.0000000000000000e+00
1499 0.0000000000000000e+00 0.0000000000000000e+00 0.0000000000000000e+00
1500 0.0000000000000000e+00 0.0000000000000000e+00 0.0000000000000000e+00
1502 0.0000000000000000e+00 0.0000000000000000e+00 0.0000000000000000e+00
1503 0.0000000000000000e+00 0.0000000000000000e+00 0.0000000000000000e+00
1506 0.0000000000000000e+00 0.0000000000000000e+00 0.0000000000000000e+00
1507 0.0000000000000000e+00 0.0000000000000000e+00 0.0000000000000000e+00
1552 0.0000000000000000e+00 0.0000000000000000e+00 0.0000000000000000e+00
1554 0.0000000000000000e+00 0.0000000000000000e+00 0.0000000000000000e+00
1555 0.0000000000000000e+00 0.0000000000000000e+00 0.0000000000000000e+00
1556 0.0000000000000000e+00 0.0000000000000000e+00 0.0000000000000000e+00
1560 0.0000000000000000e+00 0.0000000000000000e+00 0.0000000000000000e+00
829 0.0000000000000000e+00 0.0000000000000000e+00 0.0000000000000000e+00
830 0.0000000000000000e+00 0.0000000000000000e+00 0.0000000000000000e+00
831 0.0000000000000000e+00 0.0000000000000000e+00 0.0000000000000000e+00
867 0.0000000000000000e+00 0.0000000000000000e+00 0.0000000000000000e+00
870 0.0000000000000000e+00 0.0000000000000000e+00 0.0000000000000000e+00
873 0.0000000000000000e+00 0.0000000000000000e+00 0.0000000000000000e+00
1190 0.0000000000000000e+00 0.0000000000000000e+00 0.0000000000000000e+00
1226 0.0000000000000000e+00 0.0000000000000000e+00 0.0000000000000000e+00
1227 0.0000000000000000e+00 0.0000000000000000e+00 0.0000000000000000e+00
1228 0.0000000000000000e+00 0.0000000000000000e+00 0.0000000000000000e+00
1230 0.0000000000000000e+00 0.0000000000000000e+00 0.0000000000000000e+00
1231 0.0000000000000000e+00 0.0000000000000000e+00 0.0000000000000000e+00
1232 0.0000000000000000e+00 0.0000000000000000e+00 0.0000000000000000e+00
1233 0.0000000000000000e+00 0.0000000000000000e+00 0.0000000000000000e+00
1234 0.0000000000000000e+00 0.0000000000000000e+00 0.0000000000000000e+00
1235 0.0000000000000000e+00 0.0000000000000000e+00 0.0000000000000000e+00
1236 0.0000000000000000e+00 0.0000000000000000e+00 0.0000000000000000e+00
1238 0.0000000000000000e+00 0.0000000000000000e+00 0.0000000000000000e+00
1242 0.0000000000000000e+00 0.0000000000000000e+00 0.0000000000000000e+00
1260 0.0000000000000000e+00 0.0000000000000000e+00 0.0000000000000000e+00
1261 0.0000000000000000e+00 0.0000000000000000e+00 0.0000000000000000e+00
1262 0.0000000000000000e+00 0.0000000000000000e+00 0.0000000000000000e+00
1263 0.0000000000000000e+00 0.0000000000000000e+00 0.0000000000000000e+00
1264 0.0000000000000000e+00 0.0000000000000000e+00 0.0000000000000000e+00
1265 0.0000000000000000e+00 0.0000000000000000e+00 0.0000000000000000e+00
1266 0.0000000000000000e+00 0.0000000000000000e+00 0.0000000000000000e+00
1267 0.0000000000000000e+00 0.0000000000000000e+00 0.0000000000000000e+00
1268 0.0000000000000000e+00 0.0000000000000000e+00 0.0000000000000000e+00
1269 0.0000000000000000e+00 0.0000000000000000e+00 0.0000000000000000e+00
1270 0.0000000000000000e+00 0.0000000000000000e+00 0.0000000000000000e+00
1271 0.0000000000000000e+00 0.0000000000000000e+00 0.0000000000000000e+00
1272 0.0000000000000000e+00 0.0000000000000000e+00 0.0000000000000000e+00
1273 0.0000000000000000e+00 0.0000000000000000e+00 0.0000000000000000e+00
1274 0.0000000000000000e+00 0.0000000000000000e+00 0.0000000000000000e+00
1275 0.0000000000000000e+00 0.0000000000000000e+00 0.0000000000000000e+00
1276 0.0000000000000000e+00 0.0000000000000000e+00 0.0000000000000000e+00
1277 0.0000000000000000e+00 0.0000000000000000e+00 0.0000000000000000e+00
1289 0.0000000000000000e+00 0.0000000000000000e+00 0.0000000000000000e+00
1606 0.0000000000000000e+00 0.0000000000000000e+00 0.0000000000000000e+00
1607 0.0000000000000000e+00 0.0000000000000000e+00 0.0000000000000000e+00
1609 0.0000000000000000e+00 0.0000000000000000e+00 0.0000000000000000e+00
1610 0.0000000000000000e+00 0.0000000000000000e+00 0.0000000000000000e+00
1613 0.0000000000000000e+00 0.0000000000000000e+00 0.0000000000000000e+00
1614 0.0000000000000000e+00 0.0000000000000000e+00 0.0000000000000000e+00
1617 0.0000000000000000e+00 0.0000000000000000e+00 0.0000000000000000e+00
1618 0.0000000000000000e+00 0.0000000000000000e+00 0.0000000000000000e+00
1621 0.0000000000000000e+00 0.0000000000000000e+00 0.0000000000000000e+00
1622 0.0000000000000000e+00 0.0000000000000000e+00 0.0000000000000000e+00
1632 0.0000000000000000e+00 0.0000000000000000e+00 0.0000000000000000e+00
1633 0.0000000000000000e+00 0.0000000000000000e+00 0.0000000000000000e+00
1634 0.0000000000000000e+00 0.0000000000000000e+00 0.0000000000000000e+00
1635 0.0000000000000000e+00 0.0000000000000000e+00 0.0000000000000000e+00
1636 0.0000000000000000e+00 0.0000000000000000e+00 0.0000000000000000e+00
1640 0.0000000000000000e+00 0.0000000000000000e+00 0.0000000000000000e+00
1646 0.0000000000000000e+00 0.0000000000000000e+00 0.0000000000000000e+00
450 0.0000000000000000e+00 0.0000000000000000e+00 0.0000000000000000e+00
494 0.0000000000000000e+00 0.0000000000000000e+00 0.0000000000000000e+00
497 0.0000000000000000e+00 0.0000000000000000e+00 0.0000000000000000e+00
500 0.0000000000000000e+00 0.0000000000000000e+00 0.0000000000000000e+00
781 0.0000000000000000e+00 0.0000000000000000e+00 0.0000000000000000e+00
782 0.0000000000000000e+00 0.0000000000000000e+00 0.0000000000000000e+00
783 0.0000000000000000e+00 0.0000000000000000e+00 0.0000000000000000e+00
785 0.0000000000000000e+00 0.0000000000000000e+00 0.0000000000000000e+00
786 0.0000000000000000e+00 0.0000000000000000e+00 0.0000000000000000e+00
787 0.0000000000000000e+00 0.0000000000000000e+00 0.0000000000000000e+00
788 0.0000000000000000e+00 0.0000000000000000e+00 0.0000000000000000e+00
789 0.0000000000000000e+00 0.0000000000000000e+00 0.0000000000000000e+00
790 0.0000000000000000e+00 0.0000000000000000e+00 0.0000000000000000e+00
791 0.0000000000000000e+00 0.0000000000000000e+00 0.0000000000000000e+00
833 0.0000000000000000e+00 0.0000000000000000e+00 0.0000000000000000e+00
834 0.0000000000000000e+00 0.0000000000000000e+00 0.0000000000000000e+00
835 0.0000000000000000e+00 0.0000000000000000e+00 0.0000000000000000e+00
836 0.0000000000000000e+00 0.0000000000000000e+00 0.0000000000000000e+00
837 0.0000000000000000e+00 0.0000000000000000e+00 0.0000000000000000e+00
838 0.0000000000000000e+00 0.0000000000000000e+00 0.0000000000000000e+00
839 0.0000000000000000e+00 0.0000000000000000e+00 0.0000000000000000e+00
840 0.0000000000000000e+00 0.0000000000000000e+00 0.0000000000000000e+00
841 0.0000000000000000e+00 0.0000000000000000e+00 0.0000000000000000e+00
842 0.0000000000000000e+00 0.0000000000000000e+00 0.0000000000000000e+00
843 0.0000000000000000e+00 0.0000000000000000e+00 0.0000000000000000e+00
844 0.0000000000000000e+00 0.0000000000000000e+00 0.0000000000000000e+00
845 0.0000000000000000e+00 0.0000000000000000e+00 0.0000000000000000e+00
846 0.0000000000000000e+00 0.0000000000000000e+00 0.0000000000000000e+00
847 0.0000000000000000e+00 0.0000000000000000e+00 0.0000000000000000e+00
849 0.0000000000000000e+00 0.0000000000000000e+00 0.0000000000000000e+00
876 0.0000000000000000e+00 0.0000000000000000e+00 0.0000000000000000e+00
879 0.0000000000000000e+00 0.0000000000000000e+00 0.0000000000000000e+00
882 0.0000000000000000e+00 0.0000000000000000e+00 0.0000000000000000e+00
1192 0.0000000000000000e+00 0.0000000000000000e+00 0.0000000000000000e+00
1194 0.0000000000000000e+00 0.0000000000000000e+00 0.0000000000000000e+00
1198 0.0000000000000000e+00 0.0000000000000000e+00 0.0000000000000000e+00
1200 0.0000000000000000e+00 0.0000000000000000e+00 0.0000000000000000e+00
1202 0.0000000000000000e+00 0.0000000000000000e+00 0.0000000000000000e+00
1206 0.0000000000000000e+00 0.0000000000000000e+00 0.0000000000000000e+00
1208 0.0000000000000000e+00 0.0000000000000000e+00 0.0000000000000000e+00
1237 0.0000000000000000e+00 0.0000000000000000e+00 0.0000000000000000e+00
1239 0.0000000000000000e+00 0.0000000000000000e+00 0.0000000000000000e+00
1240 0.0000000000000000e+00 0.0000000000000000e+00 0.0000000000000000e+00
1241 0.0000000000000000e+00 0.0000000000000000e+00 0.0000000000000000e+00
1243 0.0000000000000000e+00 0.0000000000000000e+00 0.0000000000000000e+00
1244 0.0000000000000000e+00 0.0000000000000000e+00 0.0000000000000000e+00
1245 0.0000000000000000e+00 0.0000000000000000e+00 0.0000000000000000e+00
1246 0.0000000000000000e+00 0.0000000000000000e+00 0.0000000000000000e+00
1247 0.0000000000000000e+00 0.0000000000000000e+00 0.0000000000000000e+00
1248 0.0000000000000000e+00 0.0000000000000000e+00 0.0000000000000000e+00
1249 0.0000000000000000e+00 0.0000000000000000e+00 0.0000000000000000e+00
1253 0.0000000000000000e+00 0.0000000000000000e+00 0.0000000000000000e+00
1281 0.0000000000000000e+00 0.0000000000000000e+00 0.0000000000000000e+00
1626 0.0000000000000000e+00 0.0000000000000000e+00 0.0000000000000000e+00
228 0.0000000000000000e+00 0.0000000000000000e+00 0.0000000000000000e+00
400 0.0000000000000000e+00 0.0000000000000000e+00 0.0000000000000000e+00
401 0.0000000000000000e+00 0.0000000000000000e+00 0.0000000000000000e+00
402 0.0000000000000000e+00 0.0000000000000000e+00 0.0000000000000000e+00
404 0.0000000000000000e+00 0.0000000000000000e+00 0.0000000000000000e+00
406 0.0000000000000000e+00 0.0000000000000000e+00 0.0000000000000000e+00
451 0.0000000000000000e+00 0.0000000000000000e+00 0.0000000000000000e+00
452 0.0000000000000000e+00 0.0000000000000000e+00 0.0000000000000000e+00
454 0.0000000000000000e+00 0.0000000000000000e+00 0.0000000000000000e+00
455 0.0000000000000000e+00 0.0000000000000000e+00 0.0000000000000000e+00
456 0.0000000000000000e+00 0.0000000000000000e+00 0.0000000000000000e+00
457 0.0000000000000000e+00 0.0000000000000000e+00 0.0000000000000000e+00
458 0.0000000000000000e+00 0.0000000000000000e+00 0.0000000000000000e+00
459 0.0000000000000000e+00 0.0000000000000000e+00 0.0000000000000000e+00
460 0.0000000000000000e+00 0.0000000000000000e+00 0.0000000000000000e+00
461 0.0000000000000000e+00 0.0000000000000000e+00 0.0000000000000000e+00
462 0.0000000000000000e+00 0.0000000000000000e+00 0.0000000000000000e+00
463 0.0000000000000000e+00 0.0000000000000000e+00 0.0000000000000000e+00
464 0.0000000000000000e+00 0.0000000000000000e+00 0.0000000000000000e+00
465 0.0000000000000000e+00 0.0000000000000000e+00 0.0000000000000000e+00
466 0.0000000000000000e+00 0.0000000000000000e+00 0.0000000000000000e+00
467 0.0000000000000000e+00 0.0000000000000000e+00 0.0000000000000000e+00
468 0.0000000000000000e+00 0.0000000000000000e+00 0.0000000000000000e+00
503 0.0000000000000000e+00 0.0000000000000000e+00 0.0000000000000000e+00
506 0.0000000000000000e+00 0.0000000000000000e+00 0.0000000000000000e+00
509 0.0000000000000000e+00 0.0000000000000000e+00 0.0000000000000000e+00
733 0.0000000000000000e+00 0.0000000000000000e+00 0.0000000000000000e+00
735 0.0000000000000000e+00 0.0000000000000000e+00 0.0000000000000000e+00
737 0.0000000000000000e+00 0.0000000000000000e+00 0.0000000000000000e+00
741 0.0000000000000000e+00 0.0000000000000000e+00 0.0000000000000000e+00
742 0.0000000000000000e+00 0.0000000000000000e+00 0.0000000000000000e+00
743 0.0000000000000000e+00 0.0000000000000000e+00 0.0000000000000000e+00
745 0.0000000000000000e+00 0.0000000000000000e+00 0.0000000000000000e+00
749 0.0000000000000000e+00 0.0000000000000000e+00 0.0000000000000000e+00
792 0.0000000000000000e+00 0.0000000000000000e+00 0.0000000000000000e+00
793 0.0000000000000000e+00 0.0000000000000000e+00 0.0000000000000000e+00
794 0.0000000000000000e+00 0.0000000000000000e+00 0.0000000000000000e+00
795 0.0000000000000000e+00 0.0000000000000000e+00 0.0000000000000000e+00
796 0.0000000000000000e+00 0.0000000000000000e+00 0.0000000000000000e+00
797 0.0000000000000000e+00 0.0000000000000000e+00 0.0000000000000000e+00
798 0.0000000000000000e+00 0.0000000000000000e+00 0.0000000000000000e+00
799 0.0000000000000000e+00 0.0000000000000000e+00 0.0000000000000000e+00
800 0.0000000000000000e+00 0.0000000000000000e+00 0.0000000000000000e+00
801 0.0000000000000000e+00 0.0000000000000000e+00 0.0000000000000000e+00
802 0.0000000000000000e+00 0.0000000000000000e+00 0.0000000000000000e+00
803 0.0000000000000000e+00 0.0000000000000000e+00 0.0000000000000000e+00
804 0.0000000000000000e+00 0.0000000000000000e+00 0.0000000000000000e+00
848 0.0000000000000000e+00 0.0000000000000000e+00 0.0000000000000000e+00
850 0.0000000000000000e+00 0.0000000000000000e+00 0.0000000000000000e+00
851 0.0000000000000000e+00 0.0000000000000000e+00 0.0000000000000000e+00
852 0.0000000000000000e+00 0.0000000000000000e+00 0.0000000000000000e+00
856 0.0000000000000000e+00 0.0000000000000000e+00 0.0000000000000000e+00
1210 0.0000000000000000e+00 0.0000000000000000e+00 0.0000000000000000e+00
2 0.0000000000000000e+00 0.0000000000000000e+00 0.0000000000000000e+00
8 0.0000000000000000e+00 0.0000000000000000e+00 0.0000000000000000e+00
19 0.0000000000000000e+00 0.0000000000000000e+00 0.0000000000000000e+00
49 0.0000000000000000e+00 0.0000000000000000e+00 0.0000000000000000e+00
51 0.0000000000000000e+00 0.0000000000000000e+00 0.0000000000000000e+00
52 0.0000000000000000e+00 0.0000000000000000e+00 0.0000000000000000e+00
69 0.0000000000000000e+00 0.0000000000000000e+00 0.0000000000000000e+00
70 0.0000000000000000e+00 0.0000000000000000e+00 0.0000000000000000e+00
205 0.0000000000000000e+00 0.0000000000000000e+00 0.0000000000000000e+00
214 0.0000000000000000e+00 0.0000000000000000e+00 0.0000000000000000e+00
215 0.0000000000000000e+00 0.0000000000000000e+00 0.0000000000000000e+00
232 0.0000000000000000e+00 0.0000000000000000e+00 0.0000000000000000e+00
233 0.0000000000000000e+00 0.0000000000000000e+00 0.0000000000000000e+00
234 0.0000000000000000e+00 0.0000000000000000e+00 0.0000000000000000e+00
1 0.0000000000000000e+00 0.0000000000000000e+00 0.0000000000000000e+00
21 0.0000000000000000e+00 0.0000000000000000e+00 0.0000000000000000e+00
63 0.0000000000000000e+00 0.0000000000000000e+00 0.0000000000000000e+00
226 0.0000000000000000e+00 0.0000000000000000e+00 0.0000000000000000e+00
486 0.0000000000000000e+00 0.0000000000000000e+00 0.0000000000000000e+00
493 0.0000000000000000e+00 0.0000000000000000e+00 0.0000000000000000e+00
495 0.0000000000000000e+00 0.0000000000000000e+00 0.0000000000000000e+00
496 0.0000000000000000e+00 0.0000000000000000e+00 0.0000000000000000e+00
878 0.0000000000000000e+00 0.0000000000000000e+00 0.0000000000000000e+00
1800 0.0000000000000000e+00 0.0000000000000000e+00 0.0000000000000000e+00
871 0.0000000000000000e+00 0.0000000000000000e+00 0.0000000000000000e+00
877 0.0000000000000000e+00 0.0000000000000000e+00 0.0000000000000000e+00
1509 0.0000000000000000e+00 0.0000000000000000e+00 0.0000000000000000e+00
1631 0.0000000000000000e+00 0.0000000000000000e+00 0.0000000000000000e+00
1697 0.0000000000000000e+00 0.0000000000000000e+00 0.0000000000000000e+00
1752 0.0000000000000000e+00 0.0000000000000000e+00 0.0000000000000000e+00
1753 0.0000000000000000e+00 0.0000000000000000e+00 0.0000000000000000e+00
1754 0.0000000000000000e+00 0.0000000000000000e+00 0.0000000000000000e+00
1755 0.0000000000000000e+00 0.0000000000000000e+00 0.0000000000000000e+00
10 0.0000000000000000e+00 0.0000000000000000e+00 0.0000000000000000e+00
64 0.0000000000000000e+00 0.0000000000000000e+00 0.0000000000000000e+00
197 0.0000000000000000e+00 0.0000000000000000e+00 0.0000000000000000e+00
199 0.0000000000000000e+00 0.0000000000000000e+00 0.0000000000000000e+00
200 0.0000000000000000e+00 0.0000000000000000e+00 0.0000000000000000e+00
212 0.0000000000000000e+00 0.0000000000000000e+00 0.0000000000000000e+00
888 0.0000000000000000e+00 0.0000000000000000e+00 0.0000000000000000e+00
1217 0.0000000000000000e+00 0.0000000000000000e+00 0.0000000000000000e+00
1218 0.0000000000000000e+00 0.0000000000000000e+00 0.0000000000000000e+00
1623 0.0000000000000000e+00 0.0000000000000000e+00 0.0000000000000000e+00
1624 0.0000000000000000e+00 0.0000000000000000e+00 0.0000000000000000e+00
1698 0.0000000000000000e+00 0.0000000000000000e+00 0.0000000000000000e+00
12 0.0000000000000000e+00 0.0000000000000000e+00 0.0000000000000000e+00
46 0.0000000000000000e+00 0.0000000000000000e+00 0.0000000000000000e+00
858 0.0000000000000000e+00 0.0000000000000000e+00 0.0000000000000000e+00
1212 0.0000000000000000e+00 0.0000000000000000e+00 0.0000000000000000e+00
1557 0.0000000000000000e+00 0.0000000000000000e+00 0.0000000000000000e+00
1595 0.0000000000000000e+00 0.0000000000000000e+00 0.0000000000000000e+00
1596 0.0000000000000000e+00 0.0000000000000000e+00 0.0000000000000000e+00
1597 0.0000000000000000e+00 0.0000000000000000e+00 0.0000000000000000e+00
1602 0.0000000000000000e+00 0.0000000000000000e+00 0.0000000000000000e+00
1164 0.0000000000000000e+00 0.0000000000000000e+00 0.0000000000000000e+00
1165 0.0000000000000000e+00 0.0000000000000000e+00 0.0000000000000000e+00
1166 0.0000000000000000e+00 0.0000000000000000e+00 0.0000000000000000e+00
1213 0.0000000000000000e+00 0.0000000000000000e+00 0.0000000000000000e+00
1219 0.0000000000000000e+00 0.0000000000000000e+00 0.0000000000000000e+00
1508 0.0000000000000000e+00 0.0000000000000000e+00 0.0000000000000000e+00
1510 0.0000000000000000e+00 0.0000000000000000e+00 0.0000000000000000e+00
1558 0.0000000000000000e+00 0.0000000000000000e+00 0.0000000000000000e+00
1559 0.0000000000000000e+00 0.0000000000000000e+00 0.0000000000000000e+00
1564 0.0000000000000000e+00 0.0000000000000000e+00 0.0000000000000000e+00
1278 0.0000000000000000e+00 0.0000000000000000e+00 0.0000000000000000e+00
1279 0.0000000000000000e+00 0.0000000000000000e+00 0.0000000000000000e+00
1280 0.0000000000000000e+00 0.0000000000000000e+00 0.0000000000000000e+00
1292 0.0000000000000000e+00 0.0000000000000000e+00 0.0000000000000000e+00
1625 0.0000000000000000e+00 0.0000000000000000e+00 0.0000000000000000e+00
1637 0.0000000000000000e+00 0.0000000000000000e+00 0.0000000000000000e+00
1638 0.0000000000000000e+00 0.0000000000000000e+00 0.0000000000000000e+00
1639 0.0000000000000000e+00 0.0000000000000000e+00 0.0000000000000000e+00
1644 0.0000000000000000e+00 0.0000000000000000e+00 0.0000000000000000e+00
1649 0.0000000000000000e+00 0.0000000000000000e+00 0.0000000000000000e+00
853 0.0000000000000000e+00 0.0000000000000000e+00 0.0000000000000000e+00
885 0.0000000000000000e+00 0.0000000000000000e+00 0.0000000000000000e+00
1250 0.0000000000000000e+00 0.0000000000000000e+00 0.0000000000000000e+00
1251 0.0000000000000000e+00 0.0000000000000000e+00 0.0000000000000000e+00
1252 0.0000000000000000e+00 0.0000000000000000e+00 0.0000000000000000e+00
1257 0.0000000000000000e+00 0.0000000000000000e+00 0.0000000000000000e+00
1285 0.0000000000000000e+00 0.0000000000000000e+00 0.0000000000000000e+00
1630 0.0000000000000000e+00 0.0000000000000000e+00 0.0000000000000000e+00
512 0.0000000000000000e+00 0.0000000000000000e+00 0.0000000000000000e+00
805 0.0000000000000000e+00 0.0000000000000000e+00 0.0000000000000000e+00
806 0.0000000000000000e+00 0.0000000000000000e+00 0.0000000000000000e+00
807 0.0000000000000000e+00 0.0000000000000000e+00 0.0000000000000000e+00
854 0.0000000000000000e+00 0.0000000000000000e+00 0.0000000000000000e+00
855 0.0000000000000000e+00 0.0000000000000000e+00 0.0000000000000000e+00
860 0.0000000000000000e+00 0.0000000000000000e+00 0.0000000000000000e+00
1214 0.0000000000000000e+00 0.0000000000000000e+00 0.0000000000000000e+00
