Loading lammps/kokkos/gpu_della9_2022
  Loading requirement: gcc-toolset/14 openmpi/gcc/4.1.6
    fftw/gcc/openmpi-4.1.6/3.3.10 cudatoolkit/12.8
LAMMPS (23 Jun 2022)
KOKKOS mode is enabled (src/KOKKOS/kokkos.cpp:105)
  will use up to 1 GPU(s) per node
WARNING: When using a single thread, the Kokkos Serial backend (i.e. Makefile.kokkos_mpi_only) gives better performance than the OpenMP backend (src/KOKKOS/kokkos.cpp:217)
  using 1 OpenMP thread(s) per MPI task
BOTTOM -0.625
Lattice spacing in x,y,z = 2.5211094 2.5211094 3.5653872
Created orthogonal box = (0 0 -2.228367) to (22.689985 22.689985 28.523097)
  1 by 1 by 1 MPI processor grid
Created 1215 atoms
  using lattice units in orthogonal box = (0 0 -2.228367) to (22.689985 22.689985 28.523097)
  create_atoms CPU = 0.005 seconds
Setting atom values ...
  1215 settings made for charge
N_LAT_0 1944
162 atoms in group anchor
0 atoms in group insert
1053 atoms in group mobile
1215 atoms in group carbon
Reading potential file ffield.reax with DATE: 2011-02-18
WARNING: Changed valency_val to valency_boc for X (src/REAXFF/reaxff_ffield.cpp:296)
Changing box ...
  orthogonal box = (0 0 -2.228367) to (22.689985 22.689985 28.523097)
  orthogonal box = (0 0 -2.228367) to (22.689985 22.689985 28.523097)
  orthogonal box = (0 0 -2.228367) to (22.689985 22.689985 28.523097)
System init for delete_atoms ...
Neighbor list info ...
  update every 1 steps, delay 10 steps, check yes
  max neighbors/atom: 2000, page size: 100000
  master list distance cutoff = 12
  ghost atom cutoff = 12
  binsize = 12, bins = 2 2 3
  3 neighbor lists, perpetual/occasional/extra = 2 1 0
  (1) command delete_atoms, occasional
      attributes: full, newton on
      pair build: full/bin/atomonly
      stencil: full/bin/3d
      bin: standard
  (2) pair reaxff/kk, perpetual
      attributes: half, newton off, ghost, kokkos_device
      pair build: half/bin/ghost/kk/device
      stencil: full/ghost/bin/3d
      bin: kk/device
  (3) fix qeq/reaxff/kk, perpetual
      attributes: full, newton off, kokkos_device
      pair build: full/bin/kk/device
      stencil: full/bin/3d
      bin: kk/device
WARNING: Fixes cannot yet send exchange data in Kokkos communication, switching to classic exchange/border communication (src/KOKKOS/comm_kokkos.cpp:581)
Deleted 0 atoms, new total = 1215

CITE-CITE-CITE-CITE-CITE-CITE-CITE-CITE-CITE-CITE-CITE-CITE-CITE

Your simulation uses code contributions which should be cited:
- pair reaxff command:
- fix qeq/reaxff command:
The log file lists these citations in BibTeX format.

CITE-CITE-CITE-CITE-CITE-CITE-CITE-CITE-CITE-CITE-CITE-CITE-CITE

WARNING: Using 'neigh_modify every 1 delay 0 check yes' setting during minimization (src/min.cpp:187)
Neighbor list info ...
  update every 1 steps, delay 0 steps, check yes
  max neighbors/atom: 2000, page size: 100000
  master list distance cutoff = 12
  ghost atom cutoff = 12
  binsize = 12, bins = 2 2 3
  2 neighbor lists, perpetual/occasional/extra = 2 0 0
  (1) pair reaxff/kk, perpetual
      attributes: half, newton off, ghost, kokkos_device
      pair build: half/bin/ghost/kk/device
      stencil: full/ghost/bin/3d
      bin: kk/device
  (2) fix qeq/reaxff/kk, perpetual
      attributes: full, newton off, kokkos_device
      pair build: full/bin/kk/device
      stencil: full/bin/3d
      bin: kk/device
Setting up cg/kk style minimization ...
  Unit style    : real
  Current step  : 0
Per MPI rank memory allocation (min/avg/max) = 38.44 | 38.44 | 38.44 Mbytes
   Step          Temp          E_pair         E_mol          TotEng         Press          Volume    
         0   0             -210443.5       0             -210443.5       42752.228      15831.943    
         4   0             -210644.91      0             -210644.91     -3962.8872      15831.943    
Loop time of 0.481541 on 1 procs for 4 steps with 1215 atoms

99.5% CPU use with 1 MPI tasks x 1 OpenMP threads

Minimization stats:
  Stopping criterion = energy tolerance
  Energy initial, next-to-last, final = 
     -210443.500576604  -210643.442580239  -210644.910348709
  Force two-norm initial, final = 998.72246 307.09751
  Force max component initial, final = 63.863581 16.227677
  Final line search alpha, max atom move = 0.0030518976 0.049525209
  Iterations, force evaluations = 4 32

MPI task timing breakdown:
Section |  min time  |  avg time  |  max time  |%varavg| %total
---------------------------------------------------------------
Pair    | 0.31084    | 0.31084    | 0.31084    |   0.0 | 64.55
Neigh   | 0          | 0          | 0          |   0.0 |  0.00
Comm    | 0.00059863 | 0.00059863 | 0.00059863 |   0.0 |  0.12
Output  | 0          | 0          | 0          |   0.0 |  0.00
Modify  | 0.1592     | 0.1592     | 0.1592     |   0.0 | 33.06
Other   |            | 0.0109     |            |       |  2.26

Nlocal:           1215 ave        1215 max        1215 min
Histogram: 1 0 0 0 0 0 0 0 0 0
Nghost:           3919 ave        3919 max        3919 min
Histogram: 1 0 0 0 0 0 0 0 0 0
Neighs:         716037 ave      716037 max      716037 min
Histogram: 1 0 0 0 0 0 0 0 0 0
FullNghs:  1.03923e+06 ave 1.03923e+06 max 1.03923e+06 min
Histogram: 1 0 0 0 0 0 0 0 0 0

Total # of neighbors = 1039230
Ave neighs/atom = 855.33333
Neighbor list builds = 0
Dangerous builds = 0
90 atoms in group row0
72 atoms in group row1
Displacing atoms ...
Displacing atoms ...
WARNING: Using 'neigh_modify every 1 delay 0 check yes' setting during minimization (src/min.cpp:187)
Setting up cg/kk style minimization ...
  Unit style    : real
  Current step  : 0
Per MPI rank memory allocation (min/avg/max) = 38.41 | 38.41 | 38.41 Mbytes
   Step          Temp          E_pair         E_mol          TotEng         Press          Volume    
         0   0             -207831.19      0             -207831.19      21812.254      15831.943    
         6   0             -211891.22      0             -211891.22      7114.3211      15831.943    
Loop time of 0.163322 on 1 procs for 6 steps with 1215 atoms

99.8% CPU use with 1 MPI tasks x 1 OpenMP threads

Minimization stats:
  Stopping criterion = energy tolerance
  Energy initial, next-to-last, final = 
     -207831.188662235  -211890.122977435  -211891.221296225
  Force two-norm initial, final = 2054.359 336.26366
  Force max component initial, final = 202.01798 23.465683
  Final line search alpha, max atom move = 0.0031744325 0.074490225
  Iterations, force evaluations = 6 8

MPI task timing breakdown:
Section |  min time  |  avg time  |  max time  |%varavg| %total
---------------------------------------------------------------
Pair    | 0.087558   | 0.087558   | 0.087558   |   0.0 | 53.61
Neigh   | 0          | 0          | 0          |   0.0 |  0.00
Comm    | 0.00017412 | 0.00017412 | 0.00017412 |   0.0 |  0.11
Output  | 0          | 0          | 0          |   0.0 |  0.00
Modify  | 0.0726     | 0.0726     | 0.0726     |   0.0 | 44.45
Other   |            | 0.002991   |            |       |  1.83

Nlocal:           1215 ave        1215 max        1215 min
Histogram: 1 0 0 0 0 0 0 0 0 0
Nghost:           3919 ave        3919 max        3919 min
Histogram: 1 0 0 0 0 0 0 0 0 0
Neighs:         715766 ave      715766 max      715766 min
Histogram: 1 0 0 0 0 0 0 0 0 0
FullNghs:   1.0368e+06 ave  1.0368e+06 max  1.0368e+06 min
Histogram: 1 0 0 0 0 0 0 0 0 0

Total # of neighbors = 1036800
Ave neighs/atom = 853.33333
Neighbor list builds = 0
Dangerous builds = 0
Created 81 atoms
  using lattice units in orthogonal box = (0 0 -2.228367) to (22.689985 22.689985 28.523097)
  create_atoms CPU = 0.001 seconds
81 atoms in group O
Displacing atoms ...
WARNING: Using 'neigh_modify every 1 delay 0 check yes' setting during minimization (src/min.cpp:187)
Setting up cg/kk style minimization ...
  Unit style    : real
  Current step  : 0
Per MPI rank memory allocation (min/avg/max) = 41.33 | 41.33 | 41.33 Mbytes
   Step          Temp          E_pair         E_mol          TotEng         Press          Volume    
         0   0             -215599.47      0             -215599.47      117997.02      15831.943    
         9   0             -221165.49      0             -221165.49      36444.073      15831.943    
Loop time of 1.27681 on 1 procs for 9 steps with 1296 atoms

99.8% CPU use with 1 MPI tasks x 1 OpenMP threads

Minimization stats:
  Stopping criterion = energy tolerance
  Energy initial, next-to-last, final = 
     -215599.468526559  -221163.513334192  -221165.489665815
  Force two-norm initial, final = 8552.6509 193.76802
  Force max component initial, final = 1048.496 31.991536
  Final line search alpha, max atom move = 3.9652987e-11 1.26856e-09
  Iterations, force evaluations = 9 69

MPI task timing breakdown:
Section |  min time  |  avg time  |  max time  |%varavg| %total
---------------------------------------------------------------
Pair    | 0.68976    | 0.68976    | 0.68976    |   0.0 | 54.02
Neigh   | 0          | 0          | 0          |   0.0 |  0.00
Comm    | 0.0010778  | 0.0010778  | 0.0010778  |   0.0 |  0.08
Output  | 0          | 0          | 0          |   0.0 |  0.00
Modify  | 0.56452    | 0.56452    | 0.56452    |   0.0 | 44.21
Other   |            | 0.02145    |            |       |  1.68

Nlocal:           1296 ave        1296 max        1296 min
Histogram: 1 0 0 0 0 0 0 0 0 0
Nghost:           4162 ave        4162 max        4162 min
Histogram: 1 0 0 0 0 0 0 0 0 0
Neighs:         785225 ave      785225 max      785225 min
Histogram: 1 0 0 0 0 0 0 0 0 0
FullNghs:  1.13915e+06 ave 1.13915e+06 max 1.13915e+06 min
Histogram: 1 0 0 0 0 0 0 0 0 0

Total # of neighbors = 1139148
Ave neighs/atom = 878.97222
Neighbor list builds = 0
Dangerous builds = 0
System init for write_data ...
WARNING: Temperature for thermo pressure is not for group all (src/thermo.cpp:520)
Setting up Verlet run ...
  Unit style    : real
  Current step  : 0
  Time step     : 1
Per MPI rank memory allocation (min/avg/max) = 40.95 | 40.95 | 40.95 Mbytes
   Step          Time           Temp     
         0   0              300          
      1000   1000           365.19766    
      2000   2000           391.30252    
      3000   3000           360.87879    
      4000   4000           371.41703    
      5000   5000           350.77349    
      6000   6000           364.97689    
      7000   7000           368.82554    
      8000   8000           350.23685    
      9000   9000           362.62624    
     10000   10000          382.67074    
Loop time of 121.331 on 1 procs for 10000 steps with 1296 atoms

Performance: 7.121 ns/day, 3.370 hours/ns, 82.419 timesteps/s
99.7% CPU use with 1 MPI tasks x 1 OpenMP threads

MPI task timing breakdown:
Section |  min time  |  avg time  |  max time  |%varavg| %total
---------------------------------------------------------------
Pair    | 85.802     | 85.802     | 85.802     |   0.0 | 70.72
Neigh   | 0          | 0          | 0          |   0.0 |  0.00
Comm    | 2.4433     | 2.4433     | 2.4433     |   0.0 |  2.01
Output  | 0.0034704  | 0.0034704  | 0.0034704  |   0.0 |  0.00
Modify  | 32.769     | 32.769     | 32.769     |   0.0 | 27.01
Other   |            | 0.3132     |            |       |  0.26

Nlocal:           1296 ave        1296 max        1296 min
Histogram: 1 0 0 0 0 0 0 0 0 0
Nghost:           4162 ave        4162 max        4162 min
Histogram: 1 0 0 0 0 0 0 0 0 0
Neighs:         785375 ave      785375 max      785375 min
Histogram: 1 0 0 0 0 0 0 0 0 0
FullNghs:   1.1392e+06 ave  1.1392e+06 max  1.1392e+06 min
Histogram: 1 0 0 0 0 0 0 0 0 0

Total # of neighbors = 1139202
Ave neighs/atom = 879.01389
Neighbor list builds = 0
Dangerous builds = 0
System init for write_data ...
System init for write_data ...
0 1944 0 0
0 -0.625 1944
Total wall time: 0:02:03
srun: error: della-l05g6: task 0: Exited with exit code 1
srun: Terminating StepId=6632121.1
LAMMPS exited with code 1 — not re-submitting.
