LAMMPS data file via write_data, version 23 Jun 2022, timestep = 0

828 atoms
3 atom types

0 15.126656667556212 xlo xhi
0 15.126656667556212 ylo yhi
-2.2283669804811876 35.653871687699 zlo zhi

Masses

1 12.011
2 1.00784
3 16

Atoms # charge/kk

1 1 -5.5798000040954622e-06 1.9894741144594403e-24 3.7816641668890525e+00 -8.9134679256500415e-01 0 0 0
2 1 -2.8946038086454629e-06 1.9894741153700311e-24 1.2605547222963509e+00 -8.9134679256500415e-01 0 0 0
3 1 -1.0113826760912968e-06 1.2605547222963509e+00 1.2605547222963509e+00 -1.7826935841246077e+00 0 0 0
4 1 -2.7392375229966587e-06 2.5211094445927018e+00 1.2605547222963507e+00 -8.9134679256500415e-01 0 0 0
6 1 5.1683799091195022e-08 0.0000000000000000e+00 6.3027736114817543e+00 -8.9134679256500415e-01 0 0 0
7 1 -1.8138089682036689e-07 1.2605547222963507e+00 6.3027736114817543e+00 -1.7826935841246077e+00 0 0 0
8 1 -2.0494376684569074e-06 1.2605547222963509e+00 3.7816641668890529e+00 -1.7826935841246077e+00 0 0 0
9 1 -2.2708086091350999e-07 2.5211094445927023e+00 6.3027736114817552e+00 -8.9134679256500415e-01 0 0 0
10 1 -1.2858080417388246e-06 2.5211094445927018e+00 3.7816641668890525e+00 -8.9134679256500415e-01 0 0 0
11 1 -7.6148490450946852e-07 3.7816641668890525e+00 3.7816641668890525e+00 -1.7826935841246077e+00 0 0 0
12 1 1.8730072380278666e-06 3.7816641668890529e+00 1.2605547222963509e+00 -1.7826935841246077e+00 0 0 0
13 1 1.1635796916093720e-07 5.0422188891854045e+00 3.7816641668890534e+00 -8.9134679256500415e-01 0 0 0
14 1 -8.1046140393960970e-07 5.0422188891854036e+00 1.2605547222963509e+00 -8.9134679256500415e-01 0 0 0
15 1 1.1660517778972766e-06 6.3027736114817543e+00 1.2605547222963507e+00 -1.7826935841246077e+00 0 0 0
24 1 9.6691012015282071e-07 3.7816641668890529e+00 6.3027736114817543e+00 -1.7826935841246077e+00 0 0 0
26 1 -4.1331710465474008e-06 5.0422188891854027e+00 6.3027736114817543e+00 -8.9134679256500415e-01 0 0 0
27 1 1.1709713188507593e-06 6.3027736114817543e+00 6.3027736114817543e+00 -1.7826935841246077e+00 0 0 0
28 1 3.2051069261696850e-07 6.3027736114817543e+00 3.7816641668890529e+00 -1.7826935841246077e+00 0 0 0
30 1 -5.8646809409022390e-06 7.5633283337781050e+00 3.7816641668890520e+00 -8.9134679256500415e-01 0 0 0
73 1 4.7479369259216836e-06 2.4881408331540570e-02 2.5553115651377585e+00 1.8844725274831296e-02 0 0 0
74 1 -5.0015750553265121e-06 1.5080385746961715e+01 3.8056449755078656e+00 2.6926353215800987e+00 -1 0 0
75 1 -7.2851983868004707e-06 1.5083796423812256e+01 1.2415587269124806e+00 2.6781773222630836e+00 -1 0 0
76 1 -6.2290006413277900e-06 1.2865138835127647e+00 2.5301696301079049e+00 8.8395321206387090e-01 0 0 0
77 1 4.0245307403752461e-06 1.5096262471489243e+01 1.5114328798687158e+01 1.4614375825315509e-02 -1 -1 0
78 1 6.3299808834991749e-06 1.3262768582714168e+00 1.2351456977032274e+00 1.7734434063279130e+00 0 0 0
79 1 4.8952567120656036e-06 2.5232477964924844e+00 1.1496327630296583e-02 2.5779778603940262e-02 0 0 0
80 1 -6.6985940892627265e-06 1.2808486668833892e+00 7.6094469595318452e-03 9.0001219579833769e-01 0 0 0
81 1 -6.2947293976643964e-06 2.5463708295955723e+00 1.2043643044717660e+00 2.6778173209103540e+00 0 0 0
82 1 -6.4229338690360530e-06 3.8009726903469785e+00 1.5110423256532247e+01 8.8635087950746738e-01 0 -1 0
83 1 1.6471346825992444e-06 2.0308974697036779e-02 7.5861984830203202e+00 -2.3739444873010593e-02 0 0 0
85 1 -5.5581821306702374e-06 1.7699427163759204e-02 6.3264869159929882e+00 2.6757682563740972e+00 0 0 0
87 1 4.9021084351617615e-06 2.7532754710857199e-02 5.0638906451723162e+00 4.5647877869037234e-02 0 0 0
88 1 5.7736805817409989e-06 1.2807591133603669e+00 6.3344691775789661e+00 1.7961824507478890e+00 0 0 0
89 1 7.2746343366564800e-06 1.3255521395787548e+00 3.7999074319793458e+00 1.8528225341849658e+00 0 0 0
90 1 4.0243371804015660e-06 2.5436137121628373e+00 5.0640411523190494e+00 1.6769693718847487e-02 0 0 0
91 1 -2.4404570556818873e-06 1.2877989981085298e+00 5.0794062157729654e+00 9.2285174410924387e-01 0 0 0
92 1 -4.2333291711322005e-06 2.5199744999409326e+00 6.3557695387074098e+00 2.6604219616025970e+00 0 0 0
93 1 -9.6236569568902376e-06 2.5099824935562198e+00 3.7365969941733108e+00 2.7191878515448198e+00 0 0 0
94 1 -5.0973284062357100e-06 3.7775369508006338e+00 5.0337013749784294e+00 9.1290148957575046e-01 0 0 0
95 1 7.1593674653292058e-06 2.5076044973757998e+00 2.4972492090476006e+00 -1.4064181616532750e-02 0 0 0
96 1 5.6572122706013405e-06 3.7168574559824599e+00 3.7307815036950194e+00 1.7919280308151477e+00 0 0 0
97 1 3.3694602893377255e-06 3.7930240566754443e+00 1.2248406399641460e+00 1.7529058671783846e+00 0 0 0
98 1 3.7847724486296807e-06 4.9978982455912977e+00 2.5040412256915552e+00 5.7526296876227304e-02 0 0 0
99 1 -4.0227690201363161e-06 3.8102011665090521e+00 2.4942341336973710e+00 9.1298783591132759e-01 0 0 0
100 1 -8.3031350099560296e-06 5.0945772700137937e+00 3.7711879102429404e+00 2.6640303059894621e+00 0 0 0
101 1 -5.4838539909000618e-06 5.0353382536139382e+00 1.2559270478486344e+00 2.7064018493758430e+00 0 0 0
102 1 -2.8135603827395759e-06 6.3534139359198285e+00 2.5183753951447785e+00 9.3757763807942618e-01 0 0 0
103 1 5.1862566827822688e-06 5.0840209309752540e+00 1.5114799753451861e+01 3.0332338731699719e-03 0 -1 0
104 1 6.6847355718913646e-07 6.3064643397254194e+00 1.2464753240412929e+00 1.8460340774730091e+00 0 0 0
105 1 5.9313298948688192e-06 7.5632494957763008e+00 1.2203250268423139e-03 1.6436034643467580e-02 0 0 0
106 1 -5.0347139769159045e-06 6.2718887225621165e+00 1.3062764894146966e-02 9.3577137466371585e-01 0 0 0
123 1 4.7425194797209266e-06 3.7993405575647405e+00 6.2768657431286288e+00 1.8018987997755742e+00 0 0 0
124 1 3.4265718650548431e-06 5.0680428678592593e+00 7.5974693468125585e+00 2.7714716590538532e-02 0 0 0
125 1 -1.0146471128328318e-06 3.7490597400996299e+00 7.5979881699242799e+00 9.3964601375992785e-01 0 0 0
127 1 -4.7056563737388937e-06 5.0942138361539646e+00 6.3039783509716791e+00 2.6803661332893340e+00 0 0 0
129 1 3.6846962580729518e-06 5.0635806463159545e+00 4.9960112709358855e+00 3.6452955835586824e-02 0 0 0
130 1 5.0617524188671266e-06 6.3292478694556342e+00 6.3189821676429121e+00 1.7447784784411855e+00 0 0 0
131 1 4.6485158434773493e-06 6.3452187813360350e+00 3.7572265361722619e+00 1.8185437194684324e+00 0 0 0
132 1 5.0329964941786885e-06 7.5316960567135132e+00 5.0437950814437249e+00 6.7248649736720099e-03 0 0 0
133 1 -2.8112521753304258e-06 6.2917101308703369e+00 5.0995012088010432e+00 8.8075237980029275e-01 0 0 0
135 1 -5.5588402698417876e-06 7.5733199809389760e+00 3.7636570623482934e+00 2.7647753610738537e+00 0 0 0
169 1 4.9832984985651714e-06 7.5314622710769950e+00 7.5730247379397575e+00 9.4107880131980058e-04 0 0 0
217 1 7.8584916918955119e-06 1.5049162567868684e+01 2.5372407641967003e+00 3.5852683622387098e+00 -1 0 0
221 1 6.8645712405095362e-06 1.5114174200144433e+01 1.8253289045340518e-02 3.4972132126048754e+00 -1 0 0
223 1 5.7855816356151870e-06 2.4992126648054200e+00 1.5118443134315189e+01 3.5798623374377043e+00 0 -1 0
227 1 4.5599978398473250e-06 7.1598289760612388e-02 7.5356332776469319e+00 3.6162268906350752e+00 0 0 0
231 1 4.7637138728905672e-06 1.0116994838812683e-02 5.0901258326516547e+00 3.5737337398671349e+00 0 0 0
234 1 1.0337614006836185e-05 2.5642469682367377e+00 5.0356196046884554e+00 3.6217427798553596e+00 0 0 0
239 1 5.7728069926256626e-06 2.4940601929576780e+00 2.5318228180052298e+00 3.6032296858707795e+00 0 0 0
242 1 7.2461536898366104e-06 5.0400104543084465e+00 2.5454381480245862e+00 3.5533549817915748e+00 0 0 0
247 1 3.8392340337909074e-06 5.0108329607938797e+00 7.2268001897380901e-03 3.6235460947038187e+00 0 0 0
249 1 8.2124308356032048e-06 7.5627236467473526e+00 1.5086126267512173e+01 3.5930051886629397e+00 0 -1 0
268 1 3.8704035238122186e-06 5.0523532849527353e+00 7.5441452652647571e+00 3.6100213622800781e+00 0 0 0
273 1 6.5280416446733140e-06 5.0422635793599770e+00 5.0157377427969703e+00 3.5588053219593938e+00 0 0 0
276 1 2.4358694360389063e-06 7.6057138438281431e+00 5.0104114864837852e+00 3.6603492144254268e+00 0 0 0
313 1 9.8011321755287277e-06 7.5709158527597857e+00 7.4978607046097316e+00 3.6257044362313224e+00 0 0 0
16 1 3.2978803194481675e-07 7.5633283337781059e+00 1.2605547222963516e+00 -8.9134679256500415e-01 0 0 0
29 1 -3.1299305205308949e-06 7.5633283337781059e+00 6.3027736114817543e+00 -8.9134679256500415e-01 0 0 0
31 1 -1.1929964572498392e-06 8.8238830560744557e+00 3.7816641668890525e+00 -1.7826935841246077e+00 0 0 0
32 1 -1.7740153830148471e-06 8.8238830560744557e+00 1.2605547222963511e+00 -1.7826935841246077e+00 0 0 0
33 1 3.8667673264936624e-07 1.0084437778370807e+01 3.7816641668890529e+00 -8.9134679256500415e-01 0 0 0
34 1 -1.6591171232822262e-06 1.0084437778370807e+01 1.2605547222963498e+00 -8.9134679256500415e-01 0 0 0
35 1 -4.2868364509657233e-07 1.1344992500667157e+01 1.2605547222963507e+00 -1.7826935841246077e+00 0 0 0
36 1 -5.1225148260952038e-07 1.2605547222963509e+01 1.2605547222963516e+00 -8.9134679256500415e-01 0 0 0
48 1 1.1926231697179550e-06 8.8238830560744557e+00 6.3027736114817543e+00 -1.7826935841246077e+00 0 0 0
50 1 -4.0588180659981155e-06 1.0084437778370805e+01 6.3027736114817534e+00 -8.9134679256500415e-01 0 0 0
51 1 1.3414210823488590e-06 1.1344992500667159e+01 6.3027736114817561e+00 -1.7826935841246077e+00 0 0 0
52 1 1.7892098332059515e-07 1.1344992500667157e+01 3.7816641668890525e+00 -1.7826935841246077e+00 0 0 0
53 1 -4.0203982579592203e-06 1.2605547222963509e+01 6.3027736114817543e+00 -8.9134679256500415e-01 0 0 0
54 1 1.4257878726576978e-06 1.2605547222963509e+01 3.7816641668890512e+00 -8.9134679256500415e-01 0 0 0
55 1 -3.1905595938366020e-06 1.3866101945259860e+01 3.7816641668890538e+00 -1.7826935841246077e+00 0 0 0
56 1 1.0337119075104288e-07 1.3866101945259860e+01 1.2605547222963507e+00 -1.7826935841246077e+00 0 0 0
68 1 1.9240663486820024e-06 1.3866101945259860e+01 6.3027736114817543e+00 -1.7826935841246077e+00 0 0 0
107 1 -4.7608195004326892e-06 7.5160835703654953e+00 1.2351665755907719e+00 2.7480538643156001e+00 0 0 0
108 1 -8.2789399666974164e-06 8.7954756617505740e+00 2.3028030057883214e-02 8.7755850605340113e-01 0 0 0
134 1 -6.1261525873006662e-06 7.5862701667379104e+00 6.2772553954602959e+00 2.6998004742138808e+00 0 0 0
136 1 -7.8753054567445336e-06 8.7845436144703672e+00 5.0362709867600080e+00 9.1596064494923324e-01 0 0 0
137 1 3.5533169332417875e-06 7.6188861194905551e+00 2.5279104910338148e+00 3.7555346951725528e-02 0 0 0
138 1 6.7325080248179524e-06 8.8252478154771072e+00 3.7856380266474106e+00 1.7857047267311410e+00 0 0 0
139 1 2.8623626167884850e-06 8.8069698546316566e+00 1.2442273282061880e+00 1.7800832833685174e+00 0 0 0
140 1 2.4545207193656017e-06 1.0109276544078327e+01 2.5293826595105697e+00 -1.4821239620637940e-02 0 0 0
141 1 -2.5208035901070495e-06 8.8856679503051854e+00 2.5143575275724905e+00 8.8456555593687280e-01 0 0 0
142 1 -7.3546415308356805e-06 1.0041300565151362e+01 3.7839878219455061e+00 2.7021154489857944e+00 0 0 0
143 1 -8.9025138936358280e-06 1.0078003439016909e+01 1.2782525523013351e+00 2.7104661889805350e+00 0 0 0
144 1 -3.9890129926667690e-06 1.1379327565465335e+01 2.5078406185846824e+00 8.6599932761662335e-01 0 0 0
145 1 4.3123586611017239e-06 1.0072738902813365e+01 1.5110838324516743e+01 2.4396998914618766e-03 0 -1 0
146 1 5.2242759336422271e-06 1.1331621060495420e+01 1.2251253699292206e+00 1.7645787950140590e+00 0 0 0
147 1 4.9161211146749671e-06 1.2593952781929596e+01 1.5055556764594405e+01 3.5464063259272274e-02 0 -1 0
148 1 -4.3794016166052930e-06 1.1284539220051073e+01 1.5060324693482332e+01 9.4016802615018502e-01 0 -1 0
149 1 -7.7111656319489788e-06 1.2532908570057096e+01 1.2884423159688811e+00 2.6346204782875207e+00 0 0 0
150 1 -5.8090375251347175e-06 1.3780185737716051e+01 1.5065156256180378e+01 9.1117454903780604e-01 0 -1 0
171 1 6.4374362819640939e-06 8.8310639760863943e+00 6.2862051442696565e+00 1.7778961944975384e+00 0 0 0
173 1 -5.1753459343214153e-06 8.7848997266303410e+00 7.5579004713176063e+00 9.1974649634773398e-01 0 0 0
175 1 -1.0874317907989165e-05 1.0059499082624281e+01 6.2750948941674087e+00 2.6812782122755863e+00 0 0 0
176 1 -6.0173200407774820e-06 1.1402867516001589e+01 7.5538721381986544e+00 8.8661111161844319e-01 0 0 0
177 1 6.1428550100800837e-06 1.0062432679546674e+01 5.0368382230822935e+00 4.0266564129466081e-02 0 0 0
178 1 9.7977567543925583e-06 1.1322714910956549e+01 6.2805502039383514e+00 1.8196724034800746e+00 0 0 0
179 1 3.0898019329061324e-06 1.1337818666270859e+01 3.7870378634175355e+00 1.7964500841682627e+00 0 0 0
180 1 4.3236821271847411e-06 1.2613283811535215e+01 5.1037383352053762e+00 -1.6720582621603010e-02 0 0 0
181 1 -6.0995587597545107e-06 1.1316468721309619e+01 5.0263621905770570e+00 8.7297862867213105e-01 0 0 0
182 1 -6.2551573996410405e-06 1.2642633909165404e+01 6.2920690238856762e+00 2.7198334097727970e+00 0 0 0
183 1 -1.1028487364244968e-05 1.2636925033534075e+01 3.7661521291528546e+00 2.6549153915069574e+00 0 0 0
184 1 -4.1469468465153865e-06 1.3903072293270485e+01 5.0364573556670127e+00 8.9048099531591984e-01 0 0 0
185 1 4.5327764948627858e-06 1.2652264541861935e+01 2.5400807274628514e+00 -1.3498146125066066e-03 0 0 0
186 1 5.0634904184449816e-06 1.3899180209109980e+01 3.7499300726696432e+00 1.8138992868761112e+00 0 0 0
187 1 4.4659226134592397e-06 1.3853403625773717e+01 1.2675486009642229e+00 1.7988188579592210e+00 0 0 0
188 1 -2.8622320012907981e-06 1.3905516073146714e+01 2.4960199606833839e+00 8.8049875190367932e-01 0 0 0
209 1 7.1525336002887379e-06 1.3906008462486096e+01 6.3065402775912984e+00 1.8095451691109623e+00 0 0 0
281 1 6.5949283333665420e-06 7.5786255614292868e+00 2.5053178848652031e+00 3.6625981355089698e+00 0 0 0
284 1 1.0391788193764179e-05 1.0051882883111753e+01 2.5215807989684502e+00 3.6340855747720195e+00 0 0 0
289 1 8.8432340431175718e-06 1.0078374855170788e+01 1.3903434614187579e-02 3.6068140322100501e+00 0 0 0
291 1 1.0072523201605932e-05 1.2594144778658034e+01 4.8262739314997312e-02 3.5714691336892930e+00 0 0 0
321 1 1.3185359050161568e-05 1.0087184063178675e+01 5.0625561826339540e+00 3.6027825944972514e+00 0 0 0
324 1 9.7345954655445574e-06 1.2566930725488911e+01 5.0627664090353104e+00 3.5438644070129106e+00 0 0 0
329 1 1.1245799764162766e-05 1.2606646101352680e+01 2.4994765677644510e+00 3.5906544732250869e+00 0 0 0
5 1 -2.7386338909815640e-06 0.0000000000000000e+00 8.8238830560744574e+00 -8.9134679256500415e-01 0 0 0
17 1 -5.0496002307226395e-06 3.1085532905397178e-25 1.3866101945259860e+01 -8.9134679256500415e-01 0 0 0
18 1 -2.8583015112404238e-06 0.0000000000000000e+00 1.1344992500667157e+01 -8.9134679256500415e-01 0 0 0
19 1 -4.5256532417296462e-07 1.2605547222963507e+00 1.1344992500667157e+01 -1.7826935841246077e+00 0 0 0
20 1 3.5573842029122948e-07 1.2605547222963511e+00 8.8238830560744557e+00 -1.7826935841246077e+00 0 0 0
21 1 -3.1510114676098351e-06 2.5211094445927014e+00 1.1344992500667159e+01 -8.9134679256500415e-01 0 0 0
22 1 -2.6704044190963779e-06 2.5211094445927014e+00 8.8238830560744557e+00 -8.9134679256500415e-01 0 0 0
23 1 1.0760620965675024e-06 3.7816641668890525e+00 8.8238830560744557e+00 -1.7826935841246077e+00 0 0 0
25 1 -3.0016485457481033e-06 5.0422188891854036e+00 8.8238830560744557e+00 -8.9134679256500415e-01 0 0 0
37 1 2.4730169617030864e-06 1.2605547222963507e+00 1.3866101945259860e+01 -1.7826935841246077e+00 0 0 0
38 1 -4.3301448289562085e-06 2.5211094445927014e+00 1.3866101945259858e+01 -8.9134679256500415e-01 0 0 0
39 1 1.0300681327380242e-06 3.7816641668890538e+00 1.3866101945259860e+01 -1.7826935841246077e+00 0 0 0
40 1 2.4917737783975193e-06 3.7816641668890525e+00 1.1344992500667157e+01 -1.7826935841246077e+00 0 0 0
41 1 -2.0111897218379712e-06 5.0422188891854027e+00 1.3866101945259860e+01 -8.9134679256500415e-01 0 0 0
42 1 -6.3084198984292242e-06 5.0422188891854027e+00 1.1344992500667157e+01 -8.9134679256500415e-01 0 0 0
43 1 5.9433941997748197e-07 6.3027736114817561e+00 1.1344992500667159e+01 -1.7826935841246077e+00 0 0 0
44 1 2.7468534288505811e-06 6.3027736114817543e+00 8.8238830560744557e+00 -1.7826935841246077e+00 0 0 0
45 1 -2.7011538221975451e-06 7.5633283337781050e+00 1.1344992500667157e+01 -8.9134679256500415e-01 0 0 0
46 1 -4.5797740571168007e-06 7.5633283337781041e+00 8.8238830560744557e+00 -8.9134679256500415e-01 0 0 0
57 1 -4.4090168882805085e-07 6.3027736114817543e+00 1.3866101945259860e+01 -1.7826935841246077e+00 0 0 0
84 1 -3.3159466722830803e-06 5.0352392212763886e-02 8.7935093582847372e+00 2.7000244169613827e+00 0 0 0
86 1 -2.6548671434149383e-06 1.2829330221720030e+00 7.6027331912143499e+00 9.0249738819331071e-01 0 0 0
109 1 5.5437653429961472e-06 6.5865490136139387e-03 1.2598846441182497e+01 5.1838270145240548e-02 0 0 0
110 1 -7.2406025480682828e-06 2.8208529948307463e-02 1.3820665322123810e+01 2.5885658509695491e+00 0 0 0
111 1 -8.1089234980131712e-06 2.1494950497169561e-02 1.1330366157836924e+01 2.7124683159150700e+00 0 0 0
112 1 -8.5829343306681847e-06 1.2678211960478964e+00 1.2609146490719995e+01 8.7223592383349358e-01 0 0 0
113 1 4.9417243382580253e-06 1.5113199191193308e+01 1.0086140974077077e+01 1.9272640437201474e-02 -1 0 0
114 1 5.5878093736852091e-06 1.2981528793588308e+00 1.1292052646356506e+01 1.7606537887817899e+00 0 0 0
115 1 1.1689301174039179e-06 1.2870815375894822e+00 8.8502253298069125e+00 1.8016497011791146e+00 0 0 0
116 1 5.6263006302713832e-06 2.5060142251590913e+00 1.0058932167031486e+01 -2.5565100437904040e-02 0 0 0
117 1 -4.2561054943338915e-06 1.2358943784143457e+00 1.0083190383758298e+01 9.0364575504653355e-01 0 0 0
118 1 -8.6018147134339027e-06 2.5527300181994814e+00 1.1323630223410509e+01 2.7257273846858148e+00 0 0 0
119 1 -2.9504767668982274e-06 2.4994135925727905e+00 8.8618629840868870e+00 2.6877418204774255e+00 0 0 0
120 1 -3.7115563648541873e-06 3.7831282744180728e+00 1.0038906268665004e+01 9.0930657825580341e-01 0 0 0
121 1 4.5644866547324753e-06 2.5205684848940000e+00 7.6125710022200925e+00 3.6367539794793777e-02 0 0 0
122 1 4.8229600718534652e-06 3.7758615066190373e+00 8.8130052295804724e+00 1.7750350787220608e+00 0 0 0
126 1 -7.5793318259502703e-06 5.0238940568395352e+00 8.8130596239794787e+00 2.7273264362719316e+00 0 0 0
128 1 -2.8247451189049232e-06 6.3000966677443087e+00 7.5750210291079725e+00 9.3363185225683898e-01 0 0 0
151 1 8.7478797738453303e-06 1.2785396765738186e+00 1.3870718683410187e+01 1.7573147330271401e+00 0 0 0
152 1 -5.1442587890778884e-06 2.5607267529849547e+00 1.3875770983262989e+01 2.7166682187736835e+00 0 0 0
153 1 5.3743155071263959e-06 2.6146190011661830e+00 1.2580453257965159e+01 1.6005197455667808e-02 0 0 0
154 1 8.4778011195009004e-06 3.7563885989082686e+00 1.3820802144506585e+01 1.7973797544690844e+00 0 0 0
155 1 9.2807053098984991e-06 3.8220099037543562e+00 1.1304503905075087e+01 1.7849595157321896e+00 0 0 0
156 1 6.0532545820724043e-06 5.0466121168217972e+00 1.2599847810247752e+01 4.9257611094644493e-02 0 0 0
157 1 -7.9910230082382727e-06 3.8374065600129734e+00 1.2596250215996033e+01 9.4223706106038929e-01 0 0 0
158 1 -8.4703423732230986e-06 5.0071036635503736e+00 1.3880323548900767e+01 2.7238702332797642e+00 0 0 0
159 1 -6.4404895698096222e-06 5.0792464026925339e+00 1.1331979997640357e+01 2.7440290592071901e+00 0 0 0
160 1 -6.1924075024909798e-06 6.3014745062305941e+00 1.2607066753685800e+01 9.6529916192827769e-01 0 0 0
161 1 2.9305957100087272e-06 5.0312899133085036e+00 1.0129113097748176e+01 3.4035165513323126e-02 0 0 0
162 1 8.9223022685875862e-06 6.3351123526673465e+00 1.1339437267323914e+01 1.8463437178422957e+00 0 0 0
163 1 2.7638523141804629e-06 6.3241374650307902e+00 8.8314057141880902e+00 1.8012279008921024e+00 0 0 0
165 1 -6.3892527319485182e-06 6.3371851511260706e+00 1.0062990863020719e+01 9.3187445809621805e-01 0 0 0
166 1 -1.0053526904109287e-05 7.5549154140938173e+00 1.1321430406776120e+01 2.6975742605345729e+00 0 0 0
167 1 -3.3929850730263676e-06 7.5307960123608737e+00 8.8225789277702358e+00 2.7540591124580280e+00 0 0 0
189 1 5.8823501257560574e-06 6.2270424363670163e+00 1.3839997656724055e+01 1.8650390006608337e+00 0 0 0
253 1 8.0965175691261800e-06 3.1264275331818317e-02 1.2577965821508856e+01 3.5802013620115627e+00 0 0 0
257 1 7.0561343252948708e-06 1.3508471229017386e-02 1.0061195251154517e+01 3.6429325549538172e+00 0 0 0
260 1 6.1671754859357426e-06 2.5481283481000667e+00 1.0116723782486073e+01 3.6199499878917685e+00 0 0 0
265 1 4.9037234649217003e-06 2.5162299017603620e+00 7.5572173402182425e+00 3.6052532709385563e+00 0 0 0
297 1 6.1313263714936145e-06 2.5489121840872779e+00 1.2604272621490923e+01 3.6063819986267704e+00 0 0 0
300 1 1.1514095189988924e-05 5.0596735737927379e+00 1.2544975629578687e+01 3.6167926850119616e+00 0 0 0
305 1 6.9575075906206580e-06 5.0168502086610962e+00 1.0100933491760014e+01 3.6310378831211394e+00 0 0 0
47 1 3.5435416628772616e-06 8.8238830560744574e+00 8.8238830560744574e+00 -1.7826935841246077e+00 0 0 0
49 1 -6.0702945886023467e-06 1.0084437778370807e+01 8.8238830560744557e+00 -8.9134679256500415e-01 0 0 0
58 1 -4.1840073045164321e-06 7.5633283337781059e+00 1.3866101945259860e+01 -8.9134679256500415e-01 0 0 0
59 1 1.6316474277896432e-06 8.8238830560744557e+00 1.3866101945259858e+01 -1.7826935841246077e+00 0 0 0
60 1 7.5434156864982731e-07 8.8238830560744557e+00 1.1344992500667159e+01 -1.7826935841246077e+00 0 0 0
61 1 -4.7001500399983309e-06 1.0084437778370807e+01 1.3866101945259858e+01 -8.9134679256500415e-01 0 0 0
62 1 -2.0927777958662082e-06 1.0084437778370807e+01 1.1344992500667159e+01 -8.9134679256500415e-01 0 0 0
63 1 4.6382829016801859e-06 1.1344992500667157e+01 1.1344992500667157e+01 -1.7826935841246077e+00 0 0 0
64 1 -1.5508482444239967e-06 1.1344992500667159e+01 8.8238830560744557e+00 -1.7826935841246077e+00 0 0 0
65 1 -3.3748011865677566e-06 1.2605547222963509e+01 1.1344992500667157e+01 -8.9134679256500415e-01 0 0 0
66 1 -1.9177446206020989e-06 1.2605547222963509e+01 8.8238830560744574e+00 -8.9134679256500415e-01 0 0 0
67 1 3.7329967107133083e-06 1.3866101945259858e+01 8.8238830560744557e+00 -1.7826935841246077e+00 0 0 0
69 1 -2.1306558235302110e-07 1.1344992500667157e+01 1.3866101945259860e+01 -1.7826935841246077e+00 0 0 0
70 1 -2.9057671667031817e-06 1.2605547222963509e+01 1.3866101945259860e+01 -8.9134679256500415e-01 0 0 0
71 1 -1.0131033448066123e-07 1.3866101945259860e+01 1.3866101945259860e+01 -1.7826935841246077e+00 0 0 0
72 1 1.0498195463697801e-06 1.3866101945259860e+01 1.1344992500667157e+01 -1.7826935841246077e+00 0 0 0
164 1 3.5599354839371950e-06 7.5510686995581482e+00 1.0042148916129136e+01 1.1570629500596357e-02 0 0 0
168 1 -4.8750566015612217e-06 8.8388382344674561e+00 1.0045931039403206e+01 8.9677014798026500e-01 0 0 0
170 1 7.2330044588002546e-06 8.8460097204295014e+00 8.8380757189196775e+00 1.7682252606901847e+00 0 0 0
172 1 4.5473531040503536e-06 1.0085053789791953e+01 7.5535509777839405e+00 2.8917854147808952e-02 0 0 0
174 1 -7.6657773715442760e-06 1.0089896676930323e+01 8.7802605319085956e+00 2.6329423196444299e+00 0 0 0
190 1 -8.7318353849883168e-06 7.4873757303520598e+00 1.3870885071420568e+01 2.7340377756296430e+00 0 0 0
191 1 5.8393518624006623e-06 7.5300338279177099e+00 1.2610238168610572e+01 2.0692923686085558e-02 0 0 0
192 1 9.0704694032814994e-06 8.8510836643756505e+00 1.3881880472610451e+01 1.7919283030429354e+00 0 0 0
193 1 8.0319325132847604e-06 8.8405473409108541e+00 1.1351164245384762e+01 1.8036612937953229e+00 0 0 0
194 1 4.7032410935024329e-06 1.0044057140289063e+01 1.2599557053193902e+01 5.1242910940470981e-02 0 0 0
195 1 -7.6459584933650037e-06 8.8524273276927481e+00 1.2633097346237648e+01 9.4898366104875520e-01 0 0 0
196 1 -8.5387927979500647e-06 1.0087048081279439e+01 1.3897552528562024e+01 2.7093827897995930e+00 0 0 0
197 1 -3.9281285902425507e-06 1.0108154914342988e+01 1.1340776092589115e+01 2.7393314273134961e+00 0 0 0
198 1 -4.9329861473819634e-06 1.1307698827183646e+01 1.2600891208326205e+01 8.9501889361788323e-01 0 0 0
199 1 3.3586536493088143e-06 1.0104245521166627e+01 1.0039754692765579e+01 -7.5142328957592151e-03 0 0 0
200 1 6.3537847228053330e-06 1.1338290011151688e+01 1.1307996782945146e+01 1.7534242405926912e+00 0 0 0
201 1 6.1030412589114890e-06 1.1368043584668932e+01 8.7999327016744679e+00 1.7975166374279370e+00 0 0 0
202 1 4.7655253336775169e-06 1.2618734434750472e+01 1.0054194410348277e+01 1.8439332775016110e-02 0 0 0
203 1 -5.8491167886172456e-06 1.1312486702346710e+01 1.0084826208283335e+01 9.1303219411941272e-01 0 0 0
204 1 -5.5495340951305342e-06 1.2582640886129530e+01 1.1345815699275775e+01 2.6729887750409955e+00 0 0 0
205 1 -5.4694879174744037e-06 1.2630608466851799e+01 8.8064185832343842e+00 2.6961711046604742e+00 0 0 0
206 1 -5.8085293413505437e-06 1.3883740514184900e+01 1.0083860573779505e+01 8.8606672746565418e-01 0 0 0
207 1 5.1591149006259045e-06 1.2633365882870917e+01 7.5800638297093617e+00 2.4352434910965701e-02 0 0 0
208 1 5.9777558022015957e-06 1.3892312184012262e+01 8.8428240373949656e+00 1.8117128154137840e+00 0 0 0
210 1 -4.2883926345962304e-06 1.3901197485817015e+01 7.5708250536357475e+00 9.3728851161251481e-01 0 0 0
211 1 2.5418487115947566e-06 1.1318155092450278e+01 1.3852914545998038e+01 1.8372477651927011e+00 0 0 0
212 1 -4.3542825879938699e-06 1.2643328940321686e+01 1.3870126454663602e+01 2.7392478938314215e+00 0 0 0
213 1 3.1677133351276665e-06 1.2640982734895283e+01 1.2624442128647823e+01 2.8594538388121510e-02 0 0 0
214 1 5.5694506218243809e-06 1.3858503051115260e+01 1.3836610499698240e+01 1.7762120875760166e+00 0 0 0
215 1 7.5651372353325641e-06 1.3886703020187468e+01 1.1347152818246805e+01 1.8625684528471003e+00 0 0 0
216 1 -7.8922214800010245e-06 1.3834907159368509e+01 1.2564650587024481e+01 9.0858825417408329e-01 0 0 0
308 1 7.6797760467085052e-06 7.5470032951214865e+00 1.0025034942528128e+01 3.6392866222650460e+00 0 0 0
316 1 6.2521441347227589e-06 1.0085883997743094e+01 7.6052828008414819e+00 3.5808316711781836e+00 0 0 0
335 1 7.8681985591301600e-06 7.5301476165329353e+00 1.2591910491385020e+01 3.5809141100987518e+00 0 0 0
338 1 7.5412338805193531e-06 1.0111187165742653e+01 1.2587364450217205e+01 3.5941158835377718e+00 0 0 0
343 1 8.2971621392007120e-06 1.0084091625099088e+01 1.0077244356724778e+01 3.5980745634201790e+00 0 0 0
346 1 4.6274324552646203e-06 1.2606470339613510e+01 1.0047305611949071e+01 3.5784723678029811e+00 0 0 0
351 1 6.6647219506447862e-06 1.2667686965313120e+01 7.5241369863267220e+00 3.5792675842269519e+00 0 0 0
357 1 6.5658524716247530e-06 1.2630216844342177e+01 1.2610067526844153e+01 3.6066875840219343e+00 0 0 0
218 1 -3.9923408149720583e-06 1.5105681499824714e+01 3.7464908962189472e+00 6.2721833744336326e+00 -1 0 0
219 1 -9.5481270748214592e-06 2.0896508823013492e-02 1.2717949321274147e+00 6.3009411182101678e+00 0 0 0
220 1 -4.3324090120840717e-06 1.1668133006817989e+00 2.5384680684252054e+00 4.4589754142817846e+00 0 0 0
222 1 4.8059668577164770e-06 1.2279905883657758e+00 1.2317997096957383e+00 5.3792580631706990e+00 0 0 0
224 1 -3.3844723571494555e-06 1.2540560321497511e+00 1.5103715843788505e+01 4.4252370468402686e+00 0 -1 0
225 1 3.4901875094101241e-09 2.5578844719084426e+00 1.2164697867464438e+00 6.2840986567172443e+00 0 0 0
226 1 -5.1443650650376473e-06 3.7407433120949301e+00 2.7260611015236011e-02 4.5429758100172011e+00 0 0 0
229 1 -4.1853733535768675e-06 3.8981707840899361e-02 6.2962515121969176e+00 6.2482925455233946e+00 0 0 0
232 1 4.7145497881092174e-06 1.3267934652981015e+00 6.2691902710421736e+00 5.3610297743129003e+00 0 0 0
233 1 5.8720806618930430e-06 1.1910259402231054e+00 3.7822916594438092e+00 5.3584446954172424e+00 0 0 0
235 1 -7.8207248203265780e-06 1.2334406897440511e+00 5.0254736693974582e+00 4.4789184765075625e+00 0 0 0
236 1 -7.1784419847789751e-06 2.5804701772702412e+00 6.2871065472070473e+00 6.3311519337869333e+00 0 0 0
237 1 -7.1135032358295965e-06 2.5075029458172802e+00 3.7728887409427077e+00 6.2854278818127813e+00 0 0 0
238 1 -5.8261999726522058e-06 3.8291158154735832e+00 5.0291607783294454e+00 4.5036512788288245e+00 0 0 0
240 1 5.8929817277540292e-06 3.7211199646099402e+00 3.7782410770042576e+00 5.4242405447917577e+00 0 0 0
241 1 1.7111101271139035e-06 3.7570539188772099e+00 1.2433315819230977e+00 5.3797173853457929e+00 0 0 0
243 1 -5.5348262636228106e-06 3.7331509764359003e+00 2.5129289316127865e+00 4.4814995988992283e+00 0 0 0
244 1 -5.5442379092768260e-06 5.0181716470273781e+00 3.7352567055605306e+00 6.3052243979530251e+00 0 0 0
245 1 -4.6991039335026507e-06 5.0298747310790786e+00 1.2597678889851367e+00 6.2648345473981246e+00 0 0 0
246 1 -3.8694588518410375e-06 6.3010261938439616e+00 2.5148604790611206e+00 4.4732562297562755e+00 0 0 0
248 1 5.8798591560300382e-06 6.3121269939839584e+00 1.2878125700395893e+00 5.4431639200315951e+00 0 0 0
250 1 -5.5688587054831363e-06 6.3137144748051819e+00 6.6201983376081609e-03 4.5089131715213551e+00 0 0 0
267 1 4.9492874458204432e-06 3.8524852630929152e+00 6.3010049011497733e+00 5.4178997933404318e+00 0 0 0
269 1 -6.3232462846239614e-06 3.7695974138842012e+00 7.5137067247340212e+00 4.5031834880812704e+00 0 0 0
271 1 -3.8935113487074870e-06 5.0627643382966134e+00 6.2513581826685618e+00 6.3294052054577277e+00 0 0 0
274 1 7.7907691109801577e-06 6.2795924694113241e+00 6.2973341814583099e+00 5.3997292411485134e+00 0 0 0
275 1 6.1540519213679372e-06 6.2663423522881461e+00 3.7906183107122295e+00 5.3838978487042430e+00 0 0 0
277 1 -5.7315436860356960e-06 6.2871469519406160e+00 5.0389588005082517e+00 4.5114590040043625e+00 0 0 0
279 1 -4.8938618627118785e-06 7.5427287115359265e+00 3.7779241295855197e+00 6.2692405866983432e+00 0 0 0
361 1 6.4329149993919998e-06 5.3342468191044344e-03 2.5119991369710983e+00 7.1558176175095491e+00 0 0 0
362 1 -9.8897811961676868e-06 1.5115042668418033e+01 3.8053100168210809e+00 9.8925358493322477e+00 -1 0 0
363 1 -7.1334623537204995e-06 4.0063036442888143e-03 1.2514863212268337e+00 9.8559924737442461e+00 0 0 0
364 1 -9.0165701881058046e-06 1.2073621037273230e+00 2.5473425471165863e+00 8.0401548041543389e+00 0 0 0
365 1 8.4619861156015384e-06 2.0207151295856735e-02 2.4360166937608712e-02 7.1699106024492503e+00 0 0 0
366 1 6.3996899018998442e-06 1.2562992326590381e+00 1.2797071018369146e+00 8.9712280518770751e+00 0 0 0
367 1 4.9369643528383727e-06 2.5113503305352700e+00 3.9451451327947975e-03 7.2119504886831889e+00 0 0 0
368 1 -8.1828871723446811e-06 1.2679991788238201e+00 1.5410371782844240e-02 8.0770961762856750e+00 0 0 0
369 1 -7.3327389774511089e-06 2.4845399125542245e+00 1.2874331133689685e+00 9.8706477707944700e+00 0 0 0
370 1 -2.7005323749784087e-06 3.7511894890615474e+00 2.6865784111469062e-03 8.1324776574027400e+00 0 0 0
371 1 7.1378977902097132e-06 1.5124541374348972e+01 7.5242890977687775e+00 7.2077582654657286e+00 -1 0 0
373 1 -9.2612914501205428e-06 1.5085285707960647e+01 6.3320738446992504e+00 9.8302822713157152e+00 -1 0 0
375 1 6.9688170907025749e-06 4.7056243615473919e-02 5.0153168337354970e+00 7.1483780572966813e+00 0 0 0
376 1 4.2923588100723451e-06 1.2448564992658795e+00 6.3071488747506166e+00 8.9774693927377349e+00 0 0 0
377 1 7.9370274377122961e-06 1.1726360058551575e+00 3.8298905412192408e+00 8.9937874944081599e+00 0 0 0
378 1 7.6412938763877211e-06 2.5361032442197819e+00 5.0232758611800019e+00 7.1288938773104755e+00 0 0 0
379 1 -6.2913833745724592e-06 1.2559302530668024e+00 5.0598034868895914e+00 8.0421455990980757e+00 0 0 0
380 1 -7.3959839607531574e-06 2.5568841217551896e+00 6.2830832270558652e+00 9.8651659022524854e+00 0 0 0
381 1 -8.5979867185158685e-06 2.4581117013057199e+00 3.7965018135266879e+00 9.8998819534439537e+00 0 0 0
382 1 -4.9511172932347254e-06 3.7862859277355532e+00 4.9991760054648662e+00 8.0579555756575658e+00 0 0 0
383 1 4.1946028259808269e-06 2.4748848029390342e+00 2.5285139850736633e+00 7.1376577605924281e+00 0 0 0
384 1 7.1190459398287386e-06 3.7446184991856373e+00 3.7334825579820241e+00 9.0245766120505344e+00 0 0 0
385 1 4.5158635707184212e-06 3.7303971196162360e+00 1.2819964384447937e+00 8.9936396282834039e+00 0 0 0
386 1 7.5341925649554577e-06 5.0785536217008467e+00 2.4741160663879151e+00 7.2269925551832204e+00 0 0 0
387 1 -7.4762212817244776e-06 3.7309027245326574e+00 2.4409929648831330e+00 8.0526198411416168e+00 0 0 0
388 1 -1.0477182411232367e-05 5.0072341556047872e+00 3.8115355475032233e+00 9.8572933262526856e+00 0 0 0
389 1 -8.1169475845488079e-06 5.0325189524145557e+00 1.2865516204162795e+00 9.8839663240722029e+00 0 0 0
390 1 -2.7864055330908737e-06 6.3161242160234625e+00 2.4710213323177683e+00 8.1136139887459287e+00 0 0 0
391 1 3.8925067514813883e-06 5.0265617314460735e+00 1.6323109078464827e-02 7.1356003893204081e+00 0 0 0
392 1 7.7129590156956019e-06 6.2654878454998428e+00 1.2688251428011879e+00 9.0096737305473003e+00 0 0 0
393 1 7.5751738209083541e-06 7.5328774826690541e+00 1.5111381050741812e+01 7.1981541992662788e+00 0 -1 0
394 1 -8.9033100046545195e-06 6.2781567796236235e+00 9.4949517455667071e-03 8.0360195934409688e+00 0 0 0
411 1 5.7485514237785622e-06 3.7538156926849404e+00 6.2595610397074726e+00 8.9581033264113472e+00 0 0 0
412 1 5.7384947697576491e-06 5.0893582926486545e+00 7.5547024994450664e+00 7.1958040710167053e+00 0 0 0
413 1 -6.0935572806705642e-06 3.8270285160759401e+00 7.5363466112158690e+00 8.1135245119140862e+00 0 0 0
415 1 -7.7036453749642249e-06 5.0110851290561298e+00 6.3374486542104078e+00 9.9212215587501760e+00 0 0 0
417 1 5.8944453063418613e-06 5.0129047208451434e+00 4.9908722963127454e+00 7.2313246406669887e+00 0 0 0
418 1 7.7148363986143381e-06 6.3272957873927931e+00 6.3113958212297758e+00 9.0045121724843362e+00 0 0 0
419 1 8.3142426832279331e-06 6.2619990149195655e+00 3.7762095038367476e+00 8.9818451779978901e+00 0 0 0
420 1 3.7428584437703340e-06 7.6185699924638453e+00 5.0002126788491532e+00 7.1986848478242127e+00 0 0 0
421 1 -5.9170410915687339e-06 6.2966181417353955e+00 5.0153588065425669e+00 8.0781614834156450e+00 0 0 0
423 1 -7.6859067603050203e-06 7.5387502585150381e+00 3.7576775037842354e+00 9.9116903589998362e+00 0 0 0
457 1 6.1746248584890907e-06 7.5828636124222015e+00 7.5811445291950674e+00 7.2038289439336136e+00 0 0 0
251 1 -1.0532947966850029e-05 7.6084857924418356e+00 1.2731737497689877e+00 6.2850448529183840e+00 0 0 0
252 1 -1.0804469864618564e-05 8.8367765409629406e+00 1.5089658230387350e+01 4.5489193396732812e+00 0 -1 0
278 1 -8.4766495565213666e-06 7.6117659681639394e+00 6.2806547983688938e+00 6.3019196455582644e+00 0 0 0
280 1 -6.7976337475605415e-06 8.8166236704778083e+00 5.0492881784036987e+00 4.4957694153493231e+00 0 0 0
282 1 1.0397574499749089e-05 8.8616755453924601e+00 3.7890846579635045e+00 5.3811212456980400e+00 0 0 0
283 1 9.2796532769216114e-06 8.8580870024024492e+00 1.2303555179662455e+00 5.4526182976290283e+00 0 0 0
285 1 -8.7302585762338782e-06 8.8691179532800000e+00 2.5078153595087871e+00 4.5616315117288702e+00 0 0 0
286 1 -1.2540655367058030e-05 1.0104074117739094e+01 3.8300419585341556e+00 6.2969779327402753e+00 0 0 0
287 1 -1.3796331134844621e-05 1.0087336984209800e+01 1.2596558240120010e+00 6.3328286994553897e+00 0 0 0
288 1 -1.0568331032231581e-05 1.1359580366136727e+01 2.5322769503631024e+00 4.4663621916732259e+00 0 0 0
290 1 1.6234214284710446e-05 1.1329962644935843e+01 1.2476456126740338e+00 5.4041697345481445e+00 0 0 0
292 1 -9.5262998995555150e-06 1.1316552910851932e+01 1.2804882289261573e-02 4.5008490143144897e+00 0 0 0
293 1 -1.3114402769793388e-05 1.2612187105196337e+01 1.2562295116930222e+00 6.2440443386451339e+00 0 0 0
294 1 -1.1192750884615766e-05 1.3861827464535073e+01 1.3655357403061166e-02 4.4509577331103305e+00 0 0 0
315 1 7.2315822097597010e-06 8.8324967188028225e+00 6.3072520462421817e+00 5.3898114544456410e+00 0 0 0
317 1 -9.4894394837973192e-06 8.8549406625707743e+00 7.5562933091091944e+00 4.4596223471689092e+00 0 0 0
319 1 -6.5992294775644140e-06 1.0130313996093696e+01 6.3345897470944568e+00 6.2557641934331292e+00 0 0 0
320 1 -6.1455966705881374e-06 1.1383591155416301e+01 7.5855333570890302e+00 4.4467028183467905e+00 0 0 0
322 1 7.3050473995889996e-06 1.1359399420162680e+01 6.3079508001610245e+00 5.3527935392503876e+00 0 0 0
323 1 1.0666218120819044e-05 1.1326480143625185e+01 3.7971810917298332e+00 5.3723412906434653e+00 0 0 0
325 1 -8.7054822185631325e-06 1.1355758358140671e+01 5.0649381313510098e+00 4.4405302153284207e+00 0 0 0
326 1 -3.4027217634750308e-06 1.2579956052642416e+01 6.2968071668834984e+00 6.2562058209830402e+00 0 0 0
327 1 -9.0793921660652813e-06 1.2585251713737968e+01 3.7979807755586421e+00 6.2463467493394091e+00 0 0 0
328 1 -5.5821160397197312e-06 1.3869529329060626e+01 5.0863285212478742e+00 4.4220998068143755e+00 0 0 0
330 1 8.3150854579804469e-06 1.3795577890052710e+01 3.8039910304271176e+00 5.3300721770588924e+00 0 0 0
331 1 9.5626286947979642e-06 1.3837414138465505e+01 1.2921079972079628e+00 5.3757010569813062e+00 0 0 0
332 1 -6.7104225318324994e-06 1.3786635985011454e+01 2.5747126343406910e+00 4.4241224723232362e+00 0 0 0
353 1 5.6680839539964891e-06 1.3905759959263710e+01 6.2994321295783653e+00 5.3751857099024720e+00 0 0 0
395 1 -8.3073178912760081e-06 7.6161203804777626e+00 1.2094393130938255e+00 9.8925594576693658e+00 0 0 0
396 1 -9.7446237408728691e-06 8.8345505065508334e+00 1.5087703128331544e+01 8.0612674997750347e+00 0 -1 0
422 1 -5.6155146145915023e-06 7.5236383160605742e+00 6.2690475174575377e+00 9.8373200498974427e+00 0 0 0
424 1 -1.0598520086260749e-05 8.8428044659903033e+00 5.0401679175999750e+00 8.0789334258292254e+00 0 0 0
425 1 9.9577640899921410e-06 7.5938285960068432e+00 2.5159701981152902e+00 7.1886401753800149e+00 0 0 0
426 1 7.6195386973777273e-06 8.8216629481357671e+00 3.7499949261063166e+00 8.9542309722353171e+00 0 0 0
427 1 8.0092384970592403e-06 8.8575624400010700e+00 1.1826644403486037e+00 8.9237154562685017e+00 0 0 0
428 1 1.1993380490228871e-05 1.0126923173793335e+01 2.5354308151218414e+00 7.2316505931687640e+00 0 0 0
429 1 -8.7709519763079954e-06 8.8322978616042302e+00 2.5211385747476980e+00 8.0825817064637100e+00 0 0 0
430 1 -8.2785101026160759e-06 1.0097568354815341e+01 3.7574364320354974e+00 9.7906483542399467e+00 0 0 0
431 1 -9.5271185519902669e-06 1.0126868486098303e+01 1.1883128325074346e+00 9.8428554237548358e+00 0 0 0
432 1 -1.1029322548968780e-05 1.1366865884252505e+01 2.4762908083430237e+00 8.0797737086824331e+00 0 0 0
433 1 1.5141310401614879e-05 1.0119121434339528e+01 1.5090015292219814e+01 7.1698047627236221e+00 0 -1 0
434 1 9.1322813693203651e-06 1.1359233852828394e+01 1.1629675030305215e+00 8.9860610989598459e+00 0 0 0
435 1 1.3286498202305407e-05 1.2589399004160180e+01 1.5125463081943140e+01 7.1767527997135536e+00 0 -1 0
436 1 -1.4759461873775786e-05 1.1371953725026668e+01 1.5115825048594630e+01 8.0751322252883231e+00 0 -1 0
437 1 -7.8287430484481579e-06 1.2601387248319536e+01 1.2365935911150310e+00 9.8849326477970862e+00 0 0 0
438 1 -7.1025639028570408e-06 1.3914685721884595e+01 3.8541101392216982e-02 8.0567781184147371e+00 0 0 0
459 1 1.0176243565057109e-05 8.8152043021424582e+00 6.3031634864102033e+00 8.9368689033570927e+00 0 0 0
461 1 -1.1018015091539216e-05 8.8310196130190270e+00 7.5773541679594540e+00 8.1257290949869461e+00 0 0 0
463 1 -1.0468951885748824e-05 1.0094836638324345e+01 6.2805249202141225e+00 9.8428296990185835e+00 0 0 0
464 1 -9.0059948804959750e-06 1.1371662730747969e+01 7.5468931073666221e+00 8.0342508822982452e+00 0 0 0
465 1 8.9909509843274020e-06 1.0158455830080454e+01 5.0381640122563631e+00 7.1957672133922674e+00 0 0 0
466 1 8.3479642783824741e-06 1.1336988698923523e+01 6.2910918121233657e+00 8.9379401184957459e+00 0 0 0
467 1 8.9910535294647599e-06 1.1383995362851424e+01 3.7461930723601600e+00 8.9427394469548460e+00 0 0 0
468 1 8.7641045317895500e-06 1.2602744612103216e+01 5.0527487091049021e+00 7.2339349533606407e+00 0 0 0
469 1 -1.1786897423425969e-05 1.1436007921413010e+01 5.0466350583613142e+00 8.0646776481995310e+00 0 0 0
470 1 -9.5453466436532596e-06 1.2590218037074962e+01 6.2541967721168747e+00 9.8678354731782729e+00 0 0 0
471 1 -5.4374004354089956e-06 1.2596914608831810e+01 3.7422249146838333e+00 9.8884936478430081e+00 0 0 0
472 1 -6.4348143411215611e-06 1.3875201376839563e+01 5.0364927622462776e+00 8.0548421670443737e+00 0 0 0
473 1 9.4656418307147730e-06 1.2630319068826957e+01 2.4912435210100350e+00 7.1300965810519132e+00 0 0 0
474 1 4.2184139472333627e-06 1.3868888753348031e+01 3.7832310878724216e+00 8.9859228815283352e+00 0 0 0
475 1 8.4519247409327229e-06 1.3860409270218932e+01 1.2613690131633803e+00 8.9689383094672106e+00 0 0 0
476 1 -8.5425385059207047e-06 1.3900704177242650e+01 2.5006831430213046e+00 8.0343886105053581e+00 0 0 0
497 1 4.0247387948624554e-06 1.3862397992539380e+01 6.2686241917705541e+00 8.9126363767445227e+00 0 0 0
228 1 -7.3918530024416039e-06 1.5116621201661255e+01 8.7542495326885099e+00 6.2812217462543467e+00 -1 0 0
230 1 -5.8723612173330145e-06 1.2922042488706353e+00 7.5190864876112347e+00 4.5154933676515308e+00 0 0 0
254 1 -5.1006585558609436e-06 1.3839472792732725e-02 1.3868424782732323e+01 6.2750035047265280e+00 0 0 0
255 1 -7.1020946452602010e-06 5.6624375652264015e-03 1.1285412163357034e+01 6.2907123818211987e+00 0 0 0
256 1 -6.6659775258807024e-06 1.2687221687900481e+00 1.2589274765216814e+01 4.4644681032859985e+00 0 0 0
258 1 5.8968300302886933e-06 1.2422328526921007e+00 1.1364797875123735e+01 5.4033807967549192e+00 0 0 0
259 1 7.7378864556491760e-06 1.2959886424219715e+00 8.7863060804568427e+00 5.4644621855875588e+00 0 0 0
261 1 -4.1595830150840806e-06 1.2512110416182058e+00 1.0061718917220215e+01 4.5316019607691471e+00 0 0 0
262 1 -1.1309869626791216e-05 2.5269195490768306e+00 1.1314879880089190e+01 6.2700870668968296e+00 0 0 0
263 1 -6.1778470936039065e-06 2.5628084176879184e+00 8.7997670193298294e+00 6.3153653220738111e+00 0 0 0
264 1 -6.2237912756459891e-06 3.7742495127081526e+00 1.0060316462892901e+01 4.5273156294771999e+00 0 0 0
266 1 8.3862565183857741e-06 3.8350151067061939e+00 8.8369836664325501e+00 5.3996628640839273e+00 0 0 0
270 1 -1.0892360511271809e-05 5.0187476387339229e+00 8.8384062556343395e+00 6.3570426467066641e+00 0 0 0
272 1 -3.5266844402565209e-06 6.3412698152473652e+00 7.5390177605777762e+00 4.5042763370314978e+00 0 0 0
295 1 4.6649002158598838e-06 1.2393222674399391e+00 1.3888153052917932e+01 5.3555015647951780e+00 0 0 0
296 1 -5.6261395746759145e-06 2.4989267186441499e+00 1.3867172307043491e+01 6.3003589161877498e+00 0 0 0
298 1 7.6410553913542335e-06 3.7968642182295702e+00 1.3904140413825612e+01 5.3742181699622877e+00 0 0 0
299 1 1.0020073409018834e-05 3.8026276169545352e+00 1.1348342798750883e+01 5.4268677175345381e+00 0 0 0
301 1 -6.8779613006857205e-06 3.7962844410040000e+00 1.2591284959667698e+01 4.5808363348175538e+00 0 0 0
302 1 -6.5113361684416317e-06 5.0265843323085502e+00 1.3863911069873666e+01 6.3170538813359762e+00 0 0 0
303 1 -1.0161020474574425e-05 4.9987854620195149e+00 1.1324179758189498e+01 6.2929160405400602e+00 0 0 0
304 1 -7.2358660110067789e-06 6.2907167967821351e+00 1.2550451278886936e+01 4.4864050680829042e+00 0 0 0
306 1 5.9587694367425134e-06 6.2885380269255622e+00 1.1297802793318599e+01 5.3922416673493405e+00 0 0 0
307 1 7.6003570278883590e-06 6.3296562715575559e+00 8.8014799877618106e+00 5.4598517213537034e+00 0 0 0
309 1 -1.2520350724106050e-05 6.3045764120239394e+00 1.0062180769960202e+01 4.5451202966530380e+00 0 0 0
310 1 -6.0041803002591516e-06 7.5827138610252325e+00 1.1316535107061073e+01 6.2417784785535524e+00 0 0 0
311 1 -8.3813655253417127e-06 7.6027181684777165e+00 8.8075804422001713e+00 6.2858245475127488e+00 0 0 0
333 1 7.2631492532999681e-06 6.3235501316077967e+00 1.3840801730109110e+01 5.3890072377626392e+00 0 0 0
372 1 -8.1580384233260465e-06 1.5748440482485748e-02 8.7887399893389091e+00 9.8574711400176387e+00 0 0 0
374 1 -6.9323060270790244e-06 1.2406570946206021e+00 7.5452963324108184e+00 8.0932292231969036e+00 0 0 0
397 1 8.8056053324226418e-06 1.9179616902189493e-02 1.2594049438154482e+01 7.1719646338021361e+00 0 0 0
398 1 -1.0324783914401474e-05 3.4986403833506721e-02 1.3851154377425969e+01 9.8816215600616299e+00 0 0 0
399 1 -8.5652083950451102e-06 1.5126378598995872e+01 1.1333440919639422e+01 9.8583792641396002e+00 -1 0 0
400 1 -4.9508783002217718e-06 1.2828664350291352e+00 1.2580578770374117e+01 8.0102965561656685e+00 0 0 0
401 1 6.5401085230295182e-06 2.2546835303920664e-02 1.0056474004850608e+01 7.1468772366587618e+00 0 0 0
402 1 7.1158226461661115e-06 1.2835366841625309e+00 1.1370730861649093e+01 8.9392197393995243e+00 0 0 0
403 1 8.2983643890589835e-06 1.2796504002151603e+00 8.8051444901943867e+00 8.9374613337069224e+00 0 0 0
404 1 8.5180271592521917e-06 2.5493924658063554e+00 1.0101646274285276e+01 7.1606905650785517e+00 0 0 0
405 1 -1.0113031380160660e-05 1.2591291647480536e+00 1.0147815370711834e+01 8.0209441288237340e+00 0 0 0
406 1 -7.6229192062332287e-06 2.4986530770425226e+00 1.1328999195852239e+01 9.9297347055861813e+00 0 0 0
407 1 -9.9793013202709286e-06 2.5232424106030296e+00 8.8198461286634959e+00 9.8793230278103827e+00 0 0 0
408 1 -1.1353292770387289e-05 3.8502778154374617e+00 1.0058652735208632e+01 8.1303254229512962e+00 0 0 0
409 1 5.4361429764555262e-06 2.5454433074854768e+00 7.5534105289731324e+00 7.2459119256131581e+00 0 0 0
410 1 1.0503203174506639e-05 3.7828066958243047e+00 8.8109651280595322e+00 9.0061950708360534e+00 0 0 0
414 1 -3.8303549877906088e-06 5.0779643431711881e+00 8.8355442572005494e+00 9.9170074468726508e+00 0 0 0
416 1 -6.8408909517197009e-06 6.3391356118414128e+00 7.5426720812241612e+00 8.1161928598999413e+00 0 0 0
439 1 6.3960979140164641e-06 1.2890061892285747e+00 1.3861708959160209e+01 8.9323113731186066e+00 0 0 0
440 1 -6.2215286877425312e-06 2.5205583990749094e+00 1.3877429707480911e+01 9.8632384098429196e+00 0 0 0
441 1 4.8436813343711641e-06 2.5187363445328290e+00 1.2588766617119937e+01 7.1251440569719175e+00 0 0 0
442 1 6.3030272079998468e-06 3.7599087934545943e+00 1.3843415186349704e+01 8.9789104746853017e+00 0 0 0
443 1 9.0362363300551718e-06 3.7618027849380686e+00 1.1345753331752384e+01 8.9874731431600736e+00 0 0 0
444 1 7.8292739116090646e-06 5.0431090099889877e+00 1.2607477702818935e+01 7.1938364404494557e+00 0 0 0
445 1 -7.8227863048962576e-06 3.7468738783498639e+00 1.2634611706067252e+01 8.0850390737259108e+00 0 0 0
446 1 -7.7283036664644423e-06 5.0354999255122701e+00 1.3844663382011067e+01 9.8951994566274539e+00 0 0 0
447 1 -6.9697818796981421e-06 5.0242618724694896e+00 1.1339389918722702e+01 9.8866438816423017e+00 0 0 0
448 1 -5.9881147001646936e-06 6.3136179050414816e+00 1.2631189507099325e+01 8.1055627143501621e+00 0 0 0
449 1 9.0274750225098797e-06 4.9993029211243716e+00 1.0122629032360093e+01 7.2490407707749505e+00 0 0 0
450 1 5.4675066015633246e-06 6.2915275869956107e+00 1.1373508678163844e+01 8.9258847619434896e+00 0 0 0
451 1 7.2737842325624469e-06 6.2850413649020265e+00 8.7905326378431372e+00 8.9539963434145626e+00 0 0 0
453 1 -7.3416843998255617e-06 6.3403906154177552e+00 1.0109758692298703e+01 8.0675198020573546e+00 0 0 0
454 1 -7.3389196573128929e-06 7.5023927066469192e+00 1.1314157176084127e+01 9.8148149230063719e+00 0 0 0
455 1 -9.1382788672100073e-06 7.5651138310841848e+00 8.7527686456763885e+00 9.8617846798917022e+00 0 0 0
477 1 7.3129876089863335e-06 6.2667354892121088e+00 1.3907202269575553e+01 9.0380666636729039e+00 0 0 0
312 1 -8.4251104125343856e-06 8.8418219359684738e+00 1.0106865427005133e+01 4.4640519694415577e+00 0 0 0
314 1 9.3648432032459197e-06 8.8759944821217225e+00 8.7856549856153947e+00 5.3538750125838757e+00 0 0 0
318 1 -4.2151937210966654e-06 1.0117726003927354e+01 8.8369615621682609e+00 6.2743705886607781e+00 0 0 0
334 1 -7.8026523026802113e-06 7.5969004772736355e+00 1.3868962808380239e+01 6.3070345316450078e+00 0 0 0
336 1 7.8627759545635210e-06 8.8539700698422745e+00 1.3893989547533323e+01 5.4113304664652819e+00 0 0 0
337 1 5.1934098380386472e-06 8.8053884403008773e+00 1.1290241025095577e+01 5.3905302809990010e+00 0 0 0
339 1 -6.8807818979086793e-06 8.8372375223012956e+00 1.2595227674017689e+01 4.5214127374918824e+00 0 0 0
340 1 -1.1663975748876644e-05 1.0089180191595526e+01 1.3857506833817009e+01 6.3089280883053682e+00 0 0 0
341 1 -8.9175599320557042e-06 1.0071871319710732e+01 1.1276430850908138e+01 6.2983804593582065e+00 0 0 0
342 1 -8.7657413673953234e-06 1.1353416232422429e+01 1.2541782637025152e+01 4.4791104292114596e+00 0 0 0
344 1 4.7033460905532739e-06 1.1384493420342169e+01 1.1359139325456511e+01 5.4531339869132314e+00 0 0 0
345 1 6.5235562172297928e-06 1.1382258659114187e+01 8.8245900537005664e+00 5.3934042528008099e+00 0 0 0
347 1 -5.2228433723065382e-06 1.1350721377514084e+01 1.0058405975731059e+01 4.5035270274928942e+00 0 0 0
348 1 -8.5950740608020263e-06 1.2603738076681930e+01 1.1329829706428756e+01 6.3326369860312388e+00 0 0 0
349 1 -3.7657550480624132e-06 1.2611647970339135e+01 8.8050565643769119e+00 6.2688683300005561e+00 0 0 0
350 1 -5.8105477333622073e-06 1.3917758232178279e+01 1.0021610468733739e+01 4.5195313685949783e+00 0 0 0
352 1 3.7722106772187269e-06 1.3887427423470257e+01 8.7669184129739222e+00 5.3778612393603735e+00 0 0 0
354 1 -7.6463938353522928e-06 1.3955044878488785e+01 7.5367136816737341e+00 4.4385325835155465e+00 0 0 0
355 1 1.1950682470169979e-05 1.1382930837719135e+01 1.3849835599164223e+01 5.4010815672252379e+00 0 0 0
356 1 -1.2921264152592946e-05 1.2681898888816203e+01 1.3877527010237323e+01 6.2726812784272310e+00 0 0 0
358 1 9.1484480212360697e-06 1.3878985644346283e+01 1.3863644352960481e+01 5.3266353910846824e+00 0 0 0
359 1 7.3504965650793300e-06 1.3899925477622970e+01 1.1293764622395628e+01 5.4574843996199798e+00 0 0 0
360 1 -6.8914812278618134e-06 1.3865029439653938e+01 1.2585795988629929e+01 4.5125132980697655e+00 0 0 0
452 1 7.5801764299477755e-06 7.5522874896102792e+00 1.0043210547011757e+01 7.1936416081049162e+00 0 0 0
456 1 -5.7421566233279387e-06 8.8245258570519063e+00 1.0040126449435135e+01 8.0896675812709002e+00 0 0 0
458 1 1.0072956343231484e-05 8.8246756805902802e+00 8.8239119320501569e+00 9.0134593700465810e+00 0 0 0
460 1 7.2984082832604262e-06 1.0094139232349329e+01 7.5797020617115916e+00 7.2069695902697033e+00 0 0 0
462 1 -8.6291330396534582e-06 1.0114947673674589e+01 8.8042180980951219e+00 9.8420105254706947e+00 0 0 0
478 1 -8.5446978278639681e-06 7.5882627963647966e+00 1.3857603327650072e+01 9.8837431507255573e+00 0 0 0
479 1 5.2070812869350767e-06 7.6021903049159674e+00 1.2611261159251896e+01 7.1729918146883751e+00 0 0 0
480 1 1.1939067117647034e-05 8.8473185891119233e+00 1.3820163271465889e+01 8.9871360893246095e+00 0 0 0
481 1 4.6241664684357320e-06 8.8463499200785467e+00 1.1291628465636931e+01 8.9767562410128718e+00 0 0 0
482 1 1.0362232818408388e-05 1.0127190056469926e+01 1.2605075859525893e+01 7.1487685228149287e+00 0 0 0
483 1 -1.0019564797353533e-05 8.8318654665214300e+00 1.2543588041598111e+01 8.0852890741719197e+00 0 0 0
484 1 -1.2280728260111249e-05 1.0067530148806837e+01 1.3804786327189358e+01 9.9623951140177383e+00 0 0 0
485 1 -9.9417743583046852e-06 1.0076108835841925e+01 1.1292521520077994e+01 9.8416082691725713e+00 0 0 0
486 1 -1.0779358648438923e-05 1.1352408644215156e+01 1.2635587995474973e+01 8.0770344525748747e+00 0 0 0
487 1 7.9886804426118155e-06 1.0121399428029189e+01 1.0028652486201089e+01 7.2160213292563409e+00 0 0 0
488 1 9.5944624389263920e-06 1.1346186492839671e+01 1.1371566085975319e+01 9.0137956690667700e+00 0 0 0
489 1 1.0040651865620490e-05 1.1403604755246061e+01 8.8009669764012948e+00 8.9720506633231629e+00 0 0 0
490 1 8.3045537162176700e-06 1.2604107800216664e+01 1.0112318063764546e+01 7.2103716793749575e+00 0 0 0
491 1 -7.9148034908110906e-06 1.1368101271297970e+01 1.0119906236709495e+01 8.1046921364423312e+00 0 0 0
492 1 -5.7103757397079042e-06 1.2643324171629551e+01 1.1341610865568338e+01 9.8758197731595718e+00 0 0 0
493 1 -5.9624767608856742e-06 1.2654966793070889e+01 8.7870755809305692e+00 9.8652343532989448e+00 0 0 0
494 1 -6.1337767743447918e-06 1.3855131100092994e+01 1.0129380418573625e+01 8.0193170882924036e+00 0 0 0
495 1 6.6524222151295027e-06 1.2569414447164002e+01 7.5252685233983625e+00 7.1337204782393187e+00 0 0 0
496 1 8.8943612145178624e-06 1.3894045587153782e+01 8.7701931047312680e+00 8.9607965171083155e+00 0 0 0
498 1 -6.6414896435169523e-06 1.3810093431433481e+01 7.5541865090911715e+00 8.0328116616473526e+00 0 0 0
499 1 1.1808411039963704e-05 1.1359951968885072e+01 1.3839038388672172e+01 8.9830740585667037e+00 0 0 0
500 1 -9.7127774016324169e-06 1.2624587502421132e+01 1.3904858037820837e+01 9.8568904678124554e+00 0 0 0
501 1 1.1478591381008321e-05 1.2577684363808183e+01 1.2656640415553218e+01 7.2287548896626710e+00 0 0 0
502 1 7.6499699289473689e-06 1.3905318009286960e+01 1.3871031851808283e+01 8.9490752330164938e+00 0 0 0
503 1 4.8915247246379107e-06 1.3887812677305797e+01 1.1323739288307909e+01 8.9319786957706100e+00 0 0 0
504 1 -6.3859340833561174e-06 1.3879532594782063e+01 1.2610318824444839e+01 8.0865315205216781e+00 0 0 0
505 1 8.1848726453564763e-06 3.4851122695677687e-02 2.5230426244183186e+00 1.0809717307736943e+01 0 0 0
506 1 -8.0276091150830704e-06 7.4539212451889096e-03 3.7741722309301529e+00 1.3453184764747318e+01 0 0 0
507 1 -3.8935970455717359e-06 1.5114126430634480e+01 1.2247762581212784e+00 1.3470789390270944e+01 -1 0 0
508 1 -7.5271467300377203e-06 1.2388614010909678e+00 2.4897707966186871e+00 1.1694851443823978e+01 0 0 0
509 1 1.1640668625259646e-05 7.9407963136784044e-03 1.5114420899394471e+01 1.0735205418357204e+01 0 -1 0
510 1 5.9810489456295293e-06 1.2953705663042132e+00 1.2157314942277302e+00 1.2551280526647986e+01 0 0 0
511 1 9.4016262698994196e-06 2.5155891508177533e+00 1.5087160689358660e+01 1.0792763933310871e+01 0 -1 0
512 1 -1.1010705339447784e-05 1.2980252700630788e+00 1.5111768548889755e+01 1.1635490463240210e+01 0 -1 0
513 1 -7.6314749574749545e-06 2.5058717684560463e+00 1.2381405014944378e+00 1.3464690446340542e+01 0 0 0
514 1 -9.9712721031857135e-06 3.7832045974662862e+00 1.5104185599758370e+01 1.1687750644834829e+01 0 -1 0
515 1 1.3552852947183530e-05 1.5114746119208997e+01 7.5610173303236108e+00 1.0769967332310285e+01 -1 0 0
517 1 -1.1533003866211734e-05 7.9253762104974619e-04 6.2846858866286901e+00 1.3491706062868726e+01 0 0 0
519 1 9.4223341943943723e-06 1.2883974971666799e-02 5.0652435509656595e+00 1.0771737259338474e+01 0 0 0
520 1 8.1636448118964888e-06 1.2064692505475421e+00 6.2797956428885628e+00 1.2624774690604651e+01 0 0 0
521 1 7.2767009751427538e-06 1.2495518069076785e+00 3.7324466215591698e+00 1.2592111156407718e+01 0 0 0
522 1 8.6983365438021431e-06 2.4886180081592868e+00 5.0085224313906345e+00 1.0803227903748692e+01 0 0 0
523 1 -9.6496280295737994e-06 1.2594463170513885e+00 5.0231991352097252e+00 1.1717201365224055e+01 0 0 0
524 1 -6.8124817313657898e-06 2.4863611370215368e+00 6.2838762580322500e+00 1.3436176481267141e+01 0 0 0
525 1 -5.9778169465400860e-06 2.5221776457690326e+00 3.7423337318003389e+00 1.3477101671997618e+01 0 0 0
526 1 -7.0574145152102977e-06 3.7288834485458544e+00 5.0572202883252277e+00 1.1653021246809166e+01 0 0 0
527 1 8.2104346700509964e-06 2.4961222379692858e+00 2.5994979199997839e+00 1.0749430667042045e+01 0 0 0
528 1 3.9462737194229903e-06 3.7557027555488025e+00 3.7623390824269585e+00 1.2559644410070449e+01 0 0 0
529 1 8.5994753098150461e-06 3.7516107943271759e+00 1.2978334254999540e+00 1.2544871320622802e+01 0 0 0
530 1 8.3177365714549065e-06 5.0301075077150488e+00 2.5103958109067874e+00 1.0769285169128695e+01 0 0 0
531 1 -4.3292747035838509e-06 3.7207642292819338e+00 2.5047812743652034e+00 1.1625457135220550e+01 0 0 0
532 1 -8.9786461781423163e-06 5.0306477822361577e+00 3.7145737264303871e+00 1.3417926762086886e+01 0 0 0
533 1 -6.9371863057491151e-06 4.9794031755294492e+00 1.2267050854987904e+00 1.3473976175704681e+01 0 0 0
534 1 -8.3654216525107877e-06 6.2835580191689058e+00 2.4891127604031884e+00 1.1648725324750949e+01 0 0 0
535 1 8.4047623419522057e-06 5.0092171542129691e+00 1.5083118227432610e+01 1.0848061793740172e+01 0 -1 0
536 1 9.8721103309056543e-06 6.3066275515674279e+00 1.2986670235065993e+00 1.2535957478033628e+01 0 0 0
537 1 8.5556223242740092e-06 7.5641804253319984e+00 1.5089800207224281e+01 1.0780746843332874e+01 0 -1 0
538 1 -9.5810600466129153e-06 6.2985896105445223e+00 2.7841996387274963e-02 1.1715578845935363e+01 0 0 0
555 1 6.3448292896013329e-06 3.7548810419019292e+00 6.2951101550155482e+00 1.2546753159243922e+01 0 0 0
556 1 5.8141267315894210e-06 5.0399986973004376e+00 7.5151222859264077e+00 1.0815685640927265e+01 0 0 0
557 1 -6.3781768791245781e-06 3.7955169356490002e+00 7.5978125684203208e+00 1.1710406931372525e+01 0 0 0
559 1 -6.1432063278335910e-06 4.9813646655220500e+00 6.2558897022903395e+00 1.3498882706621021e+01 0 0 0
561 1 4.4213703724841228e-06 5.0079856375472227e+00 5.0841787154850673e+00 1.0768704610336785e+01 0 0 0
562 1 7.8199370755682755e-06 6.2842785597100521e+00 6.3281511205461305e+00 1.2607629393648669e+01 0 0 0
563 1 8.2569011021421411e-06 6.2529580220982091e+00 3.7714826129481427e+00 1.2563797825540771e+01 0 0 0
564 1 7.8215351824027908e-06 7.5738487737847349e+00 5.0058020643483960e+00 1.0749868071213934e+01 0 0 0
565 1 -6.5400559842720914e-06 6.2546048850591109e+00 5.0577241720281121e+00 1.1656118200690418e+01 0 0 0
567 1 -8.2976974226182175e-06 7.5487341010495079e+00 3.7829038014752991e+00 1.3432974571658495e+01 0 0 0
601 1 6.4188724741031876e-06 7.6100720093810805e+00 7.5489585185866224e+00 1.0719432382630949e+01 0 0 0
649 1 2.8851063426762335e-06 1.3638250223481113e-02 2.4754981574402519e+00 1.4360373183916883e+01 0 0 0
652 1 -2.6943987064720368e-06 1.2208890951870632e+00 2.4444561140811958e+00 1.5282065497709860e+01 0 0 0
653 1 2.7513352150883148e-06 1.5086059991991318e+01 5.3193458327134673e-03 1.4307952046307721e+01 -1 0 0
654 1 -2.2065814338338701e-06 1.3017163579459581e+00 1.2427302120958059e+00 1.6228501874127620e+01 0 0 0
655 1 9.7238259963743054e-06 2.4988454057236473e+00 1.5093369641554133e+01 1.4372528518886062e+01 0 -1 0
656 1 -4.9748653801860260e-06 1.2444569889118897e+00 1.5118958822072775e+01 1.5316689867327124e+01 0 -1 0
658 1 -1.1867251610123698e-05 3.7024419035758918e+00 1.5124936555921062e+01 1.5284242469532250e+01 0 -1 0
659 1 8.4585256880015208e-06 2.6833067849538123e-02 7.5778896697840326e+00 1.4301243398697945e+01 0 0 0
663 1 6.3786571203700677e-06 7.1125690794363455e-03 5.0187387675625406e+00 1.4330501534278278e+01 0 0 0
664 1 5.6725515361997016e-06 1.2111238924665142e+00 6.2620181476739329e+00 1.6133554313533818e+01 0 0 0
665 1 9.3449353925748380e-07 1.2108804734846532e+00 3.8119444206873241e+00 1.6152309166084130e+01 0 0 0
666 1 7.2374352111021288e-06 2.4931179432378454e+00 5.0093989419301739e+00 1.4386917127029109e+01 0 0 0
667 1 -5.4110945826944050e-06 1.2493625348293351e+00 5.0537172980495351e+00 1.5290751347305154e+01 0 0 0
670 1 -4.2976370385324348e-06 3.7646692361806657e+00 5.0161825174120871e+00 1.5287352896769416e+01 0 0 0
671 1 5.7329446136084413e-06 2.4786083330662447e+00 2.4760125249791645e+00 1.4379591427248293e+01 0 0 0
672 1 4.8413334833817206e-06 3.7428308975706281e+00 3.8313431270637581e+00 1.6177433102699432e+01 0 0 0
673 1 3.1493528233558876e-06 3.7678612913221041e+00 1.2843115883907363e+00 1.6027040202863159e+01 0 0 0
674 1 4.5552260821413236e-06 5.0655760082458077e+00 2.4523339987304973e+00 1.4313122755891923e+01 0 0 0
675 1 -1.6371404029587788e-06 3.7521482578721113e+00 2.5494343400299275e+00 1.5265475724533033e+01 0 0 0
678 1 -3.1766708838048769e-06 6.2615930252935881e+00 2.4404771074225606e+00 1.5325034012618644e+01 0 0 0
679 1 8.4190296059387335e-06 5.0229230560811615e+00 1.5033300701441405e+01 1.4402208371758384e+01 0 -1 0
680 1 5.9727197512840887e-06 6.2774172231836545e+00 1.2112520660588391e+00 1.6235886657854543e+01 0 0 0
681 1 6.8035796020863778e-06 7.3976768931017833e+00 1.5116368556429634e+01 1.4382573377215992e+01 0 -1 0
682 1 -1.0937398315635199e-05 6.2112209769527480e+00 1.5087753801885468e+01 1.5351192925481154e+01 0 -1 0
699 1 3.4774018096046765e-06 3.7446960745937523e+00 6.2689244462098177e+00 1.6193978817309429e+01 0 0 0
700 1 5.3938140314550978e-06 5.0021724915444619e+00 7.4982174754164799e+00 1.4387744688264805e+01 0 0 0
701 1 -4.1400612102879557e-06 3.8134433037947635e+00 7.5611555610461592e+00 1.5284718466626289e+01 0 0 0
705 1 5.0172265480511093e-06 5.0295713109220799e+00 4.9859058924073132e+00 1.4358305562773547e+01 0 0 0
706 1 4.4099827534001135e-06 6.2767322310682241e+00 6.2575479095097384e+00 1.6103087556360794e+01 0 0 0
707 1 3.8651667119476290e-06 6.2685775697167436e+00 3.7518052048982447e+00 1.6098715403095383e+01 0 0 0
708 1 7.7597959695889614e-06 7.5796223091058010e+00 5.0173742838557267e+00 1.4294992316428788e+01 0 0 0
709 1 -2.9142674972386972e-06 6.2880903331764442e+00 5.0015254478118942e+00 1.5238282793933287e+01 0 0 0
745 1 6.1710264704763319e-06 7.5281838566079928e+00 7.5573956834105500e+00 1.4348684142095181e+01 0 0 0
539 1 -9.1907284866421324e-06 7.5274120588861111e+00 1.2282866493763049e+00 1.3453184739914978e+01 0 0 0
540 1 -9.2174680631413953e-06 8.7393675310479644e+00 1.5098282708620108e+01 1.1707346415052076e+01 0 -1 0
566 1 -7.6752799418440539e-06 7.5553710695920886e+00 6.2916095359252076e+00 1.3440083746682824e+01 0 0 0
568 1 -5.5659618527716587e-06 8.8094078901270478e+00 5.0280423595861174e+00 1.1626916985726755e+01 0 0 0
569 1 5.1759913140286328e-06 7.5617536617502088e+00 2.4891142472572754e+00 1.0798274962771488e+01 0 0 0
570 1 7.1852552779467100e-06 8.8265628641892366e+00 3.7303132645611443e+00 1.2511983533219158e+01 0 0 0
571 1 9.2812395800581202e-06 8.8195269423996709e+00 1.2020478588661285e+00 1.2630281957950242e+01 0 0 0
572 1 4.5943936996814978e-06 1.0058403003442971e+01 2.4700282376391338e+00 1.0653110896108586e+01 0 0 0
573 1 -6.0093676965589157e-06 8.8308281871442436e+00 2.4278932894511782e+00 1.1612844800342758e+01 0 0 0
574 1 -5.2013648437551040e-06 1.0033389993539656e+01 3.7939611257367853e+00 1.3439947741853947e+01 0 0 0
575 1 -6.2648736605327089e-06 1.0060941694652405e+01 1.2376733933575919e+00 1.3468628684262351e+01 0 0 0
576 1 -1.8715986218765812e-06 1.1350261064891297e+01 2.4863166886903554e+00 1.1618801655180667e+01 0 0 0
577 1 8.5571619102486932e-06 1.0054382388780773e+01 1.5029564636301984e+01 1.0797628994731655e+01 0 -1 0
578 1 2.6308467376169622e-06 1.1307415568640138e+01 1.2974482833408207e+00 1.2549849613139029e+01 0 0 0
579 1 5.2746867709596466e-06 1.2664663972712228e+01 1.5094538818915554e+01 1.0820053700396944e+01 0 -1 0
580 1 -7.3971506887549214e-06 1.1307149169301921e+01 1.5076395272078114e+01 1.1653534218932160e+01 0 -1 0
581 1 -3.0636016547341011e-06 1.2549631681533194e+01 1.2324579521492158e+00 1.3437324182050425e+01 0 0 0
582 1 -6.0167921080826216e-06 1.3929422353502398e+01 1.5101291282948321e+01 1.1712391930469371e+01 0 -1 0
603 1 8.1172659747333609e-06 8.8024401139033284e+00 6.3047048466166276e+00 1.2534232950697547e+01 0 0 0
605 1 -6.8072658492026689e-06 8.8168939584863821e+00 7.5443193256718128e+00 1.1630502418563223e+01 0 0 0
607 1 -8.4084324499005367e-06 1.0075946940702437e+01 6.3519011093613251e+00 1.3413557529260883e+01 0 0 0
608 1 -9.8772236038855656e-06 1.1305924002659916e+01 7.5022165573664656e+00 1.1657284970592892e+01 0 0 0
609 1 6.9979005106331011e-06 1.0089012065370508e+01 5.0214259153635172e+00 1.0737833641795321e+01 0 0 0
610 1 5.0528070156447478e-06 1.1345267510994782e+01 6.2907070694618019e+00 1.2528958309183276e+01 0 0 0
611 1 2.7636129598301505e-06 1.1310479539130444e+01 3.7521589719870332e+00 1.2541820211470185e+01 0 0 0
612 1 1.0920901754799438e-05 1.2583154503130682e+01 4.9651902468961193e+00 1.0713434640554974e+01 0 0 0
613 1 -5.9343788371029836e-06 1.1320585884276550e+01 4.9992928783375019e+00 1.1646784685508097e+01 0 0 0
614 1 -2.3708205892408893e-06 1.2589357162977640e+01 6.2604035515069167e+00 1.3441140057284857e+01 0 0 0
615 1 -2.4085659425157571e-06 1.2505244725555087e+01 3.7721320953212794e+00 1.3434262049707147e+01 0 0 0
616 1 -9.9134093880241197e-06 1.3845507103546163e+01 4.9896413240218482e+00 1.1658605857258845e+01 0 0 0
617 1 5.3135944375663181e-06 1.2641944608882381e+01 2.4741530178574540e+00 1.0760194350536747e+01 0 0 0
618 1 6.6996306526944044e-06 1.3845536903495583e+01 3.7719165677010276e+00 1.2504579056380402e+01 0 0 0
619 1 5.1152606832846630e-06 1.3894041062128904e+01 1.2279393759885553e+00 1.2546303097308773e+01 0 0 0
620 1 -5.7628034865526300e-06 1.3852616989120335e+01 2.5289238760295811e+00 1.1638030781722001e+01 0 0 0
641 1 6.6287975607806912e-06 1.3857034531312149e+01 6.2384934401601218e+00 1.2556696046520917e+01 0 0 0
684 1 -8.9645164932549805e-06 8.7542527286553753e+00 5.4616006970860248e-02 1.5241232889357637e+01 0 0 0
712 1 -4.2152429541771761e-06 8.8120705421016847e+00 5.0470139247761008e+00 1.5187264027642930e+01 0 0 0
713 1 5.8331504262963716e-06 7.4909594440120575e+00 2.5209704548328302e+00 1.4381461319628029e+01 0 0 0
714 1 1.9612848437501653e-06 8.8391910994166416e+00 3.7671640687592283e+00 1.6104520631129830e+01 0 0 0
715 1 8.6586515786051044e-06 8.7643619263788164e+00 1.2731737308289555e+00 1.6142877976389933e+01 0 0 0
716 1 4.5326561508375676e-06 1.0121115352399533e+01 2.5362285864243024e+00 1.4389811659274622e+01 0 0 0
717 1 -4.2219874108866278e-06 8.7998484801691728e+00 2.5183445025968694e+00 1.5244443725475668e+01 0 0 0
720 1 -3.0761019397039361e-06 1.1282350597137935e+01 2.5422498823721069e+00 1.5239279468495045e+01 0 0 0
721 1 4.0322952689963357e-06 1.0032761091694692e+01 1.0291804256747909e-02 1.4368639449818827e+01 0 0 0
722 1 3.2936902003436353e-06 1.1305765192539777e+01 1.2129846356069038e+00 1.6131951658981084e+01 0 0 0
723 1 1.4691732465873384e-06 1.2550558004664120e+01 1.5116946045845491e+01 1.4364367825816494e+01 0 -1 0
724 1 -3.3909700109875198e-06 1.1304664195284966e+01 1.5083635485231584e+01 1.5342847560508549e+01 0 -1 0
726 1 1.6641224958562585e-06 1.3830260055453033e+01 1.5076887820224648e+01 1.5166382500647300e+01 0 -1 0
747 1 6.4605269396856128e-06 8.8129053447017931e+00 6.2815722504446656e+00 1.6007748751664135e+01 0 0 0
749 1 -6.5414057059238406e-06 8.7862740771348378e+00 7.4881648648014885e+00 1.5251654675991102e+01 0 0 0
752 1 -1.6269435276697010e-06 1.1307208603568181e+01 7.5897967651004663e+00 1.5260336911997122e+01 0 0 0
753 1 6.2257625043314407e-06 1.0055835228035365e+01 5.0225289288483825e+00 1.4318390197701820e+01 0 0 0
754 1 -2.0980341032111770e-06 1.1257088182100903e+01 6.3105337882323660e+00 1.6108702788461493e+01 0 0 0
755 1 1.8941663757250351e-06 1.1323318062287887e+01 3.7643329108066670e+00 1.6119286162437625e+01 0 0 0
756 1 2.0876626171254385e-06 1.2558591382338495e+01 4.9829343257190910e+00 1.4327466528002656e+01 0 0 0
757 1 -4.0032683347250754e-06 1.1344062769030502e+01 5.0023735139587604e+00 1.5253677726366178e+01 0 0 0
760 1 2.6976760870125659e-06 1.3867633300998065e+01 4.9346255579708345e+00 1.5184817495098486e+01 0 0 0
761 1 -6.4844885440245318e-07 1.2540025382284444e+01 2.5349856337360785e+00 1.4315908951556287e+01 0 0 0
762 1 -2.9826205234933688e-06 1.3829347377248379e+01 3.7194573781446110e+00 1.5994879612631218e+01 0 0 0
763 1 -3.5005718480538378e-06 1.3834062252223850e+01 1.2950674447762147e+00 1.5966676957767207e+01 0 0 0
764 1 3.5516649035367937e-06 1.3823867259087814e+01 2.5056944487928354e+00 1.5125650366093478e+01 0 0 0
785 1 -1.0872275917484319e-06 1.3798973194673389e+01 6.3505560129590952e+00 1.6050200962480623e+01 0 0 0
516 1 -7.2473107856824956e-06 1.5123878659281500e+01 8.8192386766574806e+00 1.3425292264178726e+01 -1 0 0
518 1 -9.0700767456482339e-06 1.2765224903793886e+00 7.5342081405981025e+00 1.1662097031611362e+01 0 0 0
541 1 7.1380295655143325e-06 1.2943160540050846e-02 1.2592525993454496e+01 1.0815889915595191e+01 0 0 0
542 1 -7.6837297820822372e-06 1.5106348556401789e+01 1.3851710544786837e+01 1.3458005911514750e+01 -1 0 0
543 1 -5.2731319451927302e-06 3.3116258705382283e-02 1.1338427084098747e+01 1.3502300171687594e+01 0 0 0
544 1 -1.0419174683597587e-05 1.2504575025018663e+00 1.2590925943861929e+01 1.1666241870237723e+01 0 0 0
545 1 8.7985181039298108e-06 1.5125940014083261e+01 1.0063348610606010e+01 1.0734324642599395e+01 -1 0 0
546 1 1.1748042004080832e-05 1.2782663618701575e+00 1.1310163577087160e+01 1.2627278363154121e+01 0 0 0
547 1 1.1081253675207430e-05 1.3076175251553954e+00 8.7928368261547831e+00 1.2548437936503205e+01 0 0 0
548 1 9.6425242198396581e-06 2.4900711417028827e+00 1.0022338721594238e+01 1.0812620566484219e+01 0 0 0
549 1 -1.2433738515785089e-05 1.2897574174016302e+00 1.0092945912159987e+01 1.1692690707157968e+01 0 0 0
550 1 -5.4509299984888231e-06 2.5231220216719819e+00 1.1329608168971019e+01 1.3535384522976537e+01 0 0 0
551 1 -1.1809467995406535e-05 2.5082743861122512e+00 8.8152833295283930e+00 1.3493655806497141e+01 0 0 0
552 1 -6.7746975850026484e-06 3.7643635296484557e+00 1.0075782886738899e+01 1.1706500465653635e+01 0 0 0
553 1 7.2903530465971674e-06 2.5387393581143893e+00 7.5537200839317578e+00 1.0806028921125378e+01 0 0 0
554 1 7.3888556989914899e-06 3.7414300009334944e+00 8.8167865411757873e+00 1.2585781813285449e+01 0 0 0
558 1 -7.2056664324442473e-06 5.0302891254686433e+00 8.8236658915240529e+00 1.3426720328956526e+01 0 0 0
560 1 -5.9383662416201700e-06 6.3097746666743211e+00 7.5303863783431568e+00 1.1728248856109515e+01 0 0 0
583 1 1.0620621825247152e-05 1.2541006045140528e+00 1.3830979707841092e+01 1.2570246760472518e+01 0 0 0
584 1 -1.3950716445035019e-05 2.4951007686104072e+00 1.3833039668149860e+01 1.3511503377469934e+01 0 0 0
585 1 7.4827443534634598e-06 2.4565769732444980e+00 1.2570984897976929e+01 1.0819877043443061e+01 0 0 0
586 1 1.0261751917801383e-05 3.7266735930741350e+00 1.3844288949531869e+01 1.2589378916237457e+01 0 0 0
587 1 6.9381336820492818e-06 3.7475373792551712e+00 1.1328055397361112e+01 1.2616826506212186e+01 0 0 0
588 1 4.6985989869826994e-06 5.0019540783235277e+00 1.2584795195284078e+01 1.0780952173673837e+01 0 0 0
589 1 -8.2322419803764002e-06 3.7795152190849164e+00 1.2585342237145772e+01 1.1686267773834372e+01 0 0 0
590 1 -9.0912104849186570e-06 4.9913343618110000e+00 1.3830986696916652e+01 1.3440211259729358e+01 0 0 0
591 1 -4.0122058996787442e-06 4.9837027516909576e+00 1.1344182716392215e+01 1.3543620623154975e+01 0 0 0
592 1 -7.8181484752126056e-06 6.2081447531908989e+00 1.2625883219587548e+01 1.1691859766345875e+01 0 0 0
593 1 7.1524954465806126e-06 4.9607926721119755e+00 1.0129027453847289e+01 1.0773316716943595e+01 0 0 0
594 1 3.5755952982068609e-06 6.2562552395674027e+00 1.1373100879578445e+01 1.2602017214722370e+01 0 0 0
595 1 7.3602655884335163e-06 6.2864795298154448e+00 8.8535114082503519e+00 1.2554327713809959e+01 0 0 0
597 1 -3.7010907938378642e-06 6.2278830084656560e+00 1.0112193827183377e+01 1.1663763308561407e+01 0 0 0
598 1 -6.2403360843056521e-06 7.5578737808361200e+00 1.1350962315923244e+01 1.3470189695303530e+01 0 0 0
599 1 -4.6989022637758249e-06 7.5401109167568476e+00 8.8829044641423298e+00 1.3457369198880041e+01 0 0 0
621 1 1.0442056413175674e-05 6.2190100677799389e+00 1.3842963649055271e+01 1.2650314321822702e+01 0 0 0
662 1 -5.2811663086702171e-06 1.2788941885984679e+00 7.5706767226449889e+00 1.5279852683336397e+01 0 0 0
685 1 3.5570407955375719e-06 1.5092375172564180e+01 1.2614377747105847e+01 1.4373157828597801e+01 -1 0 0
688 1 -9.3917211891257902e-06 1.2634571892528446e+00 1.2604302971464231e+01 1.5372701123096398e+01 0 0 0
689 1 4.1117392931402315e-06 1.5107778055090170e+01 1.0051906773267978e+01 1.4361156558225794e+01 -1 0 0
690 1 3.1888047003252339e-06 1.2743460298361293e+00 1.1352637609441418e+01 1.6287982390601464e+01 0 0 0
691 1 -1.7635238963938858e-06 1.2591511708975507e+00 8.8191311164543951e+00 1.6121954871096158e+01 0 0 0
692 1 6.6531950384139807e-06 2.4807255690662897e+00 1.0100330336803765e+01 1.4387513022529314e+01 0 0 0
693 1 -3.7719421378300310e-06 1.2340348604324982e+00 1.0159082471793372e+01 1.5287623171771365e+01 0 0 0
696 1 -3.2551250816475798e-06 3.7803736341232534e+00 1.0063654336655322e+01 1.5287845621798482e+01 0 0 0
697 1 7.4064788626717487e-06 2.4970644056395312e+00 7.5377503681582496e+00 1.4387582272965156e+01 0 0 0
698 1 -3.3615143580496153e-07 3.8250186047759818e+00 8.7798674799743299e+00 1.6158369289701799e+01 0 0 0
704 1 -6.1376379479857024e-06 6.2829102733943314e+00 7.5385656894879327e+00 1.5281956216657072e+01 0 0 0
727 1 4.7479976239171635e-06 1.1901811133583249e+00 1.3803385010368325e+01 1.6273682818058617e+01 0 0 0
729 1 1.3124096101146326e-05 2.4758891032419217e+00 1.2580132745744439e+01 1.4383247059312220e+01 0 0 0
730 1 1.4631896509056573e-05 3.7317183562442020e+00 1.3864412683870954e+01 1.6124810502451119e+01 0 0 0
731 1 5.5473776956976482e-06 3.8038930653683170e+00 1.1294485925174293e+01 1.6157805643866137e+01 0 0 0
732 1 7.7017756154576001e-06 4.9895588390199430e+00 1.2591861082929674e+01 1.4445915170904861e+01 0 0 0
733 1 -1.3133500623961283e-05 3.7551393857492075e+00 1.2570178217963301e+01 1.5331713319733387e+01 0 0 0
736 1 -8.4098096498054776e-06 6.2839343000476040e+00 1.2608448495845071e+01 1.5355987296734957e+01 0 0 0
737 1 4.9372179589030515e-06 5.0015862082436273e+00 1.0041704352430960e+01 1.4331266362791551e+01 0 0 0
738 1 7.9259540533318989e-06 6.2779965575753067e+00 1.1377148294818717e+01 1.6360520483818405e+01 0 0 0
739 1 4.2835005633736501e-06 6.3162471128630209e+00 8.8554483505792341e+00 1.6113722727949995e+01 0 0 0
741 1 -3.8816368075032922e-06 6.2850226497803137e+00 1.0122048493307295e+01 1.5309508870583736e+01 0 0 0
765 1 6.4359573987980911e-06 6.2910902041670136e+00 1.3867912024440683e+01 1.6310730520013173e+01 0 0 0
596 1 2.8337294914571441e-06 7.4979220374307349e+00 1.0060558229518923e+01 1.0738784475347680e+01 0 0 0
600 1 -7.4203442313653727e-06 8.8229876345962541e+00 1.0108429294722210e+01 1.1659892256254061e+01 0 0 0
602 1 8.8506040345726481e-06 8.7786048689558243e+00 8.8582911338279740e+00 1.2534581079566959e+01 0 0 0
604 1 9.3785533200583872e-06 1.0072272723538859e+01 7.5492661191764663e+00 1.0703953281041844e+01 0 0 0
606 1 -4.4545130859028247e-06 1.0081352326808860e+01 8.8678368634557003e+00 1.3424071957822346e+01 0 0 0
622 1 -8.0836331391407371e-06 7.4404471765728486e+00 1.3861521337586421e+01 1.3490093479727506e+01 0 0 0
623 1 8.2963686999397008e-06 7.5378108036665790e+00 1.2604970676765792e+01 1.0800413265430572e+01 0 0 0
624 1 1.1415852198882061e-05 8.7027184010880134e+00 1.3808526469345574e+01 1.2543611952106593e+01 0 0 0
625 1 5.4898165474320456e-06 8.8324141914470768e+00 1.1366889333041463e+01 1.2573391760789104e+01 0 0 0
626 1 1.0643396848437526e-05 1.0088834609325268e+01 1.2594467261812222e+01 1.0793070315256633e+01 0 0 0
627 1 -7.6423463485403110e-06 8.7890344137047265e+00 1.2597826972501890e+01 1.1625635225743656e+01 0 0 0
628 1 -6.7729850605252441e-06 1.0001799468806150e+01 1.3880327187384323e+01 1.3486435612489647e+01 0 0 0
629 1 -3.6793790073226781e-06 1.0131147288839799e+01 1.1378373633739868e+01 1.3442478427251592e+01 0 0 0
630 1 -4.0603670325905801e-06 1.1314721598568786e+01 1.2627881061559567e+01 1.1680838753755944e+01 0 0 0
631 1 8.8942481400195098e-06 1.0084579729492575e+01 1.0084142993901951e+01 1.0755128096104805e+01 0 0 0
632 1 2.5980135715301056e-06 1.1382607026529923e+01 1.1352081266132219e+01 1.2523296199623344e+01 0 0 0
633 1 -2.5791019603248989e-07 1.1330589002431978e+01 8.7927255752973910e+00 1.2515389956601107e+01 0 0 0
634 1 6.9611622356318814e-06 1.2639245409745206e+01 1.0082979771590786e+01 1.0767174035965095e+01 0 0 0
635 1 -5.0491264716507742e-06 1.1377086792083171e+01 1.0063670051817565e+01 1.1634580956167218e+01 0 0 0
636 1 -1.2829985376164038e-06 1.2557481767367733e+01 1.1375280267662875e+01 1.3422419478826018e+01 0 0 0
637 1 -5.7559047331069349e-06 1.2578520353511879e+01 8.7978238813661562e+00 1.3415532826733639e+01 0 0 0
638 1 -4.9946919481351812e-06 1.3871193334169499e+01 1.0085880612349303e+01 1.1670147367031362e+01 0 0 0
639 1 7.1911815574764058e-06 1.2621028923526547e+01 7.5026055226177490e+00 1.0711851988282014e+01 0 0 0
640 1 6.1094569783143832e-06 1.3838980857176422e+01 8.7801285763606138e+00 1.2488990163062734e+01 0 0 0
642 1 -1.0537132138714854e-05 1.3842616147120243e+01 7.5105597448702639e+00 1.1672172868181862e+01 0 0 0
643 1 4.2820011220630509e-06 1.1270428421639640e+01 1.3861065471867988e+01 1.2588354050748276e+01 0 0 0
644 1 -3.8209657242096086e-06 1.2520850770677582e+01 1.3888635253849007e+01 1.3458195293883298e+01 0 0 0
645 1 5.1980965108783152e-06 1.2670789809897789e+01 1.2648187871200671e+01 1.0775036513898739e+01 0 0 0
646 1 7.5518242336379077e-06 1.3816729944135716e+01 1.3876481030553526e+01 1.2602194545563627e+01 0 0 0
647 1 4.8082822131709075e-06 1.3821777067975168e+01 1.1319794582441361e+01 1.2596763993103524e+01 0 0 0
648 1 -9.9903969793120540e-06 1.3853260698594335e+01 1.2591406409754104e+01 1.1677593024255639e+01 0 0 0
740 1 7.2413655450401838e-06 7.5391920111081694e+00 1.0143139064654251e+01 1.4354553206676956e+01 0 0 0
744 1 -5.6276597798445133e-06 8.7636347001896109e+00 1.0115221097407828e+01 1.5220461451715543e+01 0 0 0
746 1 4.6832644275749180e-06 8.8373256454446576e+00 8.7482067254518352e+00 1.6107672741717391e+01 0 0 0
748 1 1.0060875563010185e-05 1.0107050501680188e+01 7.6128920122167374e+00 1.4278228785733063e+01 0 0 0
767 1 6.3024955070973827e-06 7.5185674493412726e+00 1.2588823897247030e+01 1.4430603564768587e+01 0 0 0
768 1 5.5583223497749575e-06 8.8126331958550228e+00 1.3931770634132713e+01 1.6122608394382652e+01 0 0 0
769 1 3.5511476434444199e-06 8.8552735840993950e+00 1.1346705236466301e+01 1.6063076644178295e+01 0 0 0
770 1 2.7024133262726180e-06 1.0059153323114561e+01 1.2624449363230690e+01 1.4351043041524193e+01 0 0 0
771 1 -4.2373126180737104e-06 8.7927709372602507e+00 1.2621833155402545e+01 1.5256650174717302e+01 0 0 0
774 1 -4.0834814464089024e-06 1.1318958977156553e+01 1.2621167169966593e+01 1.5287809432427180e+01 0 0 0
775 1 4.4864607259136240e-06 1.0086530272107179e+01 1.0102972184303360e+01 1.4367515738623078e+01 0 0 0
776 1 7.4887196805138504e-07 1.1385975887831565e+01 1.1348540659810054e+01 1.6223258327733102e+01 0 0 0
777 1 4.4263487396687598e-06 1.1326047938098373e+01 8.8600765437540225e+00 1.6101192760681549e+01 0 0 0
778 1 1.5210877078116320e-06 1.2562273440471696e+01 1.0105576915054861e+01 1.4347352628557122e+01 0 0 0
779 1 -5.4780221450335036e-06 1.1329861499715488e+01 1.0073812727584768e+01 1.5244458282653589e+01 0 0 0
782 1 -1.1946468890647744e-06 1.3825176777784108e+01 1.0101166629514831e+01 1.5198887869199689e+01 0 0 0
783 1 4.1413107055350409e-06 1.2575873749465725e+01 7.5266521525235603e+00 1.4272562017293904e+01 0 0 0
784 1 -1.2389063752049291e-06 1.3833068322715620e+01 8.8239604022552278e+00 1.6016935598829150e+01 0 0 0
786 1 7.2488153309716428e-07 1.3831361059627682e+01 7.5680556270846324e+00 1.5174747045008930e+01 0 0 0
787 1 6.6596354769532950e-06 1.1251171701846660e+01 1.3884360059099789e+01 1.6249796886209424e+01 0 0 0
789 1 1.5765451886691743e-06 1.2544564936724234e+01 1.2661455982616255e+01 1.4375503619531209e+01 0 0 0
790 1 -1.0402073337825380e-06 1.3824032591134159e+01 1.3864206359944673e+01 1.6114504469745203e+01 0 0 0
791 1 2.8360534852579190e-06 1.3859307739717510e+01 1.1340573789238247e+01 1.6037551391580305e+01 0 0 0
792 1 2.3779711877754296e-06 1.3831321613261190e+01 1.2583495469044738e+01 1.5223877933744507e+01 0 0 0
650 1 -2.2132283037872207e-06 1.5050154579462621e+01 3.7296553384543771e+00 1.7055798211504555e+01 -1 0 0
651 1 5.2706153661470314e-06 1.5086861186060460e+01 1.3204904946109426e+00 1.7057325484379465e+01 -1 0 0
657 1 8.9361742974087062e-07 2.5825766470356895e+00 1.3390860971221845e+00 1.7163353242948020e+01 0 0 0
661 1 -9.1605665854194842e-07 1.5067330321219032e+01 6.2750656942964991e+00 1.7035475331901786e+01 -1 0 0
668 1 -8.1608431330951342e-07 2.4557814192319003e+00 6.2809161771225659e+00 1.7169079896105970e+01 0 0 0
669 1 -8.5402305104000491e-07 2.4289486924431367e+00 3.8290857141004171e+00 1.7244847524985211e+01 0 0 0
676 1 -1.1036952178949877e-06 4.9998985996356389e+00 3.7669602161599820e+00 1.7129256602629255e+01 0 0 0
677 1 -3.4158529851161115e-06 4.9585647779795927e+00 1.2672720923154268e+00 1.7092327740075891e+01 0 0 0
703 1 -9.3334882214219501e-07 5.0664031393029312e+00 6.2817629969704019e+00 1.7086095670980107e+01 0 0 0
711 1 7.5829460952839232e-07 7.5723937641825412e+00 3.7571239899014062e+00 1.7095969330313256e+01 0 0 0
793 1 -3.1258125341157845e-06 1.5017011534726615e+01 2.5260739603708648e+00 1.7775925737561291e+01 -1 0 0
794 1 -3.4039194019234740e-06 1.4549048923066472e+01 7.1440547260964410e-02 1.7849751131052919e+01 -1 0 0
795 1 4.5470531461169983e-06 3.0036820484573421e+00 1.5106830329099973e+01 1.7923634282281650e+01 0 -1 0
796 1 7.1475227240386065e-07 1.5046856301653470e+01 7.5661374854289196e+00 1.7645181591920291e+01 -1 0 0
797 1 6.2172958492745933e-07 1.4552579347773291e+01 5.0327662722780389e+00 1.7879643610691353e+01 -1 0 0
798 1 -2.7953450434143806e-06 2.4642206714468808e+00 5.0921844479680995e+00 1.7905915973490497e+01 0 0 0
799 1 2.8496613751391581e-07 2.5907269057203171e+00 2.5949827910610539e+00 1.7836228547097704e+01 0 0 0
800 1 -9.2663501945745245e-07 4.9734454157098735e+00 2.5016947858412930e+00 1.7736707272788976e+01 0 0 0
801 1 -1.7664575545455707e-08 4.5930863497779342e+00 1.5126614405579005e+01 1.8030445935496171e+01 0 -1 0
802 1 2.0679342325913614e-06 7.9951421648831271e+00 5.4221104967618852e-02 1.7948865248115684e+01 0 0 0
807 1 1.8776854174186758e-07 5.0859986558988073e+00 7.5237532241333858e+00 1.7774297182121515e+01 0 0 0
808 1 1.2330513542972508e-06 5.1392600788859966e+00 5.0394323155282743e+00 1.7843153195274347e+01 0 0 0
809 1 -5.7650309578253593e-06 7.5483263818805941e+00 5.0663660044481071e+00 1.7701004551329245e+01 0 0 0
818 1 2.6640402933458226e-06 7.5596400290994277e+00 7.5335016662482346e+00 1.7730825789255437e+01 0 0 0
683 1 -2.6364180189578916e-06 7.5502500885032218e+00 1.3113451941617846e+00 1.7166753540802222e+01 0 0 0
710 1 4.9177159168905438e-07 7.5200098143124912e+00 6.2709744761778694e+00 1.6996628808713982e+01 0 0 0
718 1 -4.1651906543215690e-06 1.0099900342772974e+01 3.7884098876938075e+00 1.7197178847537632e+01 0 0 0
719 1 -2.4930914196231276e-06 9.9691316450171907e+00 1.3255947215448620e+00 1.7167584574072539e+01 0 0 0
725 1 1.6999593394747319e-06 1.2606834936290998e+01 1.2901516973475597e+00 1.7031445556538007e+01 0 0 0
751 1 -4.4688352389197613e-06 1.0002644914491325e+01 6.2707017074686782e+00 1.7096405890073775e+01 0 0 0
758 1 2.4679123047059696e-06 1.2541111740518593e+01 6.2772204622630019e+00 1.7096449081051464e+01 0 0 0
759 1 4.5361057594525620e-06 1.2582268445553391e+01 3.7152544854691163e+00 1.6981642111487314e+01 0 0 0
810 1 8.1519327282639519e-07 7.5651853741101274e+00 2.5422748111269500e+00 1.7846320241502855e+01 0 0 0
811 1 8.0049720885278519e-07 1.0081503560105064e+01 2.5541515834715818e+00 1.7862944600146250e+01 0 0 0
812 1 -4.0989320061083610e-07 9.5915877013411546e+00 3.9419064907135537e-02 1.7984812009089332e+01 0 0 0
813 1 2.6263844061503182e-06 1.3033299789146172e+01 2.7807890167223345e-02 1.7860275894719283e+01 0 0 0
820 1 3.9491740701041440e-06 9.9756025346297168e+00 5.0346897402034543e+00 1.7813260180870120e+01 0 0 0
821 1 -5.6307111906844027e-07 1.2972279449341372e+01 4.9782833163480245e+00 1.7816048651386076e+01 0 0 0
822 1 -2.7512184802256391e-06 1.2589933853084407e+01 2.4983476394262598e+00 1.7707444866814779e+01 0 0 0
660 1 8.1218705793685188e-07 1.5121852992205659e+01 8.8429991442343887e+00 1.7075817834030243e+01 -1 0 0
686 1 -2.5525172724310912e-06 1.4948901509535528e+01 1.3882738669916767e+01 1.7088197005986533e+01 -1 0 0
687 1 2.3849757660773396e-06 1.5091477375293181e+01 1.1393999037495002e+01 1.7060571566732307e+01 -1 0 0
694 1 -4.1660757996519077e-06 2.5527714242665640e+00 1.1209188839111690e+01 1.7189425293013599e+01 0 0 0
695 1 3.7812536307571757e-06 2.5486904447193002e+00 8.6989930317079800e+00 1.7183773140742328e+01 0 0 0
702 1 1.4071409950510329e-06 5.1018802164420691e+00 8.8257348520970957e+00 1.7163368980179047e+01 0 0 0
728 1 -1.1943210338456432e-05 2.5492982659462791e+00 1.3830663611078545e+01 1.7116640597923588e+01 0 0 0
734 1 -6.8768032902165906e-07 4.9522085717498134e+00 1.3865695897513113e+01 1.7193789502278445e+01 0 0 0
735 1 -3.1400738676784844e-06 4.9972030497290545e+00 1.1269363775366106e+01 1.7187286953837486e+01 0 0 0
742 1 -3.7420660515663753e-06 7.5804047477531240e+00 1.1308809691952019e+01 1.7157975681404050e+01 0 0 0
743 1 -6.8437402039126437e-06 7.5901590374863988e+00 8.7166622651627339e+00 1.7043345591202264e+01 0 0 0
803 1 -1.1111288254356150e-06 1.4590268983784377e+01 1.2659209235775888e+01 1.7912205226154956e+01 -1 0 0
804 1 -3.8181809881057751e-06 1.4708130329654178e+01 1.0085438952057803e+01 1.7875859193904709e+01 -1 0 0
805 1 -4.6375196631364295e-07 2.6642085220377973e+00 9.9635892584331884e+00 1.7833673691416703e+01 0 0 0
806 1 1.1336379591318976e-06 2.4264512528717965e+00 7.4730413530737083e+00 1.7919720715965106e+01 0 0 0
814 1 4.0266867572197052e-06 2.9477883425948694e+00 1.2562751995979584e+01 1.7973208394283454e+01 0 0 0
815 1 1.3824205688139745e-06 4.5101560691880609e+00 1.2555996956879360e+01 1.7982849510369078e+01 0 0 0
816 1 1.6980878769727901e-07 5.0319293409159283e+00 1.0050851405447951e+01 1.7854316484213637e+01 0 0 0
750 1 -7.8080047073452708e-07 1.0031327239640975e+01 8.7821023549103074e+00 1.7049227975007426e+01 0 0 0
766 1 -5.7902014294256036e-06 7.6379993267933726e+00 1.3914728209162385e+01 1.7172561449816563e+01 0 0 0
772 1 -1.8879738565588137e-06 1.0028722834292667e+01 1.3904782757121831e+01 1.7129121913834513e+01 0 0 0
773 1 -1.0493195080205133e-06 1.0073887332927034e+01 1.1397230514265670e+01 1.7071694232887491e+01 0 0 0
780 1 -3.0301121488832453e-06 1.2645241275817801e+01 1.1341294917804328e+01 1.7177578913706331e+01 0 0 0
781 1 6.0808335761597128e-07 1.2667111535629328e+01 8.8183914845257956e+00 1.7124466200995609e+01 0 0 0
788 1 -5.5540120333026216e-06 1.2608621565862478e+01 1.3864576216526400e+01 1.7103602128863976e+01 0 0 0
817 1 4.8950415974406822e-06 8.0567068637323889e+00 1.0047059379147852e+01 1.7888924109131800e+01 0 0 0
819 1 2.1363001513743323e-07 1.0032018804510173e+01 7.5200183235056759e+00 1.7787871236257267e+01 0 0 0
823 1 2.1383825798669642e-06 8.0652599368311915e+00 1.2559816415252010e+01 1.7878679475214515e+01 0 0 0
824 1 4.6048206243797476e-07 9.6449275757173876e+00 1.2588463675238328e+01 1.7908807749679845e+01 0 0 0
825 1 4.3098360912636930e-07 9.6193656104075771e+00 1.0061145722034265e+01 1.7807965582547492e+01 0 0 0
826 1 3.7760727637835581e-06 1.3152160620641295e+01 1.0112397244139098e+01 1.7968124849421457e+01 0 0 0
827 1 -1.5642130472469416e-06 1.2621304811506302e+01 7.5505486135196964e+00 1.7706945780096152e+01 0 0 0
828 1 3.3098514219460110e-06 1.3029805205138969e+01 1.2623052180855611e+01 1.7867297469842587e+01 0 0 0

Velocities

1 0.0000000000000000e+00 0.0000000000000000e+00 0.0000000000000000e+00
2 0.0000000000000000e+00 0.0000000000000000e+00 0.0000000000000000e+00
3 0.0000000000000000e+00 0.0000000000000000e+00 0.0000000000000000e+00
4 0.0000000000000000e+00 0.0000000000000000e+00 0.0000000000000000e+00
6 0.0000000000000000e+00 0.0000000000000000e+00 0.0000000000000000e+00
7 0.0000000000000000e+00 0.0000000000000000e+00 0.0000000000000000e+00
8 0.0000000000000000e+00 0.0000000000000000e+00 0.0000000000000000e+00
9 0.0000000000000000e+00 0.0000000000000000e+00 0.0000000000000000e+00
10 0.0000000000000000e+00 0.0000000000000000e+00 0.0000000000000000e+00
11 0.0000000000000000e+00 0.0000000000000000e+00 0.0000000000000000e+00
12 0.0000000000000000e+00 0.0000000000000000e+00 0.0000000000000000e+00
13 0.0000000000000000e+00 0.0000000000000000e+00 0.0000000000000000e+00
14 0.0000000000000000e+00 0.0000000000000000e+00 0.0000000000000000e+00
15 0.0000000000000000e+00 0.0000000000000000e+00 0.0000000000000000e+00
24 0.0000000000000000e+00 0.0000000000000000e+00 0.0000000000000000e+00
26 0.0000000000000000e+00 0.0000000000000000e+00 0.0000000000000000e+00
27 0.0000000000000000e+00 0.0000000000000000e+00 0.0000000000000000e+00
28 0.0000000000000000e+00 0.0000000000000000e+00 0.0000000000000000e+00
30 0.0000000000000000e+00 0.0000000000000000e+00 0.0000000000000000e+00
73 1.4645790149040991e-03 -8.3434037098527108e-04 7.3204810405922286e-05
74 -3.6668659734290453e-03 -1.7781266677610083e-03 2.3493877988415069e-03
75 6.3632269886418217e-03 -5.0432439644555278e-03 -3.4550479798519163e-03
76 3.2445987652634579e-04 2.4607690785907509e-03 1.5155276415904392e-03
77 5.6494517852336825e-03 -4.7958983363343725e-03 -3.6845078530957660e-03
78 -1.1816268413667398e-03 -3.3525478794035712e-03 -8.7811345023163460e-03
79 1.7535943486012939e-03 -5.1404301030367706e-03 -1.4432268584719843e-04
80 1.0362854691493618e-03 -8.5689308212996912e-04 -8.4948392585119832e-03
81 -1.0190518666133286e-03 2.5701104738211533e-03 -5.6281793204487375e-03
82 -5.2436505043652855e-03 -3.6526002272876290e-03 -7.6078794320510136e-05
83 -1.8463024462162065e-03 4.7308003184643654e-03 -4.8831202661076163e-04
85 9.0526017596226638e-03 -3.6465017936730230e-03 9.6256139495242820e-03
87 -2.5288148478047911e-03 3.5826780580725287e-03 -2.6092069250758651e-03
88 2.7456262128364118e-03 4.0478326897127430e-03 4.2165526174176250e-03
89 1.3145564895073669e-03 -5.2727415975099097e-04 -6.3973092867625073e-03
90 -4.6175620728402221e-03 2.5068933874941783e-03 -5.5845141088786843e-03
91 -6.7609684630216505e-03 1.1232422202641632e-03 -2.2343638979953743e-03
92 1.8173551461688822e-03 -1.2593693978536767e-02 1.2301366224021053e-03
93 1.3217448336627620e-03 1.0337564147838405e-02 -5.6059513401959821e-03
94 5.4626572034226538e-03 5.8849993421308915e-03 -1.1216310586230182e-03
95 -5.6566363905978514e-03 -8.6258631506298047e-03 -3.2756337825047094e-04
96 -2.4396585325751666e-03 -5.9628006890358734e-03 1.1929950989859986e-02
97 2.8893351474847994e-03 -6.6950696859088520e-03 -4.1110215022733378e-03
98 9.4113787655078010e-03 -1.6099744637571421e-04 1.7854728277594239e-03
99 -5.8889475283439279e-03 -2.6229060561301283e-03 2.3590610205005596e-03
100 5.2369374170793404e-03 -2.6299108217153365e-03 -1.1175154222691104e-03
101 1.9980528099711582e-04 7.0738009240912140e-03 -8.1932049701948072e-03
102 6.3385020100451440e-04 5.6953555144018059e-03 1.4260024173945122e-03
103 9.8422449447455756e-04 -7.7567421716098770e-03 8.3144286453728188e-04
104 4.7806398654600506e-03 -2.8108573630106117e-04 5.5002836328753883e-03
105 4.2160518017384782e-04 1.4563318519401091e-03 -2.9531662965652603e-03
106 3.0672550527166362e-03 1.4292450796779215e-02 -3.0255196508258229e-03
123 -4.0581313833380232e-03 -9.0525259861082563e-03 4.8474037196598882e-03
124 -6.2495946759668144e-04 2.4321858178333864e-04 -1.5252303446441065e-03
125 5.2639151221176026e-03 -1.9702139465990981e-04 3.8388397817169227e-03
127 9.6586831930181860e-03 -2.5423301835784434e-03 -5.5993964176723754e-03
129 1.8124841192068116e-03 2.8077824531181983e-03 3.4681344651163334e-03
130 1.1106617767354106e-03 -5.4871184230498842e-03 -5.4276674204022145e-03
131 -9.1094086986872255e-03 1.9966630493267186e-03 4.7625110523519896e-03
132 1.3172917391227282e-03 3.3596090522733280e-03 1.5068010916330279e-03
133 -7.3961744137796930e-03 3.1890968146859075e-03 4.7272834942706033e-03
135 5.1974747795387568e-04 -7.3503693298114254e-04 9.1904972120964486e-04
169 5.0987297273153900e-03 2.1850398767399117e-03 -1.3038893049320071e-03
217 9.5316535178686956e-04 1.9280463008581542e-03 -4.4507184436672828e-03
221 4.8097285604205694e-03 2.3541190996415423e-04 4.0550380291834356e-03
223 5.6924163846716971e-04 -3.3575181276471557e-04 -2.4138312906174476e-03
227 -1.2395974993959775e-03 -2.7528388982788154e-04 1.1424387275515097e-03
231 4.1643263358368586e-03 1.9593146627091407e-04 -5.0137704011970589e-03
234 9.7734278008284187e-03 -2.6906174643918208e-03 -4.0208723507243966e-03
239 1.8740509799793788e-03 -3.0416227941286148e-03 1.5666192840199749e-03
242 3.9650308326953758e-03 4.7316323161789436e-03 -2.7302264474158419e-03
247 -2.2604937645327966e-03 1.0797280330653431e-03 -6.9799930782432056e-03
249 -1.9775703662457182e-04 -2.2845943317888690e-03 8.9533800772444172e-04
268 -1.0097907219833373e-03 -1.3548149926755242e-05 2.2002878655375223e-03
273 -6.6581788056178795e-03 -1.8913547556124672e-03 4.1246886226694226e-03
276 -7.5006295607712844e-03 -9.8655796759492117e-04 -3.0638139530216814e-03
313 3.9113969912173349e-03 1.1624641753253558e-03 -3.6396127962430012e-03
16 0.0000000000000000e+00 0.0000000000000000e+00 0.0000000000000000e+00
29 0.0000000000000000e+00 0.0000000000000000e+00 0.0000000000000000e+00
31 0.0000000000000000e+00 0.0000000000000000e+00 0.0000000000000000e+00
32 0.0000000000000000e+00 0.0000000000000000e+00 0.0000000000000000e+00
33 0.0000000000000000e+00 0.0000000000000000e+00 0.0000000000000000e+00
34 0.0000000000000000e+00 0.0000000000000000e+00 0.0000000000000000e+00
35 0.0000000000000000e+00 0.0000000000000000e+00 0.0000000000000000e+00
36 0.0000000000000000e+00 0.0000000000000000e+00 0.0000000000000000e+00
48 0.0000000000000000e+00 0.0000000000000000e+00 0.0000000000000000e+00
50 0.0000000000000000e+00 0.0000000000000000e+00 0.0000000000000000e+00
51 0.0000000000000000e+00 0.0000000000000000e+00 0.0000000000000000e+00
52 0.0000000000000000e+00 0.0000000000000000e+00 0.0000000000000000e+00
53 0.0000000000000000e+00 0.0000000000000000e+00 0.0000000000000000e+00
54 0.0000000000000000e+00 0.0000000000000000e+00 0.0000000000000000e+00
55 0.0000000000000000e+00 0.0000000000000000e+00 0.0000000000000000e+00
56 0.0000000000000000e+00 0.0000000000000000e+00 0.0000000000000000e+00
68 0.0000000000000000e+00 0.0000000000000000e+00 0.0000000000000000e+00
107 2.5617591854453729e-03 9.8105962478250400e-04 -7.4931478566771085e-04
108 -9.8794809847649063e-04 4.7908209509906468e-03 -1.9682213590746017e-03
134 -8.7863788707328080e-03 3.5217838457393558e-03 1.3969519688542375e-04
136 7.7191743589367879e-03 -4.8596403687010247e-03 -4.6083970376304103e-03
137 4.6120448306464865e-03 5.2729299578631002e-04 -7.9383531177321272e-04
138 2.2469429639683540e-03 5.7556317353398799e-03 5.4732271495767397e-03
139 -4.2765346513414498e-03 4.8636071214058101e-04 1.1167363689184851e-03
140 -8.6830677100832726e-05 4.6128400599356242e-03 6.2748113438059307e-03
141 3.0664628345083949e-03 1.7394337331495242e-03 -7.2679006919891369e-04
142 2.8668101177809330e-03 -7.1039982352590660e-03 -6.4432257721795628e-03
143 -3.4142403353165508e-03 4.2482215364898594e-04 1.3213812096280546e-05
144 -1.7732696378088071e-04 -2.3399093520186736e-03 -2.4583424029776062e-03
145 -4.2372070150566597e-03 -5.1745380171344083e-04 4.0887470123157840e-03
146 1.2225895114119862e-03 -2.2347625816983804e-03 2.0741701667350071e-03
147 -3.2190238776386025e-03 -1.2990036559915711e-03 -4.0188938248536749e-03
148 9.8525188517071781e-03 -4.3752349303182135e-03 -6.3386122653282971e-03
149 2.7785047864953782e-03 2.7838251219490535e-03 4.8390244620851374e-04
150 -5.1292539172987663e-04 -6.6028433272590720e-03 7.8825137303642125e-03
171 3.7093441078677918e-03 2.3825634671312563e-03 7.1058273268540815e-03
173 -3.3298819982088650e-04 -1.0786847509910973e-03 4.5679604015780150e-03
175 -3.5966958352660146e-04 -2.1972149238778326e-03 1.9226900215208158e-03
176 -1.4909279336816838e-05 2.4989535935740943e-03 6.4999469631792685e-03
177 5.3874195591628038e-03 3.1795574004717655e-03 3.7720977253707534e-05
178 -5.3215962784548205e-03 1.0149661598245307e-03 -2.5925072304024727e-03
179 4.0888190259000430e-03 4.6430771052559264e-04 1.2210815141114176e-02
180 6.9436950029422642e-04 1.4057656609719050e-03 6.5662570038161052e-03
181 -1.8474490967449117e-03 -5.0547466565764414e-03 3.9733969435523583e-03
182 -1.6954488007203043e-03 -1.5324946841897941e-03 2.6728317314666009e-03
183 9.3575396509374582e-03 -5.0966225668565973e-04 6.0007643776623628e-03
184 9.1034534050050252e-03 -4.2296841856991254e-03 4.1490730357981783e-03
185 3.9682127043551996e-03 -7.7881523381115856e-04 1.0864710941153901e-03
186 -5.1717215414475342e-03 2.0377301445295686e-03 8.2258704949921175e-04
187 2.2445135320681205e-03 5.2037674330375342e-04 -1.9391495528595496e-03
188 -6.7632494826501948e-03 -7.5702183197340822e-04 6.1994234453313984e-03
209 1.1726087940510162e-02 -5.2052180177237879e-03 1.6419053000821017e-03
281 2.5013374565341089e-03 -6.7123794938342392e-03 8.3970161303858638e-03
284 -5.3090657425239806e-03 -2.7927834638971187e-03 1.4072279739278854e-04
289 -2.6002187891709114e-03 4.9685271098029908e-03 3.2942591034468100e-03
291 2.8184185772696007e-03 8.5591392843728628e-04 -1.2387668194148390e-03
321 -6.4050124681618355e-03 -1.8647497762787985e-02 -9.9925075742084645e-04
324 -2.6227852617607258e-03 -3.3511985578020642e-03 2.1461123420640554e-03
329 -6.5800880265220506e-03 -1.7582992710151832e-03 -6.4932764318355093e-03
5 0.0000000000000000e+00 0.0000000000000000e+00 0.0000000000000000e+00
17 0.0000000000000000e+00 0.0000000000000000e+00 0.0000000000000000e+00
18 0.0000000000000000e+00 0.0000000000000000e+00 0.0000000000000000e+00
19 0.0000000000000000e+00 0.0000000000000000e+00 0.0000000000000000e+00
20 0.0000000000000000e+00 0.0000000000000000e+00 0.0000000000000000e+00
21 0.0000000000000000e+00 0.0000000000000000e+00 0.0000000000000000e+00
22 0.0000000000000000e+00 0.0000000000000000e+00 0.0000000000000000e+00
23 0.0000000000000000e+00 0.0000000000000000e+00 0.0000000000000000e+00
25 0.0000000000000000e+00 0.0000000000000000e+00 0.0000000000000000e+00
37 0.0000000000000000e+00 0.0000000000000000e+00 0.0000000000000000e+00
38 0.0000000000000000e+00 0.0000000000000000e+00 0.0000000000000000e+00
39 0.0000000000000000e+00 0.0000000000000000e+00 0.0000000000000000e+00
40 0.0000000000000000e+00 0.0000000000000000e+00 0.0000000000000000e+00
41 0.0000000000000000e+00 0.0000000000000000e+00 0.0000000000000000e+00
42 0.0000000000000000e+00 0.0000000000000000e+00 0.0000000000000000e+00
43 0.0000000000000000e+00 0.0000000000000000e+00 0.0000000000000000e+00
44 0.0000000000000000e+00 0.0000000000000000e+00 0.0000000000000000e+00
45 0.0000000000000000e+00 0.0000000000000000e+00 0.0000000000000000e+00
46 0.0000000000000000e+00 0.0000000000000000e+00 0.0000000000000000e+00
57 0.0000000000000000e+00 0.0000000000000000e+00 0.0000000000000000e+00
84 4.9263512352382809e-03 -1.0270453358993889e-02 -9.2227705722715009e-03
86 -7.6680922991460962e-05 6.8463649259502737e-03 1.9603367987920421e-03
109 1.9696905603953010e-03 -1.0762450465726166e-02 6.0786314783605223e-03
110 5.2763954161744826e-03 -2.6073460484376406e-03 2.0364966892090524e-04
111 8.2958130718512057e-04 -3.5904267011835143e-03 5.4318091575954412e-03
112 2.9622357333532762e-03 -1.9839978246483730e-03 -6.8332614271309692e-04
113 1.5443993356658104e-03 1.1448503122235300e-03 1.0047071138708811e-03
114 -5.9569090955539179e-03 1.1718822106908332e-03 -2.9433910411521976e-03
115 7.2833308900924287e-08 -3.0500858721880055e-03 -3.0025543412258771e-03
116 5.5423052690380696e-03 6.4384380413511804e-04 -3.8687772615814556e-03
117 1.8229781753279506e-03 -4.1312555587772488e-03 2.6746139802595538e-03
118 5.1339386733173075e-03 3.0382248431811134e-03 4.5189299490548743e-03
119 -1.0691005883411168e-03 -8.5379223483760137e-03 -3.4107374012725956e-04
120 -3.8355241119228320e-03 3.7803781129096166e-03 -3.9968179708558581e-03
121 1.3617607837326876e-04 -3.8681434750403930e-03 -3.3537930492612993e-03
122 -7.7965766275763372e-04 -1.0492918981186582e-02 3.1258558723159685e-03
126 4.5761755249066945e-03 -5.3384976947364335e-03 -2.6303773070042739e-04
128 -5.6757845056313221e-03 1.6088723929633193e-03 -3.5528338683103789e-03
151 -7.4686190629000412e-03 -3.8100675682183828e-03 1.6085378432451928e-03
152 -5.2528599167309814e-03 -1.2345968662226285e-03 5.0603224050011918e-04
153 5.7684957966535840e-04 -3.3592059457039467e-03 2.6588432609786616e-03
154 -2.0354902324417161e-03 -1.1239820644353485e-03 5.4833638034394745e-03
155 -3.1859831263148083e-03 4.3029976532238711e-03 2.7031797910510710e-03
156 3.9030203460911112e-03 -3.1095580356449007e-05 -2.3749866094005213e-03
157 4.6340919790138517e-03 -6.0221586506509729e-03 -2.0385465579075188e-03
158 3.1685753582112183e-04 -5.1343387041493582e-03 -5.4295283432136045e-03
159 4.6042842503204437e-04 1.7157424267938699e-03 -7.9613314228598967e-03
160 4.1675574700649276e-03 -1.0906340692787451e-02 -3.6546683977374899e-03
161 2.9479953551927451e-03 -2.1884942188988322e-03 -3.6866488124799096e-03
162 -4.7967573701817565e-04 -9.1676678634214283e-04 7.8290314142908876e-04
163 1.1613403707135092e-04 -3.0433046711567466e-03 -9.0816016403218666e-03
165 2.1443777412006974e-03 3.4899085366291559e-03 -2.8498351270510600e-03
166 3.6377585235980838e-03 -5.2775662828071432e-03 -3.9494596065914869e-03
167 -1.1216227846310765e-02 1.9237094964385905e-03 -3.8564919940702581e-03
189 -3.7237339245349034e-04 -2.3289153670933484e-04 2.8636306073309935e-03
253 -3.7345608870864066e-03 -8.1920783423931332e-03 -1.2783947207925265e-03
257 3.9884003041026628e-03 3.4362006142184048e-04 -1.6395664578078429e-03
260 5.4872520937865256e-04 -7.2165885151958343e-03 9.2056969288942421e-03
265 -4.5229796186208957e-03 1.6008336226948560e-03 8.1495979005429323e-04
297 3.4424563129419961e-04 -3.3345745153679315e-04 5.9462388445817721e-03
300 -7.8658916390979394e-03 2.2299364227575847e-03 2.0032650791665524e-03
305 5.1873392342571684e-03 4.5576579417708398e-03 4.6557739125638277e-03
47 0.0000000000000000e+00 0.0000000000000000e+00 0.0000000000000000e+00
49 0.0000000000000000e+00 0.0000000000000000e+00 0.0000000000000000e+00
58 0.0000000000000000e+00 0.0000000000000000e+00 0.0000000000000000e+00
59 0.0000000000000000e+00 0.0000000000000000e+00 0.0000000000000000e+00
60 0.0000000000000000e+00 0.0000000000000000e+00 0.0000000000000000e+00
61 0.0000000000000000e+00 0.0000000000000000e+00 0.0000000000000000e+00
62 0.0000000000000000e+00 0.0000000000000000e+00 0.0000000000000000e+00
63 0.0000000000000000e+00 0.0000000000000000e+00 0.0000000000000000e+00
64 0.0000000000000000e+00 0.0000000000000000e+00 0.0000000000000000e+00
65 0.0000000000000000e+00 0.0000000000000000e+00 0.0000000000000000e+00
66 0.0000000000000000e+00 0.0000000000000000e+00 0.0000000000000000e+00
67 0.0000000000000000e+00 0.0000000000000000e+00 0.0000000000000000e+00
69 0.0000000000000000e+00 0.0000000000000000e+00 0.0000000000000000e+00
70 0.0000000000000000e+00 0.0000000000000000e+00 0.0000000000000000e+00
71 0.0000000000000000e+00 0.0000000000000000e+00 0.0000000000000000e+00
72 0.0000000000000000e+00 0.0000000000000000e+00 0.0000000000000000e+00
164 5.2445193225331697e-04 -2.5370661403501752e-03 -2.1242573385275004e-03
168 -3.7549799830189534e-03 -1.3292820369517210e-03 7.0816596461816929e-03
170 -5.1551570001834067e-03 -5.7323931485904686e-03 5.4625288019392645e-03
172 -2.8179036835981491e-03 -3.9637754956985544e-03 -1.1433302228098258e-02
174 -2.3566528201800230e-04 -3.4815217050636520e-03 -9.5137639757870707e-03
190 -5.8630288721288060e-03 -1.0586340803605662e-03 2.2816240240539159e-03
191 4.5375348131413107e-05 -2.8462907831514547e-03 2.6880840460039397e-03
192 6.3770858671042515e-03 -7.5477128169718129e-03 -1.0693128463090797e-03
193 -3.5287664819699913e-03 -1.6424984987769302e-03 5.0980848992247139e-03
194 2.3530212874374188e-03 1.1958819464913176e-02 -6.6517649527336525e-03
195 -1.4372136284796990e-03 1.0209424243558692e-02 -7.6969744121953233e-04
196 9.0138647484386692e-04 -1.6958900436272908e-04 2.2023227480312308e-03
197 1.0843045641561118e-02 -5.7657915734344416e-03 1.3671553259820279e-03
198 1.7849710274860737e-03 9.0464145445319985e-03 1.0643449712804376e-02
199 -4.7012565441932616e-03 -1.6552777409876210e-03 7.8280726455750974e-04
200 5.6106503518900024e-03 5.4966953100842094e-03 -8.3621255983013008e-04
201 -4.0986158641095538e-03 3.1492087225425676e-03 -6.5888001203634377e-03
202 8.4701055592091849e-04 4.0643103190948927e-03 -1.0152642851552882e-03
203 3.7814609955966680e-03 -5.3309912279216401e-03 -1.2496260801583814e-02
204 -4.6603147967084506e-03 6.0423415684826747e-03 4.9568576284474090e-03
205 -3.5150235024806542e-03 8.4840821802340972e-03 2.0830087714024982e-03
206 3.8149684179205087e-03 -8.5184457629942304e-04 -1.5854561363442521e-03
207 -4.0830320666238197e-04 3.8644389642837952e-03 -1.9686434449474829e-03
208 -4.5342502902405614e-04 -7.4760605637012607e-04 2.2853520596504448e-04
210 -1.5247709294930422e-03 -3.3231954138933904e-04 -4.8195371674549245e-03
211 -7.3396512875802920e-03 8.9518204063310115e-03 2.3475711699417461e-03
212 -3.1723359563912250e-03 -6.1387811134400450e-03 -6.6771232910110383e-03
213 1.3999269118697539e-03 -1.3547563191137175e-04 -8.6164232097844795e-03
214 5.1114240890724706e-03 -8.9916375657103590e-03 1.1179058751042709e-03
215 5.5741940246125717e-03 -4.1168266267711190e-03 -5.7603364607352551e-03
216 4.8480742248307573e-03 1.6456834762272011e-03 -1.7841280219711511e-03
308 8.1371510175943414e-03 1.2876539914689580e-02 4.0575083111874634e-03
316 -3.1007424623737132e-03 -2.9235132953533052e-03 2.7112647752253684e-03
335 4.0407877650753005e-03 5.1976720321658199e-03 -2.5416926674479904e-03
338 7.9164497101199688e-03 1.6245184600487028e-06 9.0455006395282999e-05
343 -1.6645194926354194e-03 9.3668920442348483e-03 -4.1468303840215470e-03
346 -2.2700393089420505e-03 3.1880040404210397e-04 -7.8633203785122875e-03
351 3.5948463783654176e-03 1.2344692046670055e-03 1.9088519099175042e-03
357 -3.5359771588955803e-03 1.2095446291870747e-02 -5.9718971594595067e-03
218 -3.1623156533348547e-06 -5.8584941593152239e-03 -5.8040175792554863e-03
219 1.7017207357018849e-03 -2.0324737283071059e-03 -2.2199876073306164e-03
220 7.5948040416855692e-03 4.7816957015225040e-03 -8.6838842330432388e-04
222 3.0707484671306969e-03 1.8554672293172488e-03 -8.0957051724337703e-03
224 1.0011528295704789e-03 2.1186363552198862e-03 -5.7645351320272098e-04
225 5.1153687438955748e-03 1.0980215027774954e-03 5.6459094292887887e-03
226 4.5763881158601798e-03 5.8524586127506302e-03 -3.5718696359638064e-03
229 -2.0920760916954455e-03 -2.2273108610528290e-03 3.3332291630200689e-03
232 -2.5745484792017441e-03 -7.0983434483383879e-04 -2.3635279030540897e-03
233 -6.3857816134806041e-03 2.2092847931777012e-03 4.0147866767193587e-03
235 2.0988617872584117e-03 2.3982602475926327e-03 -2.7990181569514662e-04
236 7.5961229767292273e-03 1.9277019019596690e-03 -3.7247535943887322e-03
237 2.0618979125236977e-03 2.4358426643047017e-03 1.1783758884320406e-03
238 -4.3439620372783929e-03 4.1585457734627240e-03 1.6813539300392761e-03
240 6.5772740098406024e-03 6.8888990417187461e-03 -4.8128776704943746e-03
241 5.7437985680976120e-03 1.2803542883682930e-03 -5.3102675128984603e-03
243 -1.1257269651409614e-02 -7.6390492877974120e-03 -1.8713768434943186e-03
244 -7.7438363060563207e-04 -4.6157582799018736e-03 -1.9075949608041726e-03
245 -4.6962147372209577e-03 -8.0372787876096911e-03 3.4502347479331073e-03
246 -4.9756168272988011e-04 -4.2906863140758714e-03 1.4516433256188213e-03
248 -4.2098697310719172e-03 -5.6817397484171884e-03 -2.4590165335842762e-03
250 -3.2720345426555759e-03 1.4754391016469526e-03 -7.9403321202488834e-03
267 1.7472952448119939e-03 -3.9430595504294213e-03 2.6444649726737094e-03
269 -1.7128957699764501e-04 -6.9101901546473146e-04 3.8236953773496934e-03
271 5.1445207242899402e-03 -3.5237643220011510e-03 -3.5062179054365450e-03
274 -2.2978422005995140e-03 -3.6767869206150204e-03 4.6882217180027304e-03
275 5.5850679846058612e-04 -5.1243951262595917e-03 -1.7024837492286857e-03
277 9.2749882856308398e-03 -2.1387274769103883e-03 -3.2754944059378514e-03
279 3.1534469684113136e-05 -2.4507106648468473e-03 4.3443604907242913e-03
361 4.0576303190412557e-04 -1.0683192448361236e-02 -1.5775819842150525e-03
362 4.5855946114895380e-03 -7.6101424036427393e-03 -6.0297897301032398e-03
363 -3.8276052810977757e-03 -1.9624543543895817e-03 1.8597145583387766e-03
364 -3.9312934729092029e-03 3.2347512525753457e-03 6.3117113562480276e-04
365 -3.0780226384602418e-03 1.3385390461036267e-02 1.0864163203183244e-03
366 -4.2273539308977544e-03 4.9082986085293321e-03 4.9180323580616621e-03
367 -9.6958577506012401e-05 1.0338842615961101e-03 6.6707282745010190e-03
368 7.2363819026809758e-04 2.5461485660861405e-03 6.1815152029762151e-03
369 1.6744378679104193e-03 2.3986083909485201e-03 2.0087394229492952e-03
370 5.3497999034176564e-03 2.6977588279640643e-03 5.9806777017031845e-03
371 5.2139260124646333e-03 -8.2715178447022135e-03 1.2829976888244156e-03
373 1.2774032736121549e-03 3.0423488740162832e-03 -2.1142400900606116e-03
375 -1.2716526144716717e-03 1.1207419288952792e-03 5.2599947697692506e-03
376 1.7270663618382813e-03 5.9401863735021110e-04 -5.5855361470934714e-03
377 -2.8992187196882004e-03 -2.5063426079309547e-03 -8.1561006773929311e-03
378 3.8255334855585993e-03 9.1529868635497225e-04 1.9633497144617225e-03
379 -5.9038858115636715e-03 1.9729988690115009e-03 3.5062899643739285e-03
380 -3.0934253730227944e-03 4.9643372307313074e-03 -6.7396743518270176e-04
381 8.0622863404086927e-04 -8.5220274033177695e-03 4.2495468900341886e-03
382 8.5952532328422131e-03 -8.0922599008250449e-04 2.3696167976799977e-03
383 4.7913417438478215e-04 1.5285402627266840e-03 -6.6073289829444374e-04
384 2.4213230810793316e-03 2.4520784961682075e-03 8.5985804233509530e-03
385 -1.0499161074038737e-02 3.3624249228074829e-03 3.8223860871824554e-03
386 1.5585852515722621e-03 3.6367131322633099e-03 9.5676010383524881e-03
387 -1.0342653562717822e-02 7.8267685599568339e-03 3.9719588561329287e-03
388 -6.0481295906964754e-03 -3.1527986027322535e-03 2.4453136566014682e-03
389 2.8072665867068221e-03 1.9657364615727414e-03 3.1889727457476408e-04
390 4.1539507316314221e-03 -2.7654296075897019e-03 -3.5990609922846328e-03
391 -1.6797133624597003e-03 -8.6971094763716329e-03 -3.0482402298192923e-03
392 -7.7059506776479432e-04 -2.7412968192907594e-04 -1.3542677584473324e-03
393 3.0001878709984319e-03 8.4024004385689320e-03 7.9754486612360878e-04
394 2.5539888563445483e-03 -3.7200850309589156e-04 6.6051010254805928e-03
411 8.5377526378878181e-03 -1.0035681604060182e-02 -6.7114938886001668e-04
412 2.3423208821930818e-03 -8.4951029643117097e-05 1.5126822089840878e-03
413 -6.4200022214527036e-03 4.6793489587743740e-03 8.2353917655644815e-03
415 2.1794648001983766e-04 2.0127029328236203e-03 -1.9924657049196244e-04
417 -2.5925830940054322e-03 6.4159876856200381e-04 8.9627360787701647e-03
418 5.3079650210639834e-03 3.7466024076691969e-03 9.3576360957119131e-03
419 5.2170385672051008e-03 1.2356198957685369e-03 -9.4197632600811348e-04
420 2.7123358856899968e-03 -1.2188556829483882e-03 -1.8585439766380587e-03
421 3.9905333804098471e-04 -2.9621523728203887e-03 -2.7469823132918194e-03
423 -1.8016878265217432e-04 -3.0437539187659871e-03 7.1105548169652548e-03
457 -2.3577239649027050e-03 -8.8906462484589794e-03 1.0284413261389366e-03
251 5.0284762569551885e-03 -1.4399017134984027e-03 3.8688108286767365e-03
252 -9.1746142834749408e-03 9.8672498970622433e-04 -6.0043989729400976e-03
278 5.1506562387422239e-03 -9.3851146546277894e-03 -2.6135235091786224e-03
280 -4.0395248924067406e-03 4.0962751067580676e-03 4.8999824783097258e-03
282 1.0191686989913030e-02 5.2697337016437817e-03 2.1555923872284902e-03
283 -2.9735774887831460e-04 9.7617190573295561e-04 -1.2780347438705088e-03
285 -4.4372725925058316e-03 -9.7390836598285568e-04 1.7416694023253446e-03
286 -2.5295890831425584e-03 1.2292280544869461e-02 1.1074589571754247e-02
287 -3.1312903754817621e-03 -2.3779688146077439e-03 2.0044174479187248e-03
288 -1.3691454464623465e-03 -2.5200480941726224e-03 -2.8083804692844178e-03
290 -1.0498007203990077e-02 -1.5944629369328430e-03 -3.5960462826424534e-04
292 -7.5714957292368097e-04 -3.8495689855394567e-03 -6.2520526495469519e-03
293 -2.2529418052004550e-03 -8.7350700847026641e-04 3.6640427735906644e-03
294 -2.5602290844957418e-03 9.0735590260744067e-03 -1.5240980748728586e-03
315 -5.4404089212747803e-03 6.1332005761510332e-03 -4.4204429539678675e-03
317 -4.4787745834636373e-03 2.0806343471320619e-03 2.4639725188808454e-03
319 5.2070980407328618e-03 -4.7280773111318513e-04 2.3240806055427523e-03
320 3.7417491440241940e-03 5.6540850679033840e-03 -7.4570051003234315e-04
322 -1.7620865835635063e-03 -8.8769710452690298e-04 3.0564197237985358e-03
323 -6.8185657148807149e-04 -3.8572118579192449e-03 9.8253160973291545e-04
325 -4.8819773712852985e-03 6.6218505698422839e-03 -4.7729922385842142e-03
326 -4.5858118236798816e-03 4.8882043831697348e-03 -2.1818291386504745e-03
327 1.7047794826528099e-03 3.7411110199669201e-03 -6.8163228081474549e-03
328 5.3670865352249113e-03 7.7786790589600540e-03 -2.1794818761979367e-03
330 -2.7473875856483974e-03 -2.5998256426083060e-03 -5.2247241181601822e-03
331 6.8303946117784266e-03 -8.9994206248759055e-03 3.8998597523854073e-03
332 2.8613702073719905e-03 8.3743703320630549e-03 2.4425112523607799e-03
353 8.3622835095667949e-03 -1.7223358715133961e-03 2.5580420930639254e-03
395 -5.1953905044206470e-03 4.0385413852038563e-03 -1.7524677982718824e-03
396 3.7524176981808587e-03 9.7807849276159418e-04 -1.8168166909338468e-03
422 -4.1720370300054894e-03 -3.8282600794364709e-03 -2.7095434519705630e-03
424 4.5610880224927711e-03 -4.0571162926940499e-03 2.6014274483611194e-03
425 7.1610858606708854e-04 2.5972289265801421e-03 2.1132463034848497e-03
426 7.7265059727388381e-03 9.1946298188034705e-03 2.9539211313284884e-03
427 -6.6994341013911904e-03 -7.1355882562977608e-03 -2.0444891430375393e-03
428 -2.4024718812044759e-03 1.2335301348456729e-03 -1.8727840178706448e-03
429 -1.5973239343210831e-03 5.4696572552918548e-05 5.2479443548032710e-03
430 -4.8213499506744705e-03 4.9074983304014767e-03 -6.7937446492967652e-04
431 -6.6787312550069091e-03 -6.8337191364852964e-03 1.5750471153292542e-03
432 -1.6518649226661022e-03 -9.0564233331802098e-04 2.6515793261945113e-03
433 1.8527064708884534e-03 4.3665569420007350e-03 -7.1892459784937517e-04
434 -1.7141402010165112e-03 -7.8662578935316649e-04 -4.3041197817844162e-03
435 3.2102543841948847e-03 2.3770478354927776e-03 -4.2612471710892939e-03
436 3.6994750798335545e-03 1.6816672399069378e-03 2.3201992850668198e-03
437 -3.9012832273744519e-03 -2.4788515981239811e-03 -5.6401193191606370e-03
438 1.3641488079952182e-04 -9.7624549155408730e-04 4.0531433725057801e-03
459 6.8004663231956758e-03 1.6351204954363151e-03 1.1701121210957112e-03
461 2.6087331103061971e-03 -1.2177743011925256e-03 -4.9379684323896476e-03
463 -3.3258738856960376e-04 2.5518845684971750e-03 4.9782229238558139e-03
464 4.7773568416448989e-04 -7.2954480997006795e-03 -2.5360059714220826e-03
465 -6.8686846789630990e-04 -1.8171004805413045e-03 8.1994341357291603e-06
466 -7.4689173137327365e-04 -4.6291476155236704e-03 -4.0403539486481548e-03
467 -7.7745363999562854e-04 2.0310642737774889e-03 -2.4861132373943818e-03
468 -6.9371369289291315e-03 4.6579915940618060e-03 -7.1212189331882553e-03
469 1.8445143768215141e-03 -5.1366920073805866e-03 -3.1505281988271996e-03
470 -5.3349284675044070e-04 -4.4398231455584410e-03 -5.6824229583026121e-03
471 4.4433695318793045e-03 5.8629342180367781e-03 -1.6771742377952690e-03
472 -6.0336042365919752e-05 3.1915744686436399e-03 -8.5403602111073043e-04
473 -3.0281927575685926e-04 -7.2508755687660910e-03 -2.6745595654200757e-03
474 1.5483264220181906e-03 4.8877877277629898e-03 9.1262095661430074e-04
475 6.9356533971578766e-04 4.2822022761660715e-03 3.7168103427499405e-03
476 -3.2320640043900441e-03 -2.8043521350237612e-03 8.4168195268457154e-03
497 -2.1380144724461913e-03 3.7882831683363530e-03 1.6897758929241980e-03
228 5.2634986965786499e-03 -4.5179813924738294e-03 3.1173207395640639e-03
230 3.6236169478222656e-03 6.6027385817831201e-04 -2.2852650832825118e-03
254 4.8693441858256659e-03 -7.2847011074133302e-03 -3.8350257510022670e-03
255 5.1367574431594276e-04 8.9679797667964259e-03 2.6577762795267708e-03
256 1.8742667955999367e-03 -6.8508014735989842e-05 2.8640457634199158e-03
258 -2.8459110869203465e-04 -9.3113587175390426e-03 4.1180985550755495e-03
259 -1.3415424463077126e-03 -3.6006870652400443e-03 -1.3125665091042054e-03
261 -1.7585490950677875e-03 8.6389443294799060e-03 -2.3223455089821962e-03
262 2.7520753823482725e-03 1.1619744256551715e-02 7.1797580540377572e-04
263 -6.4338581248817701e-04 2.7257935803454035e-03 5.0755387556238188e-03
264 -5.5335529859273777e-03 -3.6205972897834890e-04 8.7737661026763142e-03
266 -6.2295008081364575e-04 1.3971256108487712e-03 -5.3194463241207027e-03
270 -9.5884783984005999e-03 -4.0195365524546235e-03 3.8763921768166240e-03
272 2.3567450419290470e-03 -8.4005578501592810e-03 2.7616044587310548e-04
295 2.6933611681805051e-03 -7.0464903377764222e-03 1.3289345416199170e-02
296 -7.0020338354223090e-03 7.1667709347796125e-03 4.1323419323569923e-03
298 -1.9407289109327271e-03 -6.7706605584134114e-03 2.3309525787019638e-03
299 -1.0502585680405951e-03 -7.7000090025349031e-04 1.9052006635589987e-03
301 -9.0583268428345355e-04 -4.0586850288073925e-03 -3.4026459173382242e-03
302 -2.7441174725317775e-03 -7.2113534465960069e-04 -2.7040887551050248e-03
303 -2.8755219815770139e-03 1.2907521182292500e-03 6.2581645787416753e-03
304 -6.6511262794260329e-03 7.0167766123853197e-04 1.1015780100641988e-03
306 3.0648575149387490e-03 -5.6032491599938856e-03 -4.4745394193843437e-03
307 5.2941564619630220e-03 -1.6655346950481310e-03 -2.6540986845164983e-03
309 -7.5074060120395858e-03 -3.8152425354290470e-03 2.0785914339875402e-03
310 -5.2115512327885914e-03 5.0389295504292694e-04 -6.2357102024156027e-03
311 -6.8667276323495993e-03 -6.4673522761097410e-03 2.2730016042473945e-03
333 -1.5679816311627308e-04 -3.5188656868377736e-03 2.3554793804012389e-03
372 2.7237330237216649e-04 6.1778020093595544e-03 -2.5001173023726946e-03
374 5.4605916346435312e-03 4.0510477512800295e-04 -7.4609246009112195e-04
397 5.9998691337781141e-03 -2.9941034585474475e-03 5.2592762634685300e-04
398 -4.8552149450976721e-03 -6.1157029139254629e-03 -3.5868054103507315e-03
399 8.1350036934461981e-03 1.9338437490941216e-03 1.8487627660650453e-03
400 9.0335545644519295e-04 3.2792702543749291e-05 3.6249458246086132e-03
401 -2.3810627457214240e-03 -5.7984311314918284e-03 9.6273848278690484e-04
402 6.1210297089070208e-03 -2.1434982702838597e-03 2.2635295735679215e-04
403 -2.3112143942616628e-04 2.9574572386097163e-03 6.5489866654426668e-03
404 6.6614962630299618e-03 -4.4906339305117145e-03 5.9625562036874278e-04
405 2.3467360094305981e-03 7.4978116960912654e-03 2.0845523996554878e-04
406 -9.0490043840521350e-03 2.8467893119857605e-04 2.3426452063274590e-03
407 -1.5839194101737756e-03 -5.6737152574248767e-03 -2.6759320929999109e-03
408 -3.6477025856191357e-03 4.0572943677304333e-03 2.4341479529972352e-03
409 3.4336502595659481e-03 -1.0320604829304363e-03 -3.3676212311150217e-04
410 1.5166286460512909e-03 7.0370159979464145e-03 3.9717764619201443e-03
414 6.4621865840420985e-03 4.5449786104603774e-03 2.1180363711736485e-03
416 -3.0673523431886392e-03 -6.5386927215498991e-04 4.9662200081691289e-03
439 -1.3711104769793265e-03 1.1736653895862200e-03 3.7192193610960356e-03
440 4.3127359348620357e-03 3.1705729884570640e-03 -1.5714238947707347e-03
441 3.5105845561893942e-03 -6.6558075153050162e-03 4.0444557333600773e-03
442 2.7643178278993824e-03 -1.7098312915669086e-03 2.3749130147327031e-03
443 -5.1464184980694180e-03 -1.0314559085109988e-02 -5.2369895115777611e-03
444 4.5665725866735254e-03 -5.1180557136615628e-03 1.2921667456708874e-03
445 8.5704084741728085e-03 1.7462582600760054e-02 7.3501823581355171e-03
446 -9.3494331891484667e-03 2.3092835191854404e-03 1.5579437916209454e-03
447 -8.8012823094840448e-03 -3.0827749263849040e-03 4.9689154054567038e-03
448 4.3379443827507051e-03 -2.2972913737040112e-03 6.9307873100629301e-04
449 -1.1101708254231939e-02 -7.3318329717054860e-03 -6.7431496201973444e-03
450 2.3688157459735289e-03 -8.0808758351780295e-04 1.7475422425151418e-03
451 -5.7786194317528856e-04 -1.8728553685258317e-03 7.8496736131517791e-03
453 9.2582552397092090e-03 2.9667352534199128e-05 -7.6794448456380608e-04
454 6.3293611585744881e-03 4.4987278619049737e-03 -1.4837786613304039e-04
455 1.4183458368041493e-03 -7.3015639544169748e-03 5.1024590047258102e-03
477 -5.5076488935215673e-04 1.9391975357348832e-03 4.9844766439523297e-03
312 -4.7618716555637196e-03 -6.6748924108631022e-03 -1.0591594317799304e-02
314 6.5607969667347095e-03 -1.5908941173086413e-03 -1.5160001495087539e-03
318 4.9434183921184737e-03 -5.8085119051417963e-03 7.8321942359165075e-03
334 2.7268532903678864e-03 4.3577392863708379e-03 -8.9489439677492360e-04
336 -3.1622940520452236e-03 2.3927002051347284e-03 -5.3274494348923684e-03
337 2.5988516890020318e-03 -4.9948152460329350e-03 -6.9233590685318014e-03
339 2.5563089670895471e-03 4.0237989446827100e-03 -5.3291442347953150e-04
340 4.9162630161335560e-04 1.4488512755319394e-03 1.9322283090598563e-03
341 6.4426818403321340e-04 7.3893720455000681e-03 -7.4206589342590643e-03
342 -6.1590291347297698e-03 2.7725801008204870e-04 2.6342932224493769e-03
344 -6.4980529455825799e-03 2.0067764322844986e-03 3.5848231440464302e-03
345 5.0009214569962700e-03 7.7107739297509704e-03 -3.3651302683809074e-03
347 -4.3116970222679893e-03 -4.9522472853393900e-03 2.0379440108647982e-04
348 -9.4605500430351656e-03 -6.0489121596481021e-03 7.2333327391942851e-03
349 -3.3495393011366488e-04 3.1232696998462527e-03 -4.6065570179336587e-03
350 4.5807573701544414e-03 -4.5325562117927284e-03 3.4444405493070443e-03
352 1.3552040489442667e-03 -5.8166768895364131e-03 5.3112069142810688e-04
354 2.4648051490382132e-03 -5.1220802199360808e-03 1.5903217631700044e-03
355 -1.9650407199508805e-03 -9.9543757375047362e-04 -4.1598111634411237e-03
356 2.4482552789336070e-03 -7.2827078821842686e-03 -3.9682832899733764e-03
358 -1.7779865720958412e-03 3.7980099243348658e-03 5.3659175805512417e-05
359 -3.1573350789055599e-03 5.4660053667321936e-03 3.2770699525406012e-03
360 5.6240994632237153e-04 -8.4137548114454931e-03 -9.4215582477282424e-03
452 -3.9263764648962843e-03 2.3613063186323432e-03 -1.9464058472783209e-03
456 -1.5693718779938924e-03 2.7112770073634725e-03 -5.7026537374686428e-03
458 4.8795726419832916e-03 2.2944962676484915e-03 -2.7779984447181155e-03
460 -3.7784091733751178e-04 2.2738650765913174e-04 7.3764357243687210e-03
462 2.0986911372361805e-03 -3.0380488190061400e-03 3.7255311036868623e-03
478 -1.1813246690815743e-03 -2.8921683395161245e-03 5.8522568222641241e-03
479 -1.2288035410337214e-03 5.8819906603267084e-03 4.8883300889797253e-03
480 2.1828062444726772e-03 1.1697240021373060e-03 8.2731850217246314e-03
481 4.3179751760149426e-04 2.4172634191699698e-03 4.2110345079302854e-04
482 1.6386520663015419e-03 3.5399621573000426e-03 3.8239788212946343e-03
483 -4.3888909400269681e-03 6.5267173600981289e-03 2.2853645697085184e-03
484 6.9137622395085748e-04 -6.3027564891882494e-03 -1.5113867874780099e-02
485 6.5154810200082746e-03 -1.5047641939002333e-03 7.8432047171561915e-03
486 -4.4237826428773818e-03 1.9947216160209279e-03 2.1218524131804898e-03
487 -1.2772629078017866e-03 7.2998703300081224e-04 4.4621800388766706e-04
488 -2.6630459360310042e-03 2.7279039164584458e-04 1.5460674930452053e-03
489 1.2098817490351532e-04 3.6898173087352520e-03 8.3074857825315585e-03
490 -2.7789929811508360e-03 -1.6052586600004760e-03 -1.6596191113847545e-03
491 8.3190153714522673e-03 -4.2095635169903146e-03 -1.0547138285990947e-02
492 5.5265195187895770e-03 6.0965069786570814e-03 -5.4807125433842350e-04
493 -2.9197404956876664e-03 -3.4585964360465240e-03 4.3835240937387041e-03
494 -3.0361135601575639e-04 4.7697269563512076e-03 -5.5404415076515707e-05
495 4.0626143360386682e-03 -2.4913863179946722e-03 -1.0431343839280556e-02
496 2.8302839337400998e-03 -5.1943449042053192e-03 -6.2190733484050091e-04
498 -2.8972650676489975e-03 -3.8797115136865227e-03 -3.6029413703186756e-03
499 -1.5537487806999309e-03 4.7427859828296799e-03 -4.1242423640758434e-03
500 -5.9363704177695098e-04 -5.9136212377658218e-03 3.2937698861619938e-03
501 -2.3754027367024590e-03 4.0018528286591484e-03 -3.3097379598688464e-03
502 5.9292961091803624e-03 6.9929017593439887e-04 -1.9651250765966683e-04
503 1.1418604620657420e-02 2.9746652726621880e-03 2.0113479020255356e-03
504 -2.2228718172646934e-03 -7.1787370426035120e-03 8.4962647117205088e-03
505 2.5372122043558474e-03 3.0914802554856116e-03 -1.5777260333466349e-03
506 1.4953257775391094e-02 -8.2067628351692305e-04 5.5270448778540916e-03
507 -2.6307497239697014e-03 -9.2178402395345463e-05 5.8651862459834269e-03
508 -3.0852817122386904e-03 -8.3967533879312078e-03 -3.6746056136755699e-04
509 4.8527620825760459e-03 -1.3997652769967045e-03 1.2729722995286753e-02
510 4.1178195175758936e-03 -1.6776386002397897e-03 1.0718511573735053e-03
511 -9.5178914491001224e-04 4.5492123254067202e-03 -1.1603342462281035e-04
512 -1.7080395224872323e-04 1.5390478451572619e-03 5.6252464586996767e-03
513 -2.1880984095618500e-03 4.2621895024517360e-03 -4.6360554339501597e-03
514 -5.9103386275510350e-04 2.0327908685077172e-04 1.0923863012863716e-02
515 5.2423913974113971e-03 7.5279900204983910e-04 6.7206617936189390e-03
517 1.3092413284049498e-03 -4.2188335426373421e-03 5.5166410480612972e-03
519 3.7106795140501030e-03 -2.7440490544667399e-03 -5.0810890545552115e-03
520 -9.7947800982714304e-03 -4.9796742065152111e-03 -9.3189381449416205e-04
521 -1.5057379951615275e-02 1.0320516750808919e-02 -7.8519803991540776e-03
522 -3.3644500683528886e-03 1.0620468769909676e-03 -4.0401463365770584e-03
523 4.2898122955466944e-03 -2.9905634899964999e-03 4.7363072487540688e-04
524 5.8184143927160360e-03 -1.0603566781887922e-02 7.3732857901520968e-03
525 -2.5376588702952642e-04 -1.4567988399682454e-04 1.4568886074200612e-03
526 -4.2288723075496862e-04 -2.6961396318206368e-03 1.0607746404034359e-04
527 -6.5723838884796685e-03 -1.1502355905664637e-03 -6.0285025905238241e-03
528 -5.4256839404977549e-03 7.0333467894113889e-03 1.1355952269327254e-02
529 4.5203101636508738e-04 -4.3091886135098057e-03 3.6049665675117319e-03
530 5.6727805091901186e-03 4.6741304181191065e-03 -1.7492485581757991e-03
531 -4.6642610058773883e-03 -6.7197593414291485e-03 1.1137902619792708e-02
532 -1.4744307383919655e-03 8.6434502766833260e-03 1.3342049724664059e-03
533 4.5239113471662196e-03 1.9651448544997134e-03 9.0625519822307751e-04
534 1.2286968386327002e-03 4.7060828045710152e-03 -1.4737366138370566e-04
535 3.2591380304986561e-03 5.1527320983714658e-04 4.0221274253372189e-03
536 2.7758496373807748e-03 5.1636002319512854e-04 2.4223181886724589e-03
537 -3.6788101124518879e-03 -1.1294448796179495e-03 -1.5443891394116465e-04
538 3.0215357633248947e-03 -6.5108058759782766e-03 1.2168928109696102e-02
555 3.6511464670490011e-03 8.2325943379159845e-03 7.8174618043373948e-03
556 -8.1134621505143945e-03 1.5775671358099141e-03 3.9227163100336877e-03
557 1.3175609991488248e-03 4.7826343367515156e-03 -1.8869201061931639e-03
559 3.3238217554332839e-03 -1.1483809756994671e-02 -3.8258536770562671e-03
561 6.8605866510254698e-03 9.1885411621997048e-04 8.0555274619134847e-03
562 1.4122262004009158e-03 5.4477376146017048e-03 2.6808547951060234e-03
563 6.0708490487257046e-03 -1.5211417037250287e-03 7.5837861822003970e-04
564 8.1613293993532052e-03 6.4859611276115098e-04 3.3539045519456684e-03
565 2.2499895216797489e-03 -9.5939016498426482e-04 -2.7304765583860951e-03
567 2.3885765008742461e-03 2.2209041536565993e-03 -2.8209961692217504e-03
601 6.7471976852934851e-04 -1.1544156327380351e-03 -3.5676697125309673e-03
649 9.4269028897836834e-03 2.1434626964997520e-03 -3.8451615162465218e-03
652 -3.5314029204995908e-04 -6.5940616489111479e-03 5.1064952608762910e-03
653 -3.7410698690106066e-03 -9.4907168477524478e-03 5.7482251361384790e-03
654 8.8493201624427801e-04 -5.3898409881769152e-03 -9.6865495133853030e-04
655 6.2752677682581613e-03 -5.8902950194803065e-03 2.7514589435609685e-04
656 2.8011533674928888e-03 3.0837906475002868e-03 3.5079048704106424e-04
658 9.1560856480741148e-03 5.6260015896243349e-03 -3.3435059658916270e-04
659 -7.0307400995999513e-03 8.2753133919316098e-03 5.0957419795931089e-03
663 5.2943162640082383e-03 -4.1975761321698529e-03 -5.8941551805069383e-03
664 9.1624827146542375e-04 -4.7517785480086878e-03 -9.3403907313010792e-03
665 3.2070731280914671e-03 -6.9688737650994365e-03 -3.1561479979970749e-03
666 6.6836997297625052e-05 -1.8713266628992272e-03 -4.9967382243988200e-04
667 2.9335952215150122e-04 1.4548719950246817e-04 -4.5083707466808291e-04
670 1.0322622084679611e-03 3.9394865296350631e-03 -3.1459336485842632e-03
671 -2.4745920521583374e-03 -3.7368745394304936e-03 -3.0602464210342892e-04
672 -6.0534739067860839e-03 -5.5206290316528646e-04 -5.2273247885743805e-03
673 -1.0279684111499153e-03 4.4561396626368998e-03 -5.6816048463902841e-03
674 -5.6150925075786288e-03 2.4769958232356446e-03 -4.2116125966119881e-03
675 7.5476641710251480e-03 -6.0181923894299652e-03 -7.1257332374937265e-03
678 3.3676500773997227e-03 -4.1994331168884076e-03 4.5864564646396835e-03
679 1.9775304260314613e-03 -2.7053678299391068e-03 2.8970639698578686e-03
680 -1.3188223887437972e-03 -8.3247037217076079e-03 9.2314862498306342e-03
681 5.4109768467041621e-03 -5.7527180036593692e-03 -4.1669944488388128e-04
682 -7.6588879927595947e-03 -6.5758377670862252e-05 3.0871637511334640e-03
699 -9.6104259044653537e-04 -5.4484587992879238e-03 -7.8263208652933753e-04
700 -2.1205134648300335e-03 1.3936692806730967e-03 1.3274310350349947e-03
701 1.6661816986634644e-03 -2.4477019225765746e-03 4.4220231612035260e-03
705 -3.8682578300210354e-03 6.1241782160964819e-03 -1.0010027908021605e-02
706 2.5356681176775231e-03 1.8077518856155187e-03 -3.5504556534124024e-03
707 8.8992836444165158e-03 -3.6093091467683308e-03 -2.4359661745397081e-05
708 2.3214269806065635e-03 2.9055390064316750e-04 -3.3748145646123945e-03
709 -3.9811715749037933e-03 -1.3989890266614686e-03 2.4220877439452945e-03
745 2.5854993570215415e-03 -1.5815881596719836e-03 4.2271846679365717e-03
539 4.8787797756674233e-03 3.7632826441755945e-04 5.0658308224847872e-03
540 3.0083030891436157e-04 -1.5838073510961913e-04 -1.1296665476611048e-02
566 -1.6619484792170143e-03 6.0664427307572386e-04 -2.0447309591486306e-03
568 3.4846321521786217e-05 -4.1568366640694707e-04 2.8864227371769118e-04
569 -5.2397078779343985e-03 -1.0582038320831167e-02 6.0607103878037348e-03
570 2.6484517030051415e-03 -6.4538623215356057e-03 1.7531647483560842e-02
571 3.3012985806731162e-03 -1.1609315761324875e-02 -6.4881923032971706e-03
572 -6.5813359102612180e-04 -1.5396762462433035e-03 -1.1892978318682390e-03
573 -1.4411967562364253e-03 4.0113555065973286e-03 2.2445731404552981e-03
574 -6.0281011035516596e-03 2.1161643567829424e-03 -2.9731490007347912e-03
575 3.6313154521103370e-03 -6.9247405936054187e-03 1.7605645784550577e-04
576 -7.1925899195078658e-03 -5.3238520962907961e-03 -3.1529873189293264e-03
577 -4.2262975323634844e-03 -1.8893772844546391e-04 -1.4440443372241785e-02
578 -8.9513744515146744e-03 -5.6426485142443417e-03 -7.2047376321841372e-04
579 -3.4191739478458263e-03 6.8512619119287504e-03 1.3614509106100836e-03
580 8.8518671234515140e-03 4.9527241735040058e-03 4.2502471733940530e-03
581 1.6416874208902230e-03 -2.1216953219653904e-03 4.0821763433279753e-03
582 -2.4198892014445760e-03 -4.6780121764177932e-03 -1.7649704418200149e-03
603 3.3738869248889011e-03 -4.1380182721612729e-03 1.8444658352002202e-03
605 3.7915952119687798e-03 -4.0172141351332385e-04 2.5501636152427116e-03
607 -8.0323942502509818e-05 -3.3701729186590597e-03 6.2810884425748637e-03
608 5.4783748920900401e-03 7.6336138627181296e-03 2.2887657090880889e-03
609 -2.6435875835767119e-03 3.5923388494742119e-03 3.9690017582308806e-03
610 3.7675917339000846e-03 2.3442921868775069e-03 5.7223666122483688e-03
611 3.7907490887836271e-03 1.0985772706728310e-03 6.3713040394775744e-03
612 -6.8289496438205853e-03 1.1886630665776785e-02 7.3827799303543488e-04
613 -6.6053370762518956e-03 2.1842073577323525e-03 1.9937150529226511e-03
614 7.6319444282753430e-03 3.3843502962926523e-03 1.1488658525457485e-02
615 -9.5150727447687611e-04 -1.3901530207949477e-03 1.3310176374101944e-03
616 1.2900481884831312e-03 -2.9903443844373238e-03 9.2917837494742063e-03
617 1.9593571882251331e-03 -3.1082179784150555e-03 -3.5047269711436374e-04
618 3.5787758727225021e-03 4.3308102343886830e-03 1.1476818553283403e-03
619 3.2841441858481764e-03 4.6621231988610411e-03 -1.5749921437737261e-03
620 4.5897480091650006e-03 1.9872763432026062e-03 -1.0736215449239940e-03
641 4.2773818077736009e-03 -5.6543667074883822e-03 3.1980315058189159e-03
684 2.2085227382595222e-03 -7.9141013063034973e-04 6.2501724716149737e-03
712 1.1906826936493556e-03 -7.5845604425449505e-04 3.6435555820005538e-03
713 1.8551564769597574e-03 6.7417514972302722e-04 -4.5168421953538825e-03
714 4.0263482804558572e-03 1.9556218907217106e-03 1.1714785132756584e-03
715 4.6738479340066100e-03 -2.4029443674774892e-03 3.5696091609099742e-03
716 2.0693974787228541e-03 4.3984837341439826e-04 1.5696320490193201e-03
717 5.6841605404762338e-03 -3.2973722300856032e-03 -1.6221634674131909e-03
720 -4.4190782030950886e-04 3.2432687192635820e-03 -4.6902982963434496e-03
721 -6.4405423416212734e-03 1.3590776781219154e-03 1.2957340410706098e-03
722 2.0116654541848943e-03 -2.1539089709605164e-03 -5.8690629492674611e-03
723 -1.7342081639250334e-03 1.0746669486314173e-03 2.1292705438622256e-03
724 2.3051552960406830e-03 5.1245030277390601e-03 1.1321351286574697e-02
726 -7.5234717189871206e-04 -1.1741692079925480e-03 4.2939130848441433e-04
747 -9.7173119694333749e-04 1.5298486142728501e-03 -8.8821123000640441e-03
749 -3.4795325788546916e-03 -2.8857767876284377e-04 6.2956706390287749e-03
752 -5.4121462173254498e-03 -8.8466001258247586e-04 5.7043840829897876e-03
753 -2.0364356399284645e-03 1.0019545952730273e-02 1.1687356383662160e-03
754 9.8345146161216909e-03 -2.4981735608842078e-03 1.9861514403109399e-03
755 6.7315930840537840e-03 6.8834846212769622e-04 2.9186344778062792e-03
756 2.0255995368835314e-03 6.2698254313612511e-03 -1.5428758535347465e-03
757 8.2261930394984441e-03 -9.3697631673526655e-04 3.0245812214613403e-03
760 2.6805193978762386e-03 -9.4506147750764917e-04 -7.3189764389742515e-03
761 -1.7688328549278322e-03 -7.4859416843135931e-03 2.8227905564935062e-03
762 4.1523728254541717e-03 -1.5770348218780267e-03 7.3490382072337037e-03
763 6.6324446831361140e-03 2.2901774889597742e-03 1.0701492950226381e-03
764 -1.9743966097528487e-03 1.7708602942940949e-03 6.0426687869083858e-03
785 -6.2425186384816181e-03 -3.0595712729887176e-03 3.1572773110841151e-03
516 2.5405746906361219e-03 -5.0658996827378381e-03 -6.3319266932367960e-03
518 9.6774391434659365e-03 -1.4936534381782652e-02 2.8793022725737957e-04
541 -5.3627238024055524e-03 1.8309959345052551e-03 3.5575947017369033e-03
542 7.3160584409380659e-03 -4.2551323735066533e-06 2.0612725816880721e-03
543 9.6438201979897158e-03 9.0948299916437827e-04 9.1560833951177551e-03
544 2.3245741902151373e-03 -4.8990287767786524e-03 1.1534243776443992e-03
545 1.0295620681259096e-02 9.3111403028344592e-04 1.5847818723379928e-03
546 -4.3073960344834129e-04 -1.3443297272803291e-03 -4.6392185216079214e-03
547 2.6545527854443642e-03 2.8594994930504452e-03 -2.1882059966218080e-03
548 -2.5343170406268473e-03 -2.1645649475024770e-05 4.2188841830399547e-03
549 2.6147414767714447e-03 1.7722139207809067e-04 -9.0437704635503986e-04
550 -4.3441497733166280e-03 -2.7013382642104571e-03 -1.9690914009295071e-03
551 4.8098622743773567e-04 3.0719855059132333e-03 2.0213613095941047e-04
552 6.9863656848366410e-03 2.8589036325222294e-03 7.1346720524940403e-03
553 8.1500771697282336e-03 6.6469582538461374e-03 -1.1852447543450324e-03
554 -1.3838284019975736e-03 8.0040651228033722e-04 9.3108081483480904e-04
558 -1.1065713052675100e-04 1.7604532222782110e-03 4.0306671902733205e-03
560 2.3183086571735853e-03 2.0052297902536263e-03 -5.5106132980105426e-03
583 -3.8170378142684397e-04 7.0512551757174876e-03 -4.7822784786896808e-03
584 -1.6391567173721813e-03 3.2864330867473281e-03 6.1292795331402304e-03
585 -7.9179180728999807e-03 4.4305239178173768e-04 4.2578176065611638e-03
586 3.9654245376725700e-03 5.2533353321633555e-03 3.5923375200764044e-03
587 -1.3345792819402746e-02 -4.9608176604895651e-03 -4.0153856005272507e-04
588 -6.2761232857255355e-04 3.1006258388833314e-03 -9.7695221329194386e-03
589 2.5094648486187742e-04 -3.1340895611279516e-04 -7.2312204258152572e-03
590 4.8404799775398060e-03 4.2217028692523723e-03 4.5475307336622344e-03
591 1.8248761067558774e-03 7.3312523244566993e-03 3.5078334820955281e-03
592 4.1284165484929327e-03 -1.2111846618424690e-03 -3.8039731557446103e-03
593 2.8036722714037186e-03 -4.7900225130728625e-03 -2.7378422888658487e-03
594 4.6965155507394558e-03 2.0830577343989337e-03 1.2952852464523884e-03
595 -2.4985389586734875e-04 1.9311752182850392e-03 6.4232577068149884e-03
597 2.2917031735528886e-03 1.2172111367121815e-02 4.2364040281084748e-04
598 1.0242246956226619e-02 -1.7808300733752039e-03 7.4332402534491868e-03
599 8.2650914723747217e-05 -7.8178607706892462e-03 1.6255725648966551e-03
621 -3.1972175538375960e-03 -1.9213989947086741e-03 -3.4013509428427232e-03
662 2.3922225937517941e-03 6.2315985096580455e-03 -7.3442891336358233e-03
685 4.3262484830346734e-03 -2.6005197719860540e-03 -9.5301049405780904e-03
688 7.6435812586041589e-03 7.8384146924064500e-03 2.8952436674029173e-03
689 8.6824505763868313e-04 -8.0283603061982473e-04 5.6054136277297693e-03
690 -5.2422968500703414e-04 9.0521310748375994e-03 -6.8372577607239639e-04
691 -5.4060343519173708e-03 -2.9353347764645853e-03 -1.8777342664068300e-03
692 1.5661565113791599e-03 -4.4552303538824035e-03 -4.2047322733266964e-03
693 7.2453443121074301e-03 7.2492516266904627e-04 7.7120586327779600e-04
696 -6.0212081652110073e-03 -5.5284254936233687e-03 2.2529236298160726e-03
697 -1.5760578398011772e-03 6.9466896654823713e-03 -2.5105563906590313e-03
698 2.6896462951863901e-03 2.2797531320928391e-03 -7.3678348182064594e-03
704 -4.0519359669313991e-03 -4.5444830830847363e-03 -8.4157586934490119e-04
727 2.4783319721692733e-03 -2.1187824446392703e-03 -4.8660435471646135e-03
729 4.3998963609880896e-03 7.8442203776035342e-03 -7.5685372596346013e-03
730 4.7265691298784534e-03 2.4286771649780514e-03 -5.0311005025860632e-03
731 4.6186669108676569e-03 -1.9943858963921458e-03 -1.8584892945806275e-03
732 -4.6235426182094936e-03 -1.0738751598791489e-03 5.9533791622952172e-03
733 1.1312424679140206e-03 -5.8889170504387049e-03 1.0583758103255946e-02
736 -7.2362591059029419e-03 6.7196941643690332e-04 4.6422991609766512e-03
737 3.5212423715208214e-03 -4.9299223371635599e-03 -4.6884116697564046e-04
738 -3.9846993881377827e-03 -2.7531484708247022e-04 4.0025295005144774e-03
739 -6.3353457214406321e-03 -2.0520722929344033e-04 5.0473047815950229e-03
741 -2.6035117173302570e-03 5.3125552527318997e-03 8.3407961107659859e-03
765 1.7825602201049875e-03 2.8450149132730612e-03 -3.8564380215671350e-03
596 -4.5726194913659644e-03 -1.1282495541025392e-03 -3.3914216544301596e-04
600 -1.4023586061056109e-02 -3.3118176522180069e-03 -1.3970109920609331e-03
602 1.0785987941576026e-03 -9.0111644616002948e-03 2.3327468360715242e-03
604 6.5421001551325859e-03 -4.9913792816392551e-03 -5.7350823023163350e-03
606 -5.4050919767479797e-04 -3.1246198711633111e-05 8.0976619936881417e-04
622 4.1206487154794667e-03 -5.4436221298045657e-04 -7.5247756687501718e-04
623 -8.4108001137011396e-04 2.6954237565012663e-03 6.6173881232002626e-03
624 1.4914856476912302e-03 4.7709447369572427e-03 6.5878132814303466e-03
625 3.8070550392372646e-03 -4.3873864008224205e-03 3.2399575004185919e-03
626 -7.2330464615782408e-03 2.0733759412441943e-04 3.3503330419899649e-03
627 -7.2958168642745706e-04 -3.4730306469966019e-03 -3.1909045673002654e-03
628 3.5635420567525231e-03 -2.5882398512842150e-03 5.4273658448230769e-03
629 -7.2603566111472256e-03 -6.3781117859293369e-03 -3.6711261750422735e-03
630 1.5290803916688947e-03 -5.6070761878663864e-03 6.6044370005434849e-03
631 6.8469244101298336e-03 -7.1082111255596438e-04 8.3798162697020975e-03
632 -6.6197606925732164e-03 -2.5533841042262999e-04 -1.0101595215347212e-02
633 -1.4705866714235393e-02 -4.4814859419364927e-03 9.9154300188439223e-03
634 -2.2018878208030843e-04 -1.0267398331861505e-03 -3.4675021892111436e-03
635 -6.1934310678802196e-04 -1.6857986550487167e-03 1.9158922749551819e-03
636 -7.9649486923000883e-03 -2.5458090411242104e-03 -8.6233349188753194e-03
637 4.1229965395568429e-04 -9.1197264011129745e-05 -3.2743141133137095e-03
638 2.7408481844627946e-03 9.0313394058882598e-03 1.9234805689759033e-03
639 -1.4663897194649620e-03 -5.4004639938398345e-03 1.0397955632946202e-03
640 1.4165094346486303e-02 -1.1859313801546150e-02 -3.9830560632608050e-03
642 1.7425501220527848e-03 -1.8822056703510170e-03 -8.0401220045315108e-03
643 8.8413060624945126e-04 -1.6107519773753210e-03 -6.2458580502472872e-03
644 8.8060448069207274e-04 1.3656907669971983e-03 6.6567884552557475e-03
645 1.7130680444438634e-03 1.3360349851957425e-03 1.9859346951549370e-03
646 -4.2298018448412820e-03 1.5622633379659581e-03 -6.0439610135652061e-04
647 8.3321674312194984e-04 5.0506286902020827e-03 -3.2609701831301081e-03
648 -3.9669855562217615e-03 1.2306883923560755e-03 8.6540817339038224e-03
740 -5.9619430904388551e-03 -4.7614737539423734e-03 -9.4681385338731706e-03
744 6.7705140235867524e-03 -2.9206106119215061e-04 8.3391923213282648e-03
746 3.7984745882130000e-05 -6.9356279794988394e-03 6.4331074918070285e-04
748 2.2868087252304100e-03 -1.1975710946140119e-03 -1.3512181035541528e-03
767 -5.3239336782155188e-03 -5.1056175751155296e-03 1.0640197215069726e-02
768 -1.3147250776922924e-03 -7.3490128279101860e-03 2.7118485045562238e-03
769 -4.4772385785819531e-04 2.1108592905010040e-03 6.4150427404980788e-03
770 -1.2086296660708668e-02 7.0146861681278840e-03 8.2386087883482484e-04
771 6.5313016311233357e-03 -4.5776717880622416e-05 3.3630379084158258e-03
774 5.4131656486485526e-03 -2.8027489030775362e-03 -7.5406407423021151e-03
775 -1.5016427561906651e-03 -2.5043485868232449e-03 5.4019465410665790e-03
776 -7.8637384312748408e-03 -2.2732805256563695e-03 3.6897624928430880e-03
777 -1.8462057185743075e-03 6.0759900974130393e-03 8.9044257163967341e-03
778 -3.5704958132919862e-03 5.0943176977332862e-03 6.4576941185764854e-03
779 5.6595165077509236e-03 3.9008816343133332e-04 3.1062130873915003e-03
782 -4.1083843243179471e-03 -5.0164330009933060e-03 -3.8608159756140252e-04
783 -2.7281608018958786e-03 7.3827320673819649e-03 3.5218281933313707e-03
784 3.3384942338705978e-03 -1.6086373618461427e-03 -1.8144486645539604e-03
786 -9.4311260347593861e-03 6.6833366510385111e-03 -1.6883639708998558e-03
787 -5.0670373918305306e-03 -6.4749398192616859e-04 3.9708270259303209e-03
789 -1.1830253062126310e-02 2.1753747190602067e-03 1.2322063670687556e-03
790 7.4293071895493524e-03 2.1932250186654386e-03 5.5212024889623543e-03
791 3.8227220095326891e-05 -9.1493504954026422e-04 4.4204617388410566e-03
792 -5.3560919931659717e-03 -2.3994756312435686e-03 4.7173546809673643e-04
650 4.5011235982433733e-03 -1.9145758317586344e-03 5.2917667342630816e-03
651 1.1139896476279972e-02 -1.0850207867659344e-02 1.1696368241520774e-02
657 -5.4331470100806214e-03 1.5956764842985704e-02 3.5527003732958203e-03
661 2.0609461105464237e-03 1.0843678626645582e-03 4.3645600602770984e-03
668 -8.7256812540172888e-05 1.5007106625216180e-02 1.9622751980970113e-03
669 -7.4440732783003340e-03 -1.3783673482314625e-03 3.3487221169666839e-03
676 -1.0406203780904279e-05 -2.3407155009923992e-03 4.6335333921340991e-03
677 4.2951041226100507e-03 -8.9786726445757210e-03 -6.2917082794965921e-04
703 -9.6845972649497189e-04 5.8273948008311293e-03 -1.8677040949655384e-03
711 4.0605246734194897e-03 2.2231449813888155e-03 6.1007279932683255e-03
793 -5.8322033968445409e-03 3.2920164726849628e-03 5.5288211089433289e-03
794 1.3907749361589353e-03 -1.3105586501130069e-04 -2.0889271502261256e-04
795 6.2511330825693804e-04 -4.1132733223230604e-03 6.8230128854825968e-03
796 -4.7504195719040637e-03 -4.1640781908854705e-03 -6.0710222719704450e-03
797 -5.8403259706899975e-03 3.0313915481768477e-03 -2.8759370794249478e-03
798 -1.5176824916094058e-03 -1.7828526889966426e-03 2.8062830248416094e-03
799 1.5326217710137204e-03 -4.1049361929605172e-04 3.5927491457588782e-03
800 1.9232039486137365e-03 2.3585088418343237e-03 7.8124102089799051e-03
801 4.0963185841406992e-03 5.7017941535949480e-03 -4.3668232867549728e-03
802 -7.4258116313535415e-03 3.3683953383264538e-03 -5.5106637557512687e-03
807 1.0531646477857745e-02 -7.4933139354552375e-04 1.6980438767147544e-03
808 -1.3496741849577715e-03 -2.8307748566274668e-03 2.8777546652113029e-03
809 9.2175310919304990e-03 4.6671671682904673e-03 2.9842981104768319e-03
818 5.7672405929665906e-03 9.7866881061036120e-04 -6.7768695458270967e-03
683 -5.0166410381323370e-04 6.2129919988925366e-03 3.3443434169619459e-03
710 3.9192898396156108e-03 3.4987352108239427e-03 -6.5566110369844304e-04
718 -5.9457223817853799e-03 -4.8057083625094683e-03 -3.0771715654219953e-03
719 -2.8317352229086327e-03 6.5615205703828229e-03 2.5765917121007031e-03
725 2.7999881302014484e-03 -2.1650681961759668e-05 6.4820879872241272e-03
751 -1.7158785774887272e-04 6.8407187718793391e-03 2.1994463791852629e-03
758 5.4073232324947391e-03 -4.7481742107462312e-03 5.8489325054022490e-03
759 1.6325466312379295e-03 4.5804877047012332e-04 5.4504088831574173e-03
810 -5.4034580597386236e-03 -1.2378332863909994e-02 -5.0751048401608675e-03
811 6.4342200969380082e-04 6.3382152873717118e-03 1.6490574264679523e-03
812 5.3429432132420188e-03 -5.3059046930662530e-03 -6.3309568690275301e-03
813 1.8163462211567818e-03 -1.9595638320681879e-03 1.0251069591162740e-02
820 -3.5923851123762767e-03 5.4660768670190983e-03 5.5426125635616276e-03
821 5.3138630682236353e-03 -8.0327163490729152e-03 1.6055028519660424e-03
822 -5.8393649456113337e-03 4.4827586246174098e-03 -3.5181157368077117e-03
660 6.1405529868774735e-03 2.7381434834214411e-03 9.0740991124008772e-03
686 5.5546109502193422e-03 -2.7860409869520926e-03 1.2880874515695789e-02
687 1.2089987877851715e-03 -8.4172906369734211e-03 5.0645510357222880e-06
694 -3.6672883627929323e-03 -2.2715925511882350e-04 7.0201894884417216e-03
695 1.2286736483120453e-03 -4.4273386337081771e-04 1.9502468475349902e-03
702 4.0035370097272708e-03 6.4028586492795416e-03 -2.2093577026524431e-03
728 1.0232185538121101e-02 -7.9292154053054039e-04 -1.0342741158517151e-03
734 -1.1285080599452236e-03 7.6022516979902489e-04 2.9376506609835032e-03
735 -1.7923061417131419e-03 5.0261837249516723e-04 -6.1394271128339560e-03
742 -3.7443190143745405e-03 3.1512114108820793e-03 -3.4860539555888314e-03
743 5.0309338615927377e-03 -4.8615327671357976e-03 -4.5476304111005811e-03
803 -4.7242534033932210e-04 1.8656492594207761e-03 -1.6621517427201150e-04
804 4.4162018248708901e-03 7.9007837694596039e-04 6.5788039137053061e-03
805 1.6753371650135003e-03 3.5807948030873861e-03 2.4328496061837967e-03
806 2.1455426698695412e-03 -2.7145583599052933e-04 2.1396860330106376e-04
814 -7.6221292256969664e-03 5.7139235095697333e-04 2.7942681562112045e-03
815 2.0564795514943818e-03 3.0980166013999406e-03 -3.1941701641519131e-03
816 -1.0915969294762028e-02 3.7328005372775910e-03 -3.5296212598139991e-04
750 2.5990975674787223e-03 9.6402301427233657e-03 6.4864412015696801e-03
766 -5.8977917593503329e-03 -5.5502483672568107e-03 -4.9566220228158377e-03
772 -1.1474201476252138e-03 5.9396736401908096e-03 8.0094184748386173e-04
773 3.0218058523793345e-03 1.0292452086719740e-02 3.2753002662144898e-03
780 8.2059545958459417e-03 3.3186703383639425e-03 -1.6829123747828553e-03
781 1.0543726389125872e-03 1.1391329922654733e-03 7.2393013428933605e-03
788 2.4394355807397738e-03 3.6449075034136578e-04 1.3487299451180981e-02
817 -4.1111261072748137e-03 -2.5125314236873362e-03 6.7846787434547176e-04
819 8.5468638810689591e-03 -9.0539162078555823e-04 1.9532544654484322e-03
823 1.3252458680413162e-03 -4.6579843970009343e-03 5.8913126593878561e-03
824 -6.1122023429738574e-04 6.7060844020112925e-03 -4.0546352115498327e-04
825 3.6343976422792239e-03 1.8388164174724234e-03 -3.6800997277937650e-03
826 -5.3675131538345171e-03 -1.2832067381803561e-03 8.7578536073786035e-03
827 3.0286339349907348e-03 -2.9495267827973986e-03 2.1779256364430253e-04
828 9.9175424599500721e-04 8.7033233276206240e-03 5.3283421511429304e-03
