Loading lammps/kokkos/gpu_della9_2022
  Loading requirement: gcc-toolset/14 openmpi/gcc/4.1.6
    fftw/gcc/openmpi-4.1.6/3.3.10 cudatoolkit/12.8
LAMMPS (23 Jun 2022)
KOKKOS mode is enabled (src/KOKKOS/kokkos.cpp:105)
  will use up to 1 GPU(s) per node
WARNING: When using a single thread, the Kokkos Serial backend (i.e. Makefile.kokkos_mpi_only) gives better performance than the OpenMP backend (src/KOKKOS/kokkos.cpp:217)
  using 1 OpenMP thread(s) per MPI task
BOTTOM -0.625
Lattice spacing in x,y,z = 2.5211094 8.3615741 5.3750234
Created orthogonal box = (-2.5211094e-06 -8.3615741e-06 -3.3593896) to (22.689985 25.084722 43.000187)
  1 by 1 by 1 MPI processor grid
Created 2160 atoms
  using lattice units in orthogonal box = (-2.5211094e-06 -8.3615741e-06 -3.3593896) to (22.689985 25.084722 43.000187)
  create_atoms CPU = 0.005 seconds
Setting atom values ...
  2160 settings made for charge
N_LAT_0 648
324 atoms in group anchor
0 atoms in group insert
1836 atoms in group mobile
2160 atoms in group carbon
Reading potential file ffield.reax with DATE: 2011-02-18
WARNING: Changed valency_val to valency_boc for X (src/REAXFF/reaxff_ffield.cpp:296)
Changing box ...
  orthogonal box = (0 -8.3615741e-06 -3.3593896) to (22.689985 25.084722 43.000187)
  orthogonal box = (0 0 -3.3593896) to (22.689985 25.084722 43.000187)
  orthogonal box = (0 0 -3.3593896) to (22.689985 25.084722 43.000187)
System init for delete_atoms ...
Neighbor list info ...
  update every 1 steps, delay 10 steps, check yes
  max neighbors/atom: 2000, page size: 100000
  master list distance cutoff = 12
  ghost atom cutoff = 12
  binsize = 12, bins = 2 3 4
  3 neighbor lists, perpetual/occasional/extra = 2 1 0
  (1) command delete_atoms, occasional
      attributes: full, newton on
      pair build: full/bin/atomonly
      stencil: full/bin/3d
      bin: standard
  (2) pair reaxff/kk, perpetual
      attributes: half, newton off, ghost, kokkos_device
      pair build: half/bin/ghost/kk/device
      stencil: full/ghost/bin/3d
      bin: kk/device
  (3) fix qeq/reaxff/kk, perpetual
      attributes: full, newton off, kokkos_device
      pair build: full/bin/kk/device
      stencil: full/bin/3d
      bin: kk/device
WARNING: Fixes cannot yet send exchange data in Kokkos communication, switching to classic exchange/border communication (src/KOKKOS/comm_kokkos.cpp:581)
Deleted 0 atoms, new total = 2160
Created 108 atoms
  using lattice units in orthogonal box = (0 0 -3.3593896) to (22.689985 25.084722 43.000187)
  create_atoms CPU = 0.001 seconds
108 atoms in group O
Displacing atoms ...

CITE-CITE-CITE-CITE-CITE-CITE-CITE-CITE-CITE-CITE-CITE-CITE-CITE

Your simulation uses code contributions which should be cited:
- pair reaxff command:
- fix qeq/reaxff command:
The log file lists these citations in BibTeX format.

CITE-CITE-CITE-CITE-CITE-CITE-CITE-CITE-CITE-CITE-CITE-CITE-CITE

WARNING: Using 'neigh_modify every 1 delay 0 check yes' setting during minimization (src/min.cpp:187)
Neighbor list info ...
  update every 1 steps, delay 0 steps, check yes
  max neighbors/atom: 2000, page size: 100000
  master list distance cutoff = 12
  ghost atom cutoff = 12
  binsize = 12, bins = 2 3 4
  2 neighbor lists, perpetual/occasional/extra = 2 0 0
  (1) pair reaxff/kk, perpetual
      attributes: half, newton off, ghost, kokkos_device
      pair build: half/bin/ghost/kk/device
      stencil: full/ghost/bin/3d
      bin: kk/device
  (2) fix qeq/reaxff/kk, perpetual
      attributes: full, newton off, kokkos_device
      pair build: full/bin/kk/device
      stencil: full/bin/3d
      bin: kk/device
Setting up cg/kk style minimization ...
  Unit style    : real
  Current step  : 0
Per MPI rank memory allocation (min/avg/max) = 78.2 | 78.2 | 78.2 Mbytes
   Step          Temp          E_pair         E_mol          TotEng         Press          Volume    
         0   0             -344001.47      0             -344001.47      281106.44      26386.572    
        20   0             -392929.61      0             -392929.61      87276.124      26386.572    
Loop time of 2.4079 on 1 procs for 20 steps with 2268 atoms

99.6% CPU use with 1 MPI tasks x 1 OpenMP threads

Minimization stats:
  Stopping criterion = energy tolerance
  Energy initial, next-to-last, final = 
     -344001.470915173  -392929.614538826  -392929.612659911
  Force two-norm initial, final = 40172.345 269.99981
  Force max component initial, final = 4020.3047 11.733552
  Final line search alpha, max atom move = 2.0665748e-10 2.4248263e-09
  Iterations, force evaluations = 20 120

MPI task timing breakdown:
Section |  min time  |  avg time  |  max time  |%varavg| %total
---------------------------------------------------------------
Pair    | 1.3945     | 1.3945     | 1.3945     |   0.0 | 57.91
Neigh   | 0.0072656  | 0.0072656  | 0.0072656  |   0.0 |  0.30
Comm    | 0.002597   | 0.002597   | 0.002597   |   0.0 |  0.11
Output  | 0          | 0          | 0          |   0.0 |  0.00
Modify  | 0.95787    | 0.95787    | 0.95787    |   0.0 | 39.78
Other   |            | 0.04567    |            |       |  1.90

Nlocal:           2268 ave        2268 max        2268 min
Histogram: 1 0 0 0 0 0 0 0 0 0
Nghost:           6854 ave        6854 max        6854 min
Histogram: 1 0 0 0 0 0 0 0 0 0
Neighs:    1.58957e+06 ave 1.58957e+06 max 1.58957e+06 min
Histogram: 1 0 0 0 0 0 0 0 0 0
FullNghs:  2.34554e+06 ave 2.34554e+06 max 2.34554e+06 min
Histogram: 1 0 0 0 0 0 0 0 0 0

Total # of neighbors = 2345542
Ave neighs/atom = 1034.1896
Neighbor list builds = 1
Dangerous builds = 0
System init for write_data ...
WARNING: Temperature for thermo pressure is not for group all (src/thermo.cpp:520)
Setting up Verlet run ...
  Unit style    : real
  Current step  : 0
  Time step     : 1
Per MPI rank memory allocation (min/avg/max) = 77.45 | 77.45 | 77.45 Mbytes
   Step          Time           Temp     
         0   0              300          
      1000   1000           298.66038    
      2000   2000           391.38478    
      3000   3000           361.83068    
      4000   4000           379.64356    
      5000   5000           354.63239    
      6000   6000           371.8295     
      7000   7000           359.63488    
      8000   8000           365.83205    
      9000   9000           371.56626    
     10000   10000          357.06874    
Loop time of 134.484 on 1 procs for 10000 steps with 2268 atoms

Performance: 6.425 ns/day, 3.736 hours/ns, 74.358 timesteps/s
99.7% CPU use with 1 MPI tasks x 1 OpenMP threads

MPI task timing breakdown:
Section |  min time  |  avg time  |  max time  |%varavg| %total
---------------------------------------------------------------
Pair    | 98.361     | 98.361     | 98.361     |   0.0 | 73.14
Neigh   | 0.045412   | 0.045412   | 0.045412   |   0.0 |  0.03
Comm    | 3.0287     | 3.0287     | 3.0287     |   0.0 |  2.25
Output  | 0.0027968  | 0.0027968  | 0.0027968  |   0.0 |  0.00
Modify  | 32.734     | 32.734     | 32.734     |   0.0 | 24.34
Other   |            | 0.3129     |            |       |  0.23

Nlocal:           2268 ave        2268 max        2268 min
Histogram: 1 0 0 0 0 0 0 0 0 0
Nghost:           6864 ave        6864 max        6864 min
Histogram: 1 0 0 0 0 0 0 0 0 0
Neighs:    1.55819e+06 ave 1.55819e+06 max 1.55819e+06 min
Histogram: 1 0 0 0 0 0 0 0 0 0
FullNghs:  2.30302e+06 ave 2.30302e+06 max 2.30302e+06 min
Histogram: 1 0 0 0 0 0 0 0 0 0

Total # of neighbors = 2303016
Ave neighs/atom = 1015.4392
Neighbor list builds = 6
Dangerous builds = 0
System init for write_data ...
System init for write_data ...
0 648 0 0
0 -0.625 648
Total wall time: 0:02:17
srun: error: della-l01g16: task 0: Exited with exit code 1
srun: Terminating StepId=6632493.1
LAMMPS exited with code 1 — not re-submitting.
