LAMMPS data file via write_data, version 23 Jun 2022, timestep = 0

2160 atoms
3 atom types

0 22.689985001334318 xlo xhi
0 25.08472224940587 ylo yhi
-3.35938962248787 43.000187167844736 zlo zhi

Masses

1 12.011
2 1.00784
3 16

Atoms # charge/kk

1 1 2.6276325638557253e-06 3.7816641668890534e+00 4.1807870411951162e+00 -2.9562628677656138e+00 0 0 0
2 1 -1.2684666100078355e-06 1.2605547222963509e+00 4.1807870411951153e+00 -2.9562628677656133e+00 0 0 0
3 1 1.6214050367779524e-06 1.2605547222963509e+00 2.6605008449179768e+00 -3.2250140373938452e+00 0 0 0
4 1 -1.7873821536759909e-06 1.2605547222963507e+00 1.9003577461590595e+00 -1.8812581887655686e+00 0 0 0
7 1 4.8976581076627081e-07 6.3027736114817543e+00 4.1807870411951153e+00 -2.9562628677656138e+00 0 0 0
8 1 1.8513044997073933e-06 6.3027736114817543e+00 2.6605008449179768e+00 -3.2250140373938452e+00 0 0 0
9 1 -1.9533306219883422e-06 3.7816641668890525e+00 2.6605008449179768e+00 -3.2250140373938452e+00 0 0 0
10 1 -4.9939540313204442e-06 6.3027736114817552e+00 1.9003577461590604e+00 -1.8812581887655686e+00 0 0 0
11 1 -3.2580973285665287e-07 3.7816641668890525e+00 1.9003577461590595e+00 -1.8812581887655684e+00 0 0 0
13 1 1.6491083032114526e-06 3.7816641668890529e+00 3.8007154932727732e-01 -2.1500093586007796e+00 0 0 0
14 1 1.6488262769280858e-06 1.2605547222963509e+00 3.8007154932727732e-01 -2.1500093586007796e+00 0 0 0
24 1 1.4931675142928943e-06 6.3027736114817543e+00 3.8007154932727732e-01 -2.1500093586007791e+00 0 0 0
58 1 -1.7390631956346521e-06 0.0000000000000000e+00 6.0811447877267044e+00 -1.8812581887655684e+00 0 0 0
72 1 2.5363962358325021e-07 5.0422188891854027e+00 6.0811447877267044e+00 -1.8812581887655684e+00 0 0 0
76 1 1.3022828432373352e-06 2.5211094445927014e+00 4.5608585908949211e+00 -2.1500093586007796e+00 0 0 0
77 1 -2.5628503260289707e-06 2.5211094445927023e+00 6.0811447877267044e+00 -1.8812581887655688e+00 0 0 0
78 1 -2.0577129171436178e-06 3.7512310905230093e+00 5.7018196288712835e+00 2.4105529200483830e-01 0 0 0
79 1 3.0073468605640911e-06 1.2111262555969264e+00 5.6645896914028633e+00 2.6173343133448146e-01 0 0 0
80 1 -9.0652181399077058e-07 2.5211094445927018e+00 3.8007154923025155e+00 -8.0625350937816131e-01 0 0 0
81 1 -4.0235586919871050e-07 0.0000000000000000e+00 4.5608585908949211e+00 -2.1500093586007796e+00 0 0 0
82 1 5.7541415806178760e-06 1.2826620259615737e+00 4.1517969886762369e+00 4.6027887272317436e-02 0 0 0
83 1 -5.2413483368942386e-07 0.0000000000000000e+00 2.2804292954328891e+00 -1.0750046791935999e+00 0 0 0
84 1 -1.0954574334320175e-06 0.0000000000000000e+00 3.8007154923025150e+00 -8.0625350937816131e-01 0 0 0
85 1 -4.7393074835307786e-06 1.2663348989802676e+00 3.4239709604546915e+00 1.3564636479531729e+00 0 0 0
86 1 1.5498452687020934e-06 1.8586186677458191e-02 1.4975198235928542e+00 2.6256915967786482e-01 0 0 0
104 1 1.8769521260791353e-06 7.5633283337781050e+00 4.5608585908949211e+00 -2.1500093586007791e+00 0 0 0
107 1 1.5987109342950069e-06 6.2957818131177232e+00 5.6990629982470447e+00 2.7254052977140036e-01 0 0 0
108 1 -1.9753397196185781e-06 7.5633283337781050e+00 3.8007154923025155e+00 -8.0625350937816131e-01 0 0 0
109 1 1.7217934958521471e-06 5.0422188891854036e+00 4.5608585908949211e+00 -2.1500093586007796e+00 0 0 0
110 1 2.3102508577378556e-06 6.2904605209847029e+00 4.2274093411835647e+00 2.1497976557052420e-02 0 0 0
111 1 1.4456107616324377e-06 3.7846314700651562e+00 4.1602759183755236e+00 1.9639460617196566e-03 0 0 0
112 1 5.0569364805712238e-06 5.0422188891854036e+00 2.2804292954328891e+00 -1.0750046791935997e+00 0 0 0
113 1 -4.6116459416863954e-06 5.0422188891854045e+00 3.8007154923025155e+00 -8.0625350937816131e-01 0 0 0
114 1 -5.1792557059335585e-06 6.2766489079184806e+00 3.4266091824082987e+00 1.4396025586457355e+00 0 0 0
115 1 1.1219303878696439e-06 3.7716490776066731e+00 3.4659961530418064e+00 1.3867854403651043e+00 0 0 0
116 1 -5.1400813384189065e-07 5.0115287794234069e+00 1.5006362045253279e+00 2.4827586134187674e-01 0 0 0
117 1 -1.9738545455871442e-06 2.5211094445927018e+00 2.2804292954328891e+00 -1.0750046791935999e+00 0 0 0
118 1 -1.3009882613209263e-07 3.7929239189345347e+00 1.9231648568568109e+00 1.1258666212465991e+00 0 0 0
119 1 2.3916973862832291e-06 1.2839785790931397e+00 1.8675060612763188e+00 1.1355365708332947e+00 0 0 0
121 1 -2.3182648774306428e-07 2.5514431252594991e+00 1.5441026417594799e+00 2.9266192082990505e-01 0 0 0
122 1 -9.0053744050698773e-07 3.7752409260375397e+00 1.1240396885013220e+00 2.4306354641830601e+00 0 0 0
123 1 -2.7767988221658368e-06 1.2494284168777676e+00 1.1089141650929188e+00 2.4932486157511953e+00 0 0 0
157 1 2.7918492390974517e-06 6.2953954733508821e+00 1.8477591944027261e+00 1.0710228318672101e+00 0 0 0
161 1 -1.6002425687303980e-06 6.2712913182569823e+00 1.1200190696920476e+00 2.3774950264524159e+00 0 0 0
319 1 -7.3468846970229911e-08 2.4887983460262082e+00 6.0931490850709631e+00 1.1124167581829152e+00 0 0 0
323 1 -4.6253748626439503e-06 2.5054320744774392e+00 5.3539996186986292e+00 2.4600684166881774e+00 0 0 0
324 1 3.0171732352107296e-06 2.2682045326738560e+01 6.0861453515207433e+00 1.0947325474368867e+00 -1 0 0
325 1 6.7002497055007625e-06 1.2543898792420898e+00 5.7631760544346866e+00 3.2578439034267732e+00 0 0 0
326 1 1.4656472373494521e-06 2.9322546706807194e-02 3.7732356217681193e+00 2.2332894556543716e+00 0 0 0
327 1 -2.6214554614717422e-06 1.8249461688841517e-02 5.3419904581844904e+00 2.4849854910344837e+00 0 0 0
370 1 5.9574665261064992e-06 7.5565707508376549e+00 6.1318430873630252e+00 1.1283013697288269e+00 0 0 0
374 1 -4.8039002154245070e-06 7.5792683265217935e+00 5.3330373674279272e+00 2.4820466945938531e+00 0 0 0
375 1 -4.2776073229093673e-07 5.0082289414793930e+00 6.0884530299962725e+00 1.1192478383841482e+00 0 0 0
376 1 5.3790105943907223e-07 6.3143968645817949e+00 5.7215122506393339e+00 3.2770792423494317e+00 0 0 0
377 1 -3.7436271086657984e-08 3.7306539339906601e+00 5.7378413539885473e+00 3.3135990498962391e+00 0 0 0
378 1 5.3841543973723977e-06 5.0164718124760865e+00 3.7945201566775761e+00 2.1994268507073893e+00 0 0 0
379 1 1.1014489182170204e-06 5.0506219588713233e+00 5.3099672531374758e+00 2.5049561868830930e+00 0 0 0
383 1 3.9807522789401405e-06 2.4872029587584521e+00 3.8639742829277655e+00 2.2171716798545460e+00 0 0 0
386 1 1.4429679576647103e-06 2.4968288253347914e+00 1.4999733431246836e+00 3.2406156085120039e+00 0 0 0
391 1 3.2240285919352083e-06 8.9165057987901173e-03 1.5019081942146790e+00 3.2199824167876971e+00 0 0 0
440 1 3.9681661354925556e-06 7.5114352258115575e+00 1.5216176386135203e+00 3.2482765840547128e+00 0 0 0
445 1 3.8534853430187384e-06 5.0947774810046544e+00 1.5283039364161726e+00 3.2256688511431841e+00 0 0 0
6 1 -1.0355059348382721e-06 8.8238830560744557e+00 4.1807870411951162e+00 -2.9562628677656138e+00 0 0 0
16 1 -1.1516523542621104e-06 1.3866101945259860e+01 4.1807870411951153e+00 -2.9562628677656133e+00 0 0 0
17 1 6.7227225126131934e-07 1.1344992500667157e+01 4.1807870411951162e+00 -2.9562628677656133e+00 0 0 0
18 1 9.4007219339169772e-07 1.1344992500667157e+01 2.6605008449179768e+00 -3.2250140373938452e+00 0 0 0
19 1 -2.1414421949734178e-06 8.8238830560744557e+00 2.6605008449179772e+00 -3.2250140373938452e+00 0 0 0
20 1 -4.5225076816624686e-07 1.1344992500667159e+01 1.9003577461590595e+00 -1.8812581887655686e+00 0 0 0
21 1 -7.5215115727743604e-07 8.8238830560744557e+00 1.9003577461590595e+00 -1.8812581887655686e+00 0 0 0
23 1 2.2446103182364671e-06 8.8238830560744557e+00 3.8007154932727732e-01 -2.1500093586007796e+00 0 0 0
29 1 1.2288224245233976e-06 1.3866101945259860e+01 2.6605008449179781e+00 -3.2250140373938452e+00 0 0 0
31 1 -2.7418402281332349e-06 1.3866101945259858e+01 1.9003577461590604e+00 -1.8812581887655684e+00 0 0 0
33 1 2.2383746783503200e-06 1.3866101945259860e+01 3.8007154932727688e-01 -2.1500093586007796e+00 0 0 0
34 1 3.3173592246409783e-06 1.1344992500667157e+01 3.8007154932727777e-01 -2.1500093586007791e+00 0 0 0
100 1 -1.4856826955384220e-06 1.0084437778370805e+01 6.0811447877267053e+00 -1.8812581887655684e+00 0 0 0
105 1 -3.8425166455160914e-06 7.5633283337781059e+00 6.0811447877267044e+00 -1.8812581887655688e+00 0 0 0
106 1 -4.0342402889794503e-06 8.7815858546643675e+00 5.7148146454996924e+00 3.1053189104439266e-01 0 0 0
142 1 -1.0501591930177646e-06 1.2605547222963510e+01 4.5608585908949228e+00 -2.1500093586007796e+00 0 0 0
143 1 -3.1220035716590474e-06 1.2605547222963509e+01 6.0811447877267044e+00 -1.8812581887655688e+00 0 0 0
144 1 1.0721216798731837e-06 1.3795052083836838e+01 5.7468882283691665e+00 3.0332697253455881e-01 0 0 0
145 1 -4.6450282474695291e-06 1.1326177256388851e+01 5.6992602561401737e+00 2.8113087409446025e-01 0 0 0
146 1 -2.5705052836441520e-06 1.2605547222963509e+01 3.8007154923025155e+00 -8.0625350937816109e-01 0 0 0
147 1 3.7182291389322316e-06 1.0084437778370807e+01 4.5608585908949211e+00 -2.1500093586007791e+00 0 0 0
148 1 5.5037484151619471e-06 1.1379910884320147e+01 4.1725400891070636e+00 4.4270862502185836e-02 0 0 0
149 1 2.4249866768309830e-06 8.8024430091402550e+00 4.1623461889644604e+00 1.0675879725309310e-02 0 0 0
150 1 2.1191427425515955e-06 1.0084437778370807e+01 2.2804292954328895e+00 -1.0750046791935997e+00 0 0 0
151 1 -4.4223513976785166e-06 1.0084437778370807e+01 3.8007154923025155e+00 -8.0625350937816154e-01 0 0 0
152 1 -1.6887898035331160e-06 1.1361268667155395e+01 3.4640280418915546e+00 1.3960730272730220e+00 0 0 0
153 1 -9.0656635531199808e-07 8.8257744097481510e+00 3.4234972986257319e+00 1.3723286845981422e+00 0 0 0
154 1 -1.5179671143019154e-06 1.0131085055378259e+01 1.5157819367310592e+00 2.6141085340050235e-01 0 0 0
155 1 2.4929256170313677e-06 7.5633283337781059e+00 2.2804292954328891e+00 -1.0750046791935999e+00 0 0 0
156 1 7.8234352560584659e-07 8.8642106763546327e+00 1.9154339841037318e+00 1.0965899016849154e+00 0 0 0
159 1 -1.0654868932209536e-06 7.6019701571291431e+00 1.5473055271755607e+00 2.9223298695136735e-01 0 0 0
160 1 -8.2694021374465350e-07 8.8165479310139201e+00 1.1499420811048819e+00 2.4225021954150554e+00 0 0 0
182 1 -1.2492148627779629e-06 1.3848497511096733e+01 4.2187628422832795e+00 -2.1554351588835913e-02 0 0 0
184 1 -3.7942130990970994e-06 1.5126656667556210e+01 3.8007154923025155e+00 -8.0625350937816131e-01 0 0 0
186 1 -4.7450141005848782e-06 1.3876025997421982e+01 3.4215650449167168e+00 1.3414413201813036e+00 0 0 0
187 1 -4.3476104165835568e-06 1.5049847182243216e+01 1.5380138364676561e+00 2.6452088702813725e-01 0 0 0
188 1 -4.7016725091311529e-07 1.2605547222963509e+01 2.2804292954328891e+00 -1.0750046791935997e+00 0 0 0
189 1 3.9463153311572115e-06 1.3830577454624112e+01 1.8893961313789325e+00 1.0863374528048015e+00 0 0 0
190 1 4.5190227537890147e-06 1.1302789558768227e+01 1.9299989400295807e+00 1.1072968232096239e+00 0 0 0
192 1 -5.4816004432104911e-07 1.2568920633858534e+01 1.5022350825865638e+00 2.6423043285792269e-01 0 0 0
193 1 -2.5472916780307958e-06 1.3823366162851380e+01 1.1877645765858713e+00 2.4436906018949482e+00 0 0 0
194 1 -5.1072672071017578e-06 1.1340294955227666e+01 1.0864693713513736e+00 2.4653482506850666e+00 0 0 0
424 1 3.5890349302785202e-06 1.2536927365098917e+01 6.0732374965455351e+00 1.0459258469719990e+00 0 0 0
428 1 -1.8360463759312804e-06 1.2630722527303321e+01 5.3272909633872292e+00 2.4586619558782314e+00 0 0 0
429 1 4.2444377977201691e-07 1.0032227172269273e+01 6.1022801064338141e+00 1.1395420816268915e+00 0 0 0
430 1 6.5401072879043596e-07 1.1322819758405570e+01 5.7217329620415081e+00 3.3203534019564391e+00 0 0 0
431 1 5.2891982670773823e-06 8.8161610711330116e+00 5.7101048464939339e+00 3.2360502203576722e+00 0 0 0
432 1 -3.7155311282617744e-07 1.0123210319063087e+01 3.8186940945829471e+00 2.2072362378421464e+00 0 0 0
433 1 -6.0325172303395407e-07 1.0117433142578665e+01 5.3448108004288972e+00 2.4326859107350569e+00 0 0 0
437 1 2.9253914133920222e-06 7.5252759595187264e+00 3.7652697259963177e+00 2.1986101814638186e+00 0 0 0
471 1 1.2217957014676156e-06 1.3823787460761954e+01 5.7063087730402904e+00 3.2894097879695092e+00 0 0 0
473 1 -3.9282976549430089e-06 1.5106789831301917e+01 5.3709437926322545e+00 2.4143064003017991e+00 0 0 0
477 1 4.9851229960925874e-06 1.2670928101182790e+01 3.8038375635945822e+00 2.1794370609743932e+00 0 0 0
480 1 6.9850273404296017e-07 1.2617965287835469e+01 1.4968028550673360e+00 3.2500929573546662e+00 0 0 0
485 1 3.3569727059981383e-06 1.0078132387720787e+01 1.4808996748774992e+00 3.2556997410839084e+00 0 0 0
509 1 2.5856016013622108e-06 1.5082220806245493e+01 1.5189333811815640e+00 3.1969481516225007e+00 0 0 0
26 1 -1.3646504836631462e-06 1.8908320834445263e+01 4.1807870411951162e+00 -2.9562628677656138e+00 0 0 0
27 1 -2.2458724419511607e-06 1.6387211389852560e+01 4.1807870411951162e+00 -2.9562628677656133e+00 0 0 0
28 1 -3.0883409242846975e-06 1.6387211389852560e+01 2.6605008449179763e+00 -3.2250140373938456e+00 0 0 0
30 1 -1.2483813160966189e-06 1.6387211389852560e+01 1.9003577461590595e+00 -1.8812581887655684e+00 0 0 0
36 1 2.0226313459511189e-06 2.1429430279037966e+01 4.1807870411951162e+00 -2.9562628677656138e+00 0 0 0
37 1 -2.7526244414836670e-06 2.1429430279037966e+01 2.6605008449179763e+00 -3.2250140373938447e+00 0 0 0
38 1 1.1776954826435044e-06 1.8908320834445263e+01 2.6605008449179772e+00 -3.2250140373938452e+00 0 0 0
39 1 2.2073345764432126e-06 2.1429430279037966e+01 1.9003577461590604e+00 -1.8812581887655688e+00 0 0 0
40 1 -1.5017166477326480e-07 1.8908320834445263e+01 1.9003577461590595e+00 -1.8812581887655684e+00 0 0 0
42 1 2.3832588538311191e-06 1.8908320834445263e+01 3.8007154932727599e-01 -2.1500093586007796e+00 0 0 0
43 1 -1.9945372287097976e-07 1.6387211389852563e+01 3.8007154932727866e-01 -2.1500093586007796e+00 0 0 0
45 1 -1.3888089229634880e-06 2.1429430279037966e+01 3.8007154932727777e-01 -2.1500093586007791e+00 0 0 0
138 1 -1.4957332923182796e-06 1.5126656667556212e+01 6.0811447877267044e+00 -1.8812581887655679e+00 0 0 0
171 1 1.2425705172129274e-06 2.0168875556741614e+01 6.0811447877267053e+00 -1.8812581887655684e+00 0 0 0
175 1 6.9473707567980664e-07 1.7647766112148911e+01 4.5608585908949211e+00 -2.1500093586007796e+00 0 0 0
176 1 -4.8911636076299321e-06 1.7647766112148911e+01 6.0811447877267053e+00 -1.8812581887655688e+00 0 0 0
177 1 1.5578932186589941e-07 1.8896970508666058e+01 5.6986747231503081e+00 3.0813043427456094e-01 0 0 0
178 1 -6.3707355435861211e-06 1.6358394263932553e+01 5.7291680404767362e+00 2.6173981857365297e-01 0 0 0
179 1 9.9240337982044045e-07 1.7647766112148915e+01 3.8007154923025155e+00 -8.0625350937816087e-01 0 0 0
180 1 2.2889232688484449e-06 1.5126656667556212e+01 4.5608585908949211e+00 -2.1500093586007796e+00 0 0 0
181 1 4.6715778332177110e-06 1.6336250057783598e+01 4.2045502102839327e+00 1.7920608039360582e-02 0 0 0
183 1 7.4066243476508405e-06 1.5126656667556212e+01 2.2804292954328900e+00 -1.0750046791936001e+00 0 0 0
185 1 -4.5926488176795722e-06 1.6349530178825233e+01 3.4090670834112782e+00 1.3506258511862916e+00 0 0 0
197 1 1.2623089737992994e-07 2.1392651858442182e+01 5.7278304872399772e+00 2.7048894441645205e-01 0 0 0
198 1 -8.4415153239133247e-08 2.0168875556741614e+01 4.5608585908949220e+00 -2.1500093586007791e+00 0 0 0
199 1 -2.3615916332734235e-06 2.1439239145464576e+01 4.1602117556893061e+00 2.7314602793548194e-03 0 0 0
200 1 1.4652531154325071e-06 1.8890508200793231e+01 4.1854359181294836e+00 1.0767398449003625e-03 0 0 0
201 1 1.2965821946746412e-06 2.0168875556741614e+01 2.2804292954328882e+00 -1.0750046791935997e+00 0 0 0
202 1 -1.9261966373380162e-07 2.0168875556741611e+01 3.8007154923025155e+00 -8.0625350937816176e-01 0 0 0
203 1 -2.6966392168266279e-07 2.1440348822072512e+01 3.3903294077018944e+00 1.3407885001403992e+00 0 0 0
204 1 -4.9407482792585690e-06 1.8880825379384781e+01 3.4014183212793592e+00 1.3455025646504686e+00 0 0 0
205 1 -1.9357652616358852e-07 2.0134054705439841e+01 1.5237298112830007e+00 2.3112873532819897e-01 0 0 0
206 1 1.6824309099115082e-06 1.7647766112148911e+01 2.2804292954328891e+00 -1.0750046791936001e+00 0 0 0
207 1 -1.5823317480680392e-06 1.8918640631711721e+01 1.8896606306485353e+00 1.0358013790593066e+00 0 0 0
208 1 1.6726735852373663e-06 1.6298079791345906e+01 1.8666617133064798e+00 1.0661248758221022e+00 0 0 0
210 1 6.4837998004983182e-07 1.7663538619724203e+01 1.5227790034253359e+00 2.5256054328178557e-01 0 0 0
211 1 -2.0854109457604630e-06 1.8900079235097756e+01 1.1812058248762378e+00 2.3677505908404628e+00 0 0 0
212 1 -1.2784820175594966e-06 1.6342687687703410e+01 1.1175467213022166e+00 2.3875281557417529e+00 0 0 0
214 1 -3.9819836516142626e-06 2.1446248710700793e+01 1.8948879848199562e+00 1.0465280779528998e+00 0 0 0
215 1 1.7675942068872202e-06 2.1363361769544177e+01 1.1412035016363062e+00 2.4399766477087934e+00 0 0 0
464 1 7.6739796696866845e-07 1.7634167051973577e+01 6.0589408509662208e+00 1.1021907847170791e+00 0 0 0
468 1 -3.3603582336210696e-06 1.7651131986193938e+01 5.3107609589016134e+00 2.4430742394608065e+00 0 0 0
469 1 1.4103123735478592e-06 1.5097942224185187e+01 6.0796766352235885e+00 1.1041016301665303e+00 0 0 0
470 1 3.6911037750896529e-06 1.6338126263726391e+01 5.7059706040584679e+00 3.2923534651797719e+00 0 0 0
472 1 3.0697321082861078e-06 1.5129402086345053e+01 3.8640528836604076e+00 2.1583240177930749e+00 0 0 0
493 1 1.7919710726380293e-06 2.0183612101155671e+01 6.0641334805950491e+00 1.0551810566090092e+00 0 0 0
494 1 2.4128410017085041e-07 2.1424572156818261e+01 5.6859819904581421e+00 3.2671056057702428e+00 0 0 0
495 1 4.3658755093529468e-06 1.8893936892119388e+01 5.7185878539267918e+00 3.2068862735064214e+00 0 0 0
496 1 2.2567062093731209e-06 2.0200034018399190e+01 3.7825009881808467e+00 2.1089327780186085e+00 0 0 0
497 1 -1.6189565134622930e-06 2.0206096517086973e+01 5.2727318323898427e+00 2.4814485567852036e+00 0 0 0
501 1 5.5596137156804520e-06 1.7591787416448884e+01 3.8008325998239934e+00 2.1768394139725120e+00 0 0 0
504 1 2.1472662939672297e-06 1.7616897472268207e+01 1.5360078046349441e+00 3.2229913554860543e+00 0 0 0
517 1 5.8080589367642400e-07 2.0111684247662772e+01 1.5202640338883742e+00 3.1834534412614857e+00 0 0 0
46 1 4.2500640113201049e-07 1.2605547222963516e+00 1.2542361124330405e+01 -2.9562628677656142e+00 0 0 0
47 1 -1.2677121949116119e-06 6.3027736114817543e+00 1.2542361124330405e+01 -2.9562628677656133e+00 0 0 0
48 1 9.5635170201890598e-07 3.7816641668890512e+00 1.2542361124330405e+01 -2.9562628677656133e+00 0 0 0
49 1 -1.9001703496917872e-06 3.7816641668890525e+00 1.1022074928053266e+01 -3.2250140373938452e+00 0 0 0
50 1 -1.2706469609337615e-06 1.2605547222963507e+00 1.1022074928053266e+01 -3.2250140373938452e+00 0 0 0
51 1 1.1975436054634031e-06 3.7816641668890529e+00 1.0261931829294348e+01 -1.8812581887655688e+00 0 0 0
52 1 -1.8753089477056528e-06 1.2605547222963498e+00 1.0261931829294348e+01 -1.8812581887655688e+00 0 0 0
53 1 -2.0167999438368459e-06 2.5211094445927014e+00 8.3615740827627594e+00 -2.9562628677656133e+00 0 0 0
54 1 6.9740295774707048e-07 1.2605547222963511e+00 8.7416456324625660e+00 -2.1500093586007796e+00 0 0 0
55 1 1.2205537935656444e-06 5.5350662370951243e-25 6.8412878864856204e+00 -3.2250140373938452e+00 0 0 0
56 1 5.5171518198926318e-07 0.0000000000000000e+00 8.3615740827627612e+00 -2.9562628677656138e+00 0 0 0
57 1 3.6835417360484959e-07 1.2605547222963516e+00 7.9815025338701604e+00 -8.0625350937816131e-01 0 0 0
62 1 1.0920807033186257e-06 6.3027736114817561e+00 1.1022074928053268e+01 -3.2250140373938452e+00 0 0 0
64 1 -1.0076486210339770e-06 6.3027736114817534e+00 1.0261931829294349e+01 -1.8812581887655679e+00 0 0 0
65 1 -1.5981019556947148e-06 7.5633283337781041e+00 8.3615740827627612e+00 -2.9562628677656133e+00 0 0 0
66 1 -7.7013562393563756e-07 6.3027736114817543e+00 8.7416456324625660e+00 -2.1500093586007796e+00 0 0 0
67 1 7.5527405512527470e-07 3.7816641668890525e+00 8.7416456324625660e+00 -2.1500093586007791e+00 0 0 0
68 1 -3.1714576302395366e-06 5.0422188891854036e+00 6.8412878864856213e+00 -3.2250140373938452e+00 0 0 0
69 1 -1.6128529172629070e-06 5.0422188891854036e+00 8.3615740827627594e+00 -2.9562628677656138e+00 0 0 0
70 1 -2.1642137180544790e-06 6.3027736114817543e+00 7.9815025338701604e+00 -8.0625350937816131e-01 0 0 0
71 1 -6.1608315943914404e-07 3.7816641668890520e+00 7.9815025338701586e+00 -8.0625350937816131e-01 0 0 0
73 1 -5.0071370234788731e-07 2.5211094445927018e+00 6.8412878864856204e+00 -3.2250140373938452e+00 0 0 0
74 1 3.8098921724381885e-06 3.7816641668890529e+00 6.4612163370005335e+00 -1.0750046791936001e+00 0 0 0
75 1 -1.8435026962926025e-06 1.2605547222963507e+00 6.4612163370005335e+00 -1.0750046791936001e+00 0 0 0
101 1 4.0616629194769069e-06 7.5633283337781050e+00 6.8412878864856204e+00 -3.2250140373938452e+00 0 0 0
103 1 -1.5747894788782369e-06 6.3027736114817543e+00 6.4612163370005335e+00 -1.0750046791935997e+00 0 0 0
241 1 5.8090956101180249e-08 0.0000000000000000e+00 1.2162289575437805e+01 -8.0625350937816131e-01 0 0 0
263 1 -4.7176401824955700e-06 5.0422188891854027e+00 1.2162289575437805e+01 -8.0625350937816131e-01 0 0 0
265 1 2.7446825290917991e-06 3.7768521918453408e+00 1.2554197466983528e+01 1.4228687372387911e-02 0 0 0
266 1 -5.6524717015997976e-07 1.2573655617757973e+00 1.2545196441710187e+01 6.7541678314313215e-03 0 0 0
267 1 4.0944339880794163e-06 2.5211094445927018e+00 1.0642003378568178e+01 -1.0750046791935992e+00 0 0 0
268 1 -2.5045846535829072e-06 2.5211094445927014e+00 1.2162289575437805e+01 -8.0625350937816131e-01 0 0 0
269 1 -5.1022956378292715e-07 3.7209190565193602e+00 1.1750885403617271e+01 1.3510612350896736e+00 0 0 0
270 1 -3.3009602696563663e-06 1.2188843484181273e+00 1.1775443494215068e+01 1.3993372167314053e+00 0 0 0
271 1 -2.7704761367685509e-06 2.5133836576225912e+00 9.8498336489340552e+00 2.8005326633071304e-01 0 0 0
272 1 2.9139903992141409e-06 0.0000000000000000e+00 1.0642003378568178e+01 -1.0750046791936001e+00 0 0 0
273 1 4.2052946755542743e-06 1.2525910754308183e+00 1.0304851153490327e+01 1.0878119285153063e+00 0 0 0
274 1 1.9061052143402342e-06 2.2650763916127055e+01 8.3358982567615438e+00 3.4496151662226091e-03 -1 0 0
275 1 -9.9184078364387739e-07 2.2666985417378214e+01 9.9074779134473019e+00 2.9173946348692065e-01 -1 0 0
276 1 -4.4555468909392914e-06 1.2577096947137856e+00 9.5259785241304584e+00 2.4605892200417592e+00 0 0 0
277 1 -3.8531792001824777e-06 2.2679563797750593e+01 7.6002844642442424e+00 1.3225200342783883e+00 -1 0 0
304 1 -6.3196901047431040e-06 7.5633283337781050e+00 1.2162289575437805e+01 -8.0625350937816131e-01 0 0 0
306 1 2.0790883970202177e-06 6.2689232396862682e+00 1.1797921937157843e+01 1.3701765114258722e+00 0 0 0
307 1 -1.4662825679657144e-06 7.5177477867924987e+00 9.8856210717558586e+00 2.7815100084183630e-01 0 0 0
308 1 4.7019607273420891e-06 5.0422188891854027e+00 1.0642003378568178e+01 -1.0750046791936001e+00 0 0 0
309 1 3.4703282944307184e-06 6.2642105785228823e+00 1.0244032409213732e+01 1.1459314286872122e+00 0 0 0
310 1 -2.3631363019960101e-06 3.7898442651285911e+00 1.0222230971302720e+01 1.0566684016345920e+00 0 0 0
311 1 9.9819160142011432e-07 5.0062193091238925e+00 8.3212286588394786e+00 2.0254794399422613e-02 0 0 0
312 1 -3.8099698400658240e-06 5.0704576636926104e+00 9.8773657856917740e+00 3.1251819110598555e-01 0 0 0
313 1 -8.0600433927400262e-06 6.2990570928606680e+00 9.5487143702908082e+00 2.4357149908380240e+00 0 0 0
314 1 -2.0078547428307147e-06 3.7562595213612178e+00 9.5372344473614277e+00 2.4457310275224398e+00 0 0 0
315 1 -1.1364573132617096e-06 5.0201488472917033e+00 7.5649869401726768e+00 1.3386421179278085e+00 0 0 0
316 1 1.3715594935859084e-06 2.5128947834372108e+00 8.3459789512559635e+00 -4.8799848927701561e-02 0 0 0
317 1 3.3697962575920639e-06 3.7200514019725168e+00 8.0095798001815304e+00 2.1611834728371919e+00 0 0 0
318 1 2.7636942889646722e-06 1.2450282506996477e+00 8.0516091620940298e+00 2.1251053061865948e+00 0 0 0
320 1 -1.8818178782309981e-06 2.5241261436134561e+00 7.6510219743226138e+00 1.3185646908282678e+00 0 0 0
367 1 5.2812668113648676e-06 7.5732849965458939e+00 8.3702096993070860e+00 -2.6294993175252076e-02 0 0 0
369 1 -7.4157091068399537e-07 6.2906266848485854e+00 7.9836976388723766e+00 2.1636187770251061e+00 0 0 0
617 1 8.7427916535587746e-07 2.5334015389325573e+00 1.2148369870972598e+01 2.1629043649818125e+00 0 0 0
622 1 3.5676576972024560e-06 2.2621098446549482e+01 1.2132306777923040e+01 2.1941922619846408e+00 -1 0 0
624 1 1.6196712839981274e-06 2.2630309530330091e+01 9.8561242785135104e+00 3.1976083135281090e+00 -1 0 0
672 1 -1.4544812962053544e-06 5.0156343406331345e+00 1.2214981712637693e+01 2.2264577551297204e+00 0 0 0
675 1 5.0781263504788030e-06 5.0062025991907939e+00 9.8864561087000595e+00 3.2767137686789112e+00 0 0 0
680 1 2.2861259026838173e-07 2.4679833450102366e+00 9.9011807209693519e+00 3.2844611294994808e+00 0 0 0
736 1 3.4934827211907463e-06 7.6020958008113215e+00 9.8995458177130260e+00 3.2738200278010159e+00 0 0 0
302 1 4.1900738362848402e-07 6.2551345817338717e+00 1.2586833122411948e+01 -5.5017538922962819e-03 0 0 0
59 1 -1.4840241919915913e-06 1.1344992500667157e+01 1.2542361124330405e+01 -2.9562628677656142e+00 0 0 0
60 1 5.4652623069115426e-07 8.8238830560744574e+00 1.2542361124330405e+01 -2.9562628677656133e+00 0 0 0
61 1 -2.6200161833316221e-06 8.8238830560744557e+00 1.1022074928053266e+01 -3.2250140373938452e+00 0 0 0
63 1 -6.3541555877028677e-07 8.8238830560744557e+00 1.0261931829294348e+01 -1.8812581887655688e+00 0 0 0
89 1 -1.2560411079089916e-06 1.3866101945259860e+01 1.1022074928053266e+01 -3.2250140373938452e+00 0 0 0
90 1 2.7058634057229400e-06 1.1344992500667157e+01 1.1022074928053266e+01 -3.2250140373938452e+00 0 0 0
91 1 2.3300353152014168e-07 1.3866101945259858e+01 1.0261931829294349e+01 -1.8812581887655688e+00 0 0 0
92 1 -1.8918263252801588e-06 1.1344992500667159e+01 1.0261931829294349e+01 -1.8812581887655679e+00 0 0 0
93 1 -2.2723771712908901e-06 1.2605547222963509e+01 8.3615740827627612e+00 -2.9562628677656133e+00 0 0 0
94 1 1.8731313842583595e-06 1.1344992500667159e+01 8.7416456324625660e+00 -2.1500093586007796e+00 0 0 0
95 1 3.3987422911062755e-06 8.8238830560744574e+00 8.7416456324625678e+00 -2.1500093586007796e+00 0 0 0
96 1 -2.9650352286601181e-06 1.0084437778370809e+01 6.8412878864856213e+00 -3.2250140373938452e+00 0 0 0
97 1 8.0364842284370362e-08 1.0084437778370807e+01 8.3615740827627594e+00 -2.9562628677656138e+00 0 0 0
98 1 -1.2181243329561272e-06 1.1344992500667157e+01 7.9815025338701604e+00 -8.0625350937816131e-01 0 0 0
99 1 -5.3559133916960720e-06 8.8238830560744557e+00 7.9815025338701604e+00 -8.0625350937816131e-01 0 0 0
102 1 3.8861153047257086e-06 8.8238830560744557e+00 6.4612163370005335e+00 -1.0750046791935997e+00 0 0 0
133 1 1.3806645424624621e-06 1.3866101945259858e+01 8.7416456324625660e+00 -2.1500093586007791e+00 0 0 0
134 1 -2.9771305469390697e-06 1.5126656667556210e+01 6.8412878864856213e+00 -3.2250140373938452e+00 0 0 0
135 1 1.3866367379279214e-06 1.5126656667556210e+01 8.3615740827627612e+00 -2.9562628677656142e+00 0 0 0
137 1 -5.7278929646122152e-06 1.3866101945259860e+01 7.9815025338701604e+00 -8.0625350937816131e-01 0 0 0
139 1 3.4218332541291646e-06 1.2605547222963509e+01 6.8412878864856204e+00 -3.2250140373938452e+00 0 0 0
140 1 4.3727129953678083e-06 1.3866101945259860e+01 6.4612163370005335e+00 -1.0750046791936001e+00 0 0 0
141 1 1.6836369148910085e-06 1.1344992500667159e+01 6.4612163370005344e+00 -1.0750046791936001e+00 0 0 0
299 1 -1.2411481336601373e-06 1.0084437778370807e+01 1.2162289575437805e+01 -8.0625350937816131e-01 0 0 0
301 1 9.3097528428113604e-07 8.8306484629267477e+00 1.2535359249063378e+01 -1.2458117632453610e-02 0 0 0
303 1 5.9541408776215210e-07 7.5633283337781068e+00 1.0642003378568180e+01 -1.0750046791936001e+00 0 0 0
305 1 -1.4033972315633061e-06 8.7928450135484901e+00 1.1762053029358020e+01 1.4041796924476653e+00 0 0 0
350 1 -3.6207804062658879e-06 1.5126656667556210e+01 1.2162289575437805e+01 -8.0625350937816131e-01 0 0 0
352 1 6.0353423025557440e-07 1.3873164999265311e+01 1.2559154945710061e+01 -2.0399864879697489e-02 0 0 0
353 1 1.1471238966174657e-06 1.1324072260126460e+01 1.2531289267244036e+01 -2.0564484515106785e-02 0 0 0
354 1 -1.4081422939870467e-07 1.2605547222963509e+01 1.0642003378568178e+01 -1.0750046791936001e+00 0 0 0
355 1 -2.7822679380442075e-06 1.2605547222963509e+01 1.2162289575437805e+01 -8.0625350937816131e-01 0 0 0
356 1 -3.7827916916318286e-06 1.3876766572677385e+01 1.1753138166293629e+01 1.3162467028911708e+00 0 0 0
357 1 6.3719229827948805e-08 1.1357455262351580e+01 1.1806032595123295e+01 1.4171780935432283e+00 0 0 0
358 1 2.2783950182012838e-06 1.2543181391584261e+01 9.8532638569438848e+00 2.8320887974743364e-01 0 0 0
359 1 2.7675368669646632e-06 1.0084437778370807e+01 1.0642003378568178e+01 -1.0750046791936001e+00 0 0 0
360 1 -6.1931988706884806e-08 1.1333344802554141e+01 1.0256526372247993e+01 1.1477531639612759e+00 0 0 0
361 1 3.7305908236692739e-06 8.8215420566714062e+00 1.0222449796857184e+01 1.0953224281419236e+00 0 0 0
362 1 1.5753707087406543e-06 1.0052759689581313e+01 8.3283832391236583e+00 3.9042076517155452e-02 0 0 0
363 1 -5.8239950568396014e-06 1.0075450113942864e+01 9.8815828496468523e+00 2.7191619449605864e-01 0 0 0
364 1 -5.7249239469941042e-07 1.1316696823375519e+01 9.4858114250519989e+00 2.4938463512068250e+00 0 0 0
365 1 8.1381742075119226e-07 8.7784154861653843e+00 9.5468721801580116e+00 2.4748888746980966e+00 0 0 0
366 1 -1.2266520267464438e-06 1.0068687257090000e+01 7.5959110257898903e+00 1.4181484146540335e+00 0 0 0
368 1 1.2830061592767299e-06 8.7930413065319328e+00 7.9995254729916878e+00 2.2513252090182716e+00 0 0 0
371 1 -4.7184134560638249e-06 7.5004822284715100e+00 7.6265100776814521e+00 1.3839185154277232e+00 0 0 0
413 1 2.0518859010068493e-06 1.5126656667556210e+01 1.0642003378568178e+01 -1.0750046791935992e+00 0 0 0
415 1 1.8784057044482507e-06 1.3846880182421183e+01 1.0228922205645173e+01 1.1183215927655308e+00 0 0 0
416 1 2.7000718586866417e-06 1.5080460830743460e+01 8.3516792228303594e+00 -1.7437102346378939e-02 0 0 0
417 1 -2.4025149007976904e-06 1.5096656947314674e+01 9.8654251561292821e+00 2.9233995962653631e-01 0 0 0
419 1 -3.1092999735361314e-06 1.3759226905692318e+01 9.5255663134068218e+00 2.4373803228487461e+00 0 0 0
421 1 1.7228591907124320e-06 1.2569350994848392e+01 8.3641239661177309e+00 7.2152919172658531e-03 0 0 0
422 1 4.9988912116131552e-07 1.3821825485762961e+01 7.9366658064156121e+00 2.1565705746805155e+00 0 0 0
423 1 5.2350419493199238e-06 1.1321409353697176e+01 8.0038825758687118e+00 2.2129178820232878e+00 0 0 0
425 1 -2.9914124351188178e-07 1.2558186900399019e+01 7.5923245994901416e+00 1.3845116019136297e+00 0 0 0
667 1 4.1567038754036190e-06 7.5350287778793970e+00 1.2154862802860785e+01 2.1760956563761926e+00 0 0 0
723 1 5.4221318564585630e-06 1.2598879070654393e+01 1.2162424655471561e+01 2.1268255664392637e+00 0 0 0
728 1 3.1583886232689919e-06 1.0076651480329387e+01 1.2160224642121413e+01 2.2137768122832773e+00 0 0 0
731 1 4.6368286953889285e-06 1.0077016104966900e+01 9.9273929956240163e+00 3.2827529073724504e+00 0 0 0
784 1 1.6801017980130705e-06 1.5050166717726924e+01 1.2138200642738990e+01 2.1510170687275325e+00 0 0 0
787 1 2.5225169714477673e-06 1.5084351528446406e+01 9.8916257762102529e+00 3.2711825853171876e+00 0 0 0
792 1 7.4572780527811096e-07 1.2532152435004468e+01 9.9342750878431207e+00 3.3243183825707168e+00 0 0 0
88 1 2.0259916560474512e-06 1.3866101945259860e+01 1.2542361124330407e+01 -2.9562628677656133e+00 0 0 0
87 1 -7.4217986280031164e-07 1.6387211389852560e+01 1.2542361124330405e+01 -2.9562628677656133e+00 0 0 0
125 1 1.1855324136391633e-07 2.1429430279037966e+01 1.2542361124330405e+01 -2.9562628677656133e+00 0 0 0
126 1 -1.1938795350094672e-07 1.8908320834445263e+01 1.2542361124330405e+01 -2.9562628677656142e+00 0 0 0
127 1 -1.0379356206343670e-06 1.8908320834445263e+01 1.1022074928053266e+01 -3.2250140373938452e+00 0 0 0
128 1 -2.2788011162566009e-06 1.6387211389852563e+01 1.1022074928053268e+01 -3.2250140373938452e+00 0 0 0
129 1 2.2230606234327161e-07 1.8908320834445263e+01 1.0261931829294348e+01 -1.8812581887655679e+00 0 0 0
130 1 -1.5684432375526762e-06 1.6387211389852560e+01 1.0261931829294349e+01 -1.8812581887655688e+00 0 0 0
131 1 2.3657553675472946e-07 1.7647766112148915e+01 8.3615740827627612e+00 -2.9562628677656133e+00 0 0 0
132 1 3.1113067263682237e-06 1.6387211389852560e+01 8.7416456324625678e+00 -2.1500093586007791e+00 0 0 0
136 1 -2.5093214501037153e-06 1.6387211389852560e+01 7.9815025338701604e+00 -8.0625350937816131e-01 0 0 0
163 1 -2.7420267791969712e-06 2.1429430279037962e+01 1.1022074928053268e+01 -3.2250140373938452e+00 0 0 0
164 1 1.7786447257549771e-06 2.1429430279037966e+01 1.0261931829294348e+01 -1.8812581887655688e+00 0 0 0
165 1 8.8052090787902285e-07 2.1429430279037966e+01 8.7416456324625660e+00 -2.1500093586007796e+00 0 0 0
166 1 -8.8625450126246693e-07 1.8908320834445263e+01 8.7416456324625678e+00 -2.1500093586007796e+00 0 0 0
167 1 -2.4895539474751450e-06 2.0168875556741614e+01 6.8412878864856213e+00 -3.2250140373938456e+00 0 0 0
168 1 -3.8304357189816759e-07 2.0168875556741611e+01 8.3615740827627594e+00 -2.9562628677656133e+00 0 0 0
169 1 -4.1540648261808067e-06 2.1429430279037966e+01 7.9815025338701586e+00 -8.0625350937816087e-01 0 0 0
170 1 -2.4603282316873241e-07 1.8908320834445263e+01 7.9815025338701604e+00 -8.0625350937816131e-01 0 0 0
172 1 -1.4625060523986941e-06 1.7647766112148911e+01 6.8412878864856213e+00 -3.2250140373938447e+00 0 0 0
173 1 3.7598503431250256e-06 1.8908320834445263e+01 6.4612163370005335e+00 -1.0750046791935997e+00 0 0 0
174 1 3.3879058436425697e-06 1.6387211389852560e+01 6.4612163370005335e+00 -1.0750046791935997e+00 0 0 0
196 1 1.2697942786087948e-07 2.1429430279037966e+01 6.4612163370005344e+00 -1.0750046791936001e+00 0 0 0
404 1 -3.7067244176619342e-06 2.0168875556741614e+01 1.2162289575437805e+01 -8.0625350937816131e-01 0 0 0
406 1 -8.6793394789685425e-07 1.8883830455019730e+01 1.2541658507043500e+01 1.2697819878937040e-02 0 0 0
408 1 1.8698106773662163e-06 1.7647766112148911e+01 1.0642003378568180e+01 -1.0750046791936001e+00 0 0 0
409 1 6.7945543584667387e-09 1.7647766112148911e+01 1.2162289575437805e+01 -8.0625350937816131e-01 0 0 0
410 1 -3.0138406791573102e-07 1.8836811750893165e+01 1.1829211592273706e+01 1.3495135174769919e+00 0 0 0
411 1 1.7584123963111072e-06 1.6326309309461088e+01 1.1758009768524905e+01 1.3868440395157540e+00 0 0 0
412 1 -4.4754952028062296e-06 1.7632844841093952e+01 9.9000759301287058e+00 2.8251800446007991e-01 0 0 0
414 1 9.2397460978356707e-07 1.6350097887361301e+01 1.0246750080692992e+01 1.0950526778378769e+00 0 0 0
418 1 -1.1308077407376560e-06 1.6318634571136595e+01 9.4885763033418904e+00 2.4423290814854899e+00 0 0 0
420 1 -3.5223417906660693e-06 1.5088426222958166e+01 7.6193367372743053e+00 1.3585181659789554e+00 0 0 0
452 1 -2.8483338218821095e-06 2.1356787842119825e+01 1.1740482606753769e+01 1.3451418045041252e+00 0 0 0
453 1 7.2386664935567486e-07 2.0168875556741614e+01 1.0642003378568178e+01 -1.0750046791935992e+00 0 0 0
454 1 7.1663895121173600e-07 2.1401010324557724e+01 1.0256188673685688e+01 1.0695237770659543e+00 0 0 0
455 1 2.5687784932506990e-06 1.8868306599441301e+01 1.0283002944086963e+01 1.0751126604712782e+00 0 0 0
456 1 1.6626986018515176e-07 2.0137542179632828e+01 8.3400814514804953e+00 -3.2302419120963641e-02 0 0 0
457 1 1.3512926895332923e-06 2.0174637437773061e+01 9.8962616951023055e+00 2.7298201897338514e-01 0 0 0
458 1 -2.5512660345760568e-06 2.1398063682635708e+01 9.4673048261563189e+00 2.4490495533743881e+00 0 0 0
459 1 -2.3404218491183460e-07 1.8912950414317606e+01 9.5015851051191866e+00 2.4165433560587473e+00 0 0 0
460 1 -1.2530648196868182e-06 2.0119994516963050e+01 7.5686421474908965e+00 1.2830207468205999e+00 0 0 0
461 1 -2.1347920540155639e-06 1.7637304924639778e+01 8.3270368706454452e+00 6.1484297576164207e-02 0 0 0
462 1 3.8096185630364800e-06 1.8893084953996269e+01 8.0018777317046315e+00 2.1418810197459734e+00 0 0 0
463 1 9.0310454509593774e-06 1.6324773517220674e+01 7.9449018951263639e+00 2.2003480168570175e+00 0 0 0
465 1 -2.1349462830673848e-06 1.7642719012808918e+01 7.5990369173513681e+00 1.4173192991226100e+00 0 0 0
491 1 1.4219472495100376e-06 2.1386340250554518e+01 7.9848303030498746e+00 2.1227365375874947e+00 0 0 0
779 1 4.8801957487783679e-06 1.7586477541473457e+01 1.2139021357788485e+01 2.1938287802152283e+00 0 0 0
830 1 2.3838120669505449e-06 2.0092949354313518e+01 1.2163528067461151e+01 2.1755725677568734e+00 0 0 0
833 1 3.9648486126078252e-06 2.0109219310349602e+01 9.8976295509228738e+00 3.2911717807023035e+00 0 0 0
838 1 6.5457614868593652e-07 1.7630205302391420e+01 9.8709357299683411e+00 3.2840737823095054e+00 0 0 0
407 1 1.9965418017743976e-07 1.6386971050334832e+01 1.2548034806242001e+01 4.0240049999762148e-02 0 0 0
451 1 -2.0056995864720672e-06 2.1414662298074937e+01 1.2533153385087738e+01 2.1922591577547449e-02 0 0 0
220 1 -3.0308516167719277e-06 1.2605547222963516e+00 1.8623505912429639e+01 -1.8812581887655679e+00 0 0 0
221 1 -3.8097504296964973e-07 0.0000000000000000e+00 1.6723148165898049e+01 -2.9562628677656133e+00 0 0 0
226 1 -1.1268162222643623e-06 6.3027736114817543e+00 1.8623505912429639e+01 -1.8812581887655688e+00 0 0 0
227 1 -5.7247024139170559e-07 3.7816641668890529e+00 1.8623505912429639e+01 -1.8812581887655679e+00 0 0 0
228 1 -5.0049907761978730e-07 5.0422188891854045e+00 1.6723148165898046e+01 -2.9562628677656133e+00 0 0 0
229 1 6.3583960998448022e-06 3.7816641668890529e+00 1.7103219715597856e+01 -2.1500093586007800e+00 0 0 0
230 1 8.8355950528583768e-07 1.2605547222963525e+00 1.7103219715597856e+01 -2.1500093586007800e+00 0 0 0
231 1 1.6576779093412050e-06 2.5211094445927031e+00 1.5202861969620912e+01 -3.2250140373938452e+00 0 0 0
232 1 -1.9879856770860314e-07 2.5211094445927014e+00 1.6723148165898046e+01 -2.9562628677656142e+00 0 0 0
233 1 -1.4859388389838310e-06 3.7816641668890529e+00 1.6343076617005448e+01 -8.0625350937816131e-01 0 0 0
234 1 1.2902268482762629e-06 1.2605547222963498e+00 1.6343076617005448e+01 -8.0625350937816131e-01 0 0 0
235 1 -6.0462013941034882e-07 2.5211094445927014e+00 1.4442718870861993e+01 -1.8812581887655679e+00 0 0 0
236 1 1.3787868260857063e-06 0.0000000000000000e+00 1.5202861969620910e+01 -3.2250140373938452e+00 0 0 0
237 1 1.7088359270818789e-06 1.2605547222963507e+00 1.4822790420135822e+01 -1.0750046791935992e+00 0 0 0
238 1 1.7057327336702801e-06 0.0000000000000000e+00 1.2922432674030212e+01 -2.1500093586007791e+00 0 0 0
239 1 -7.0046687686791191e-07 0.0000000000000000e+00 1.4442718870861993e+01 -1.8812581887655688e+00 0 0 0
240 1 -1.2516660341215800e-06 1.2736538720228359e+00 1.4065322010793643e+01 2.4967180758575280e-01 0 0 0
250 1 2.8498867975290317e-06 6.3027736114817534e+00 1.7103219715597856e+01 -2.1500093586007800e+00 0 0 0
251 1 1.4919910625293131e-06 7.5633283337781041e+00 1.5202861969620910e+01 -3.2250140373938452e+00 0 0 0
252 1 -2.3146426287841432e-06 7.5633283337781041e+00 1.6723148165898049e+01 -2.9562628677656142e+00 0 0 0
254 1 -4.0631336785076113e-06 6.3027736114817543e+00 1.6343076617005448e+01 -8.0625350937816131e-01 0 0 0
256 1 -3.2578022432545573e-06 5.0422188891854036e+00 1.5202861969620910e+01 -3.2250140373938452e+00 0 0 0
257 1 4.5803366514333660e-07 6.3027736114817543e+00 1.4822790420135822e+01 -1.0750046791936001e+00 0 0 0
258 1 1.7311114321143300e-06 3.7816641668890538e+00 1.4822790420135822e+01 -1.0750046791936001e+00 0 0 0
259 1 2.5657228854241142e-06 5.0422188891854045e+00 1.2922432674030212e+01 -2.1500093586007800e+00 0 0 0
260 1 1.4135771235498167e-06 5.0422188891854027e+00 1.4442718870861993e+01 -1.8812581887655688e+00 0 0 0
261 1 -1.8468033481767647e-06 6.2683065979291266e+00 1.4090278987974163e+01 3.2305907823919994e-01 0 0 0
262 1 -6.7991982638443029e-08 3.8054329370967723e+00 1.4162160485514326e+01 2.7589316912835476e-01 0 0 0
264 1 -1.0463746745327944e-06 2.5211094445927014e+00 1.2922432674030212e+01 -2.1500093586007800e+00 0 0 0
543 1 -1.0550434568866336e-06 1.0277917942594170e-03 1.8254793888200417e+01 3.0249642745202027e-01 0 0 0
563 1 -5.7785879068424530e-06 5.0445921904524180e+00 1.8231015668454557e+01 2.9329781788539749e-01 0 0 0
565 1 4.8483876865978863e-06 3.8251012299712608e+00 1.8625379141718827e+01 1.0855484975293317e+00 0 0 0
566 1 3.3708051930033289e-06 1.3007075194739013e+00 1.8656108371567548e+01 1.0716571659157197e+00 0 0 0
567 1 1.4243654209657872e-06 2.4724408203183170e+00 1.6671271646964929e+01 4.7315176668093741e-02 0 0 0
568 1 -1.6936171466997300e-06 2.5397778025737314e+00 1.8265456677160671e+01 2.3992629080367558e-01 0 0 0
569 1 -6.7822342471645051e-07 3.8243421933281878e+00 1.7859262755361268e+01 2.4428831803286815e+00 0 0 0
570 1 -5.5854740004944502e-06 1.2215450855735881e+00 1.7928845436244238e+01 2.4892565328436098e+00 0 0 0
571 1 -4.0059295785749283e-06 2.5215337999744794e+00 1.5973813148359811e+01 1.4120401583549409e+00 0 0 0
572 1 6.1287930070165792e-06 2.2664304035831336e+01 1.6726614295341797e+01 -4.1383863041076885e-02 -1 0 0
573 1 1.5736523511641149e-06 1.2127985127676026e+00 1.6373152204279997e+01 2.1893187749180152e+00 0 0 0
574 1 7.2479084269654900e-06 2.2678830560181876e+01 1.4383283038350971e+01 1.0854540167591011e+00 -1 0 0
575 1 -2.3243270047449791e-06 4.8289870312465587e-02 1.5980726059740432e+01 1.3294191199996368e+00 0 0 0
577 1 -2.8794262049519491e-06 2.2689673068983684e+01 1.3655330855613714e+01 2.3962562094941768e+00 -1 0 0
600 1 7.1137783221506129e-06 6.2925406749242816e+00 1.8626923006817851e+01 1.0654850479882458e+00 0 0 0
601 1 4.8317345501691093e-06 7.5825490773126170e+00 1.6718273665835284e+01 -1.0004244899289328e-02 0 0 0
602 1 -1.3467348458226143e-06 7.5776685692916823e+00 1.8249732915035267e+01 2.6282000421881707e-01 0 0 0
604 1 -1.9460415852849098e-06 6.2809132571225863e+00 1.7829376171306535e+01 2.4371607678640808e+00 0 0 0
606 1 2.5434069590942828e-06 5.0041189816795093e+00 1.6724141281433837e+01 -3.8428709240299107e-03 0 0 0
607 1 3.4630939131720948e-06 6.3224086382464222e+00 1.6357741546914141e+01 2.1645616327312367e+00 0 0 0
608 1 2.4718098854890997e-06 3.7678976255333150e+00 1.6365746460593723e+01 2.1980732212437317e+00 0 0 0
609 1 5.3057243045771809e-06 5.0175612658040905e+00 1.4499286898060101e+01 1.1079609200157123e+00 0 0 0
610 1 -4.5934102192598967e-06 5.0570917241498607e+00 1.5942139483898357e+01 1.4035624435741201e+00 0 0 0
613 1 -3.5693803570576012e-07 4.9502609553697807e+00 1.3699051324135278e+01 2.4048780013875350e+00 0 0 0
614 1 3.3165070567485468e-06 2.5270340505185462e+00 1.4468356734932213e+01 1.0504748066409728e+00 0 0 0
615 1 5.0074052092657772e-06 3.7102417356605852e+00 1.4073992759835443e+01 3.2550424855402338e+00 0 0 0
616 1 -1.4728581709807568e-06 1.2678324965342027e+00 1.4076334777377220e+01 3.2296828244107854e+00 0 0 0
618 1 -4.6319319422220240e-06 2.5072254162914791e+00 1.3717616007048338e+01 2.4209507677177236e+00 0 0 0
666 1 1.5953576896706993e-06 6.3097101371482180e+00 1.4069346120174849e+01 3.2730153211829065e+00 0 0 0
668 1 -6.1931907716428039e-06 7.5171374499102734e+00 1.3639850102492302e+01 2.4095026408551088e+00 0 0 0
953 1 -2.7833743162843717e-06 2.5068823515627270e+00 1.8295011735664353e+01 3.1901925056287368e+00 0 0 0
958 1 3.1393636758921663e-06 2.2662620250580655e+01 1.8251048186176202e+01 3.3267552658365203e+00 -1 0 0
983 1 3.0171674661598537e-07 7.5108934556891809e+00 1.8226361730179363e+01 3.2608680441802829e+00 0 0 0
988 1 2.8146559465422175e-06 5.0322967966174419e+00 1.8163263446378778e+01 3.2611111068980301e+00 0 0 0
246 1 2.1272453007528756e-06 1.1344992500667157e+01 1.8623505912429639e+01 -1.8812581887655679e+00 0 0 0
247 1 -1.0110992653128772e-06 8.8238830560744557e+00 1.8623505912429639e+01 -1.8812581887655688e+00 0 0 0
248 1 7.2600859168517718e-07 1.0084437778370807e+01 1.6723148165898049e+01 -2.9562628677656133e+00 0 0 0
249 1 1.1966463864091557e-07 8.8238830560744557e+00 1.7103219715597856e+01 -2.1500093586007791e+00 0 0 0
253 1 -2.4014858075946583e-06 8.8238830560744557e+00 1.6343076617005448e+01 -8.0625350937816131e-01 0 0 0
255 1 1.0646063014860275e-06 7.5633283337781059e+00 1.4442718870861993e+01 -1.8812581887655679e+00 0 0 0
283 1 -7.9035691992290781e-07 1.3866101945259860e+01 1.8623505912429639e+01 -1.8812581887655688e+00 0 0 0
284 1 3.4401379372306360e-07 1.5126656667556210e+01 1.6723148165898046e+01 -2.9562628677656142e+00 0 0 0
285 1 -1.4109071985003847e-06 1.3866101945259858e+01 1.7103219715597856e+01 -2.1500093586007791e+00 0 0 0
286 1 2.0929274788492359e-06 1.1344992500667159e+01 1.7103219715597856e+01 -2.1500093586007800e+00 0 0 0
287 1 1.2096336316967265e-06 1.2605547222963509e+01 1.5202861969620912e+01 -3.2250140373938452e+00 0 0 0
288 1 -9.5000709263810815e-07 1.2605547222963509e+01 1.6723148165898046e+01 -2.9562628677656133e+00 0 0 0
289 1 -2.2506411430164019e-06 1.3866101945259858e+01 1.6343076617005448e+01 -8.0625350937816131e-01 0 0 0
290 1 -5.2286727268873369e-07 1.1344992500667159e+01 1.6343076617005448e+01 -8.0625350937816131e-01 0 0 0
291 1 -1.7793430255052761e-06 1.2605547222963509e+01 1.4442718870861993e+01 -1.8812581887655688e+00 0 0 0
292 1 -1.2925465778368361e-06 1.0084437778370807e+01 1.5202861969620912e+01 -3.2250140373938452e+00 0 0 0
293 1 3.6012728503164538e-06 1.1344992500667157e+01 1.4822790420135822e+01 -1.0750046791935992e+00 0 0 0
294 1 1.1169626794469578e-06 8.8238830560744557e+00 1.4822790420135822e+01 -1.0750046791936001e+00 0 0 0
295 1 2.4579276839972084e-06 1.0084437778370805e+01 1.2922432674030212e+01 -2.1500093586007791e+00 0 0 0
296 1 -2.4571851026902822e-06 1.0084437778370807e+01 1.4442718870861993e+01 -1.8812581887655688e+00 0 0 0
297 1 -2.4230141924296026e-06 1.1392915710539226e+01 1.4049820307773450e+01 2.2190046631829818e-01 0 0 0
298 1 -3.7168493104983460e-06 8.8182271608613494e+00 1.4061051593477393e+01 2.9326840339988358e-01 0 0 0
300 1 3.8202888344796066e-06 7.5633283337781059e+00 1.2922432674030212e+01 -2.1500093586007800e+00 0 0 0
343 1 2.0603483573368463e-06 1.5126656667556210e+01 1.5202861969620910e+01 -3.2250140373938452e+00 0 0 0
345 1 1.8857398701336889e-07 1.3866101945259860e+01 1.4822790420135822e+01 -1.0750046791936001e+00 0 0 0
347 1 -3.9528751863946121e-07 1.5126656667556210e+01 1.4442718870861993e+01 -1.8812581887655679e+00 0 0 0
349 1 -1.4260570462343760e-06 1.3865387283332836e+01 1.4044993523732943e+01 2.9164923510778445e-01 0 0 0
351 1 -6.9446972958361308e-07 1.2605547222963509e+01 1.2922432674030212e+01 -2.1500093586007791e+00 0 0 0
597 1 2.1491080311282542e-06 1.0136098896022283e+01 1.8248270220221414e+01 2.7785347166322649e-01 0 0 0
599 1 -1.4489205220343105e-06 8.8137331754485935e+00 1.8618140234374156e+01 1.0781773519340758e+00 0 0 0
603 1 -2.4168873551990439e-06 8.8329514889824630e+00 1.7862672379624001e+01 2.4977493407205702e+00 0 0 0
605 1 -1.9558065883045140e-06 7.5173327366392808e+00 1.5967916964105120e+01 1.3665444919146721e+00 0 0 0
647 1 -4.4430255043135155e-06 1.5163650106269946e+01 1.8196528073891340e+01 2.5682382179929075e-01 0 0 0
649 1 5.2285278713361492e-06 1.3886740820676289e+01 1.8610891551845352e+01 1.1016368590159238e+00 0 0 0
650 1 1.2398602161962305e-06 1.1327002259930506e+01 1.8636785496045746e+01 1.1210887296681755e+00 0 0 0
651 1 1.3858260028677457e-06 1.2614531683385135e+01 1.6730974501476037e+01 4.3903481016421664e-02 0 0 0
652 1 -1.0100161618557336e-06 1.2626824819453017e+01 1.8286880190497111e+01 2.7986724583837125e-01 0 0 0
653 1 -8.4106735158922081e-06 1.3916946385534009e+01 1.7881368183383376e+01 2.4584402092923128e+00 0 0 0
654 1 -4.3610604153479812e-06 1.1321864952889552e+01 1.7923061076900730e+01 2.4879457748013132e+00 0 0 0
655 1 -3.6276619598259009e-06 1.2610367342274552e+01 1.5985989789466833e+01 1.3594064658817675e+00 0 0 0
656 1 7.5498334118568889e-07 1.0104366694033112e+01 1.6691465854766044e+01 3.3235167997769616e-03 0 0 0
657 1 4.3160274627339538e-06 1.1356993580065504e+01 1.6354543825372872e+01 2.1571281677720093e+00 0 0 0
658 1 2.5898208649750451e-06 8.8389462113428294e+00 1.6351134620634355e+01 2.1526354445240496e+00 0 0 0
659 1 4.1940797138994082e-06 1.0068224582071199e+01 1.4442819870478658e+01 1.0560975139505284e+00 0 0 0
660 1 -4.5212026003548637e-06 1.0120204826861386e+01 1.6011435531080579e+01 1.3633811600850960e+00 0 0 0
663 1 -6.3356416930880341e-06 1.0081273760054914e+01 1.3732769085708384e+01 2.4222748525187314e+00 0 0 0
664 1 2.8267084471573552e-06 7.5308253509802761e+00 1.4437038284696071e+01 1.1246447768655572e+00 0 0 0
665 1 4.2531119612863789e-06 8.8667253766182892e+00 1.4086104615434238e+01 3.2502826182933138e+00 0 0 0
712 1 4.8621251951236876e-06 1.5157139252375252e+01 1.6730062076464357e+01 2.3535126083944007e-03 0 0 0
714 1 6.4673162850412314e-06 1.3898594977035314e+01 1.6390182116846805e+01 2.1795069851365727e+00 0 0 0
716 1 -3.5775029330232341e-06 1.5118223283840916e+01 1.5954344601571631e+01 1.3516220304858966e+00 0 0 0
719 1 5.3368802545413464e-07 1.5109532089138757e+01 1.3678720953447808e+01 2.3722912313189242e+00 0 0 0
720 1 4.4438841951057566e-06 1.2617846774581709e+01 1.4433516096563077e+01 1.0801693564427153e+00 0 0 0
721 1 -2.8822180101363119e-07 1.3856450093647094e+01 1.4083817276339690e+01 3.2207305810248057e+00 0 0 0
722 1 8.1957216576924870e-06 1.1323400362272379e+01 1.4109090250900421e+01 3.2892473413173757e+00 0 0 0
724 1 -7.3636290486159493e-06 1.2584251466426672e+01 1.3690319954339069e+01 2.4616298197866748e+00 0 0 0
1029 1 5.8787826584687395e-06 1.2643863292865641e+01 1.8261244295337001e+01 3.3079669538458312e+00 0 0 0
1034 1 3.5459133206478538e-06 1.0040710313630786e+01 1.8210453796084572e+01 3.3192782373062166e+00 0 0 0
1090 1 5.6541353924156791e-06 1.5134601108966214e+01 1.8246119437571814e+01 3.2492134195002342e+00 0 0 0
282 1 5.5252768304079115e-07 1.6387211389852563e+01 1.8623505912429639e+01 -1.8812581887655688e+00 0 0 0
333 1 1.0351657178251243e-06 2.1429430279037962e+01 1.8623505912429639e+01 -1.8812581887655688e+00 0 0 0
334 1 -8.7553056186997613e-07 1.8908320834445259e+01 1.8623505912429639e+01 -1.8812581887655679e+00 0 0 0
335 1 5.3363936909647943e-07 2.0168875556741611e+01 1.6723148165898046e+01 -2.9562628677656133e+00 0 0 0
336 1 6.5563750689992816e-07 1.8908320834445266e+01 1.7103219715597856e+01 -2.1500093586007800e+00 0 0 0
337 1 2.4463206011652416e-06 1.6387211389852560e+01 1.7103219715597856e+01 -2.1500093586007791e+00 0 0 0
338 1 -3.2884571067755911e-07 1.7647766112148911e+01 1.5202861969620912e+01 -3.2250140373938452e+00 0 0 0
339 1 -4.5720688520424509e-07 1.7647766112148911e+01 1.6723148165898049e+01 -2.9562628677656133e+00 0 0 0
340 1 4.2931414682414117e-06 1.8908320834445263e+01 1.6343076617005448e+01 -8.0625350937816131e-01 0 0 0
341 1 -2.3451102193225990e-06 1.6387211389852560e+01 1.6343076617005448e+01 -8.0625350937816131e-01 0 0 0
342 1 -1.8142876086793957e-06 1.7647766112148911e+01 1.4442718870861993e+01 -1.8812581887655688e+00 0 0 0
344 1 4.4129241755875808e-07 1.6387211389852560e+01 1.4822790420135822e+01 -1.0750046791936001e+00 0 0 0
346 1 3.9815307151488894e-06 1.5126656667556212e+01 1.2922432674030212e+01 -2.1500093586007800e+00 0 0 0
348 1 -3.2353075837507548e-06 1.6353202830046836e+01 1.4057266757180253e+01 2.9592287080265250e-01 0 0 0
395 1 1.2327279443789556e-06 2.1429430279037966e+01 1.7103219715597856e+01 -2.1500093586007791e+00 0 0 0
396 1 4.9774259888897247e-07 2.1429430279037962e+01 1.6343076617005448e+01 -8.0625350937816131e-01 0 0 0
397 1 -4.4140773302521428e-07 2.0168875556741618e+01 1.5202861969620912e+01 -3.2250140373938452e+00 0 0 0
398 1 -4.8352486585734964e-06 2.1429430279037966e+01 1.4822790420135826e+01 -1.0750046791936001e+00 0 0 0
399 1 2.4936696417119877e-07 1.8908320834445263e+01 1.4822790420135826e+01 -1.0750046791935992e+00 0 0 0
400 1 2.3645635093961559e-06 2.0168875556741611e+01 1.2922432674030214e+01 -2.1500093586007791e+00 0 0 0
401 1 -2.4327342332881593e-06 2.0168875556741614e+01 1.4442718870861993e+01 -1.8812581887655688e+00 0 0 0
402 1 2.9763917069086489e-06 2.1400544256047333e+01 1.4070360621918910e+01 2.7680867342378884e-01 0 0 0
403 1 -5.3801569032193544e-07 1.8873826785234428e+01 1.4048903231932877e+01 2.6970345733466589e-01 0 0 0
405 1 3.3683407210898427e-07 1.7647766112148911e+01 1.2922432674030212e+01 -2.1500093586007791e+00 0 0 0
703 1 -8.7889007692514608e-07 2.0158851882193293e+01 1.8269088628125118e+01 2.3486454046070293e-01 0 0 0
705 1 5.8420531821573679e-06 1.8920515132740601e+01 1.8606068346670078e+01 1.0806666269423999e+00 0 0 0
706 1 2.3367519340928460e-06 1.6414452953640492e+01 1.8598316088531000e+01 1.0482168265657508e+00 0 0 0
707 1 5.3867762054868776e-08 1.7681594665628804e+01 1.6677249845939116e+01 1.0067675633159915e-02 0 0 0
708 1 -2.4516578492636004e-07 1.7671040917159392e+01 1.8239274772232864e+01 2.6022544373391326e-01 0 0 0
709 1 4.6665572412692775e-07 1.8874202555084995e+01 1.7852742344122628e+01 2.4361589320157040e+00 0 0 0
710 1 -5.5991197026189609e-06 1.6405817723679554e+01 1.7858229170746213e+01 2.4248550905171449e+00 0 0 0
711 1 -2.7483217340270075e-06 1.7690654361812520e+01 1.5924152652963027e+01 1.3679905447863761e+00 0 0 0
713 1 3.1005907549694886e-06 1.6392074281254857e+01 1.6309816887393733e+01 2.1594818021091688e+00 0 0 0
715 1 4.0932838272136422e-06 1.5087127095901032e+01 1.4433735247159968e+01 1.1103648323526651e+00 0 0 0
766 1 9.6385320964388309e-07 2.1441024161986814e+01 1.8597363108519740e+01 1.0635882832604198e+00 0 0 0
767 1 -4.5883195555695158e-06 2.1406657173514539e+01 1.7892728742147412e+01 2.4757407006741374e+00 0 0 0
768 1 -3.7555346251318483e-06 2.0189957196474317e+01 1.6703908784176495e+01 -1.9424015077240016e-02 0 0 0
769 1 -7.2386064092982715e-07 2.1468532837894216e+01 1.6364599308738637e+01 2.1240664774964721e+00 0 0 0
770 1 3.4116072831973336e-06 1.8908745666267958e+01 1.6333926782381415e+01 2.1945117119790791e+00 0 0 0
771 1 1.5414485952097924e-06 2.0145496201869669e+01 1.4442871129273964e+01 1.0774293098493850e+00 0 0 0
772 1 -1.0420499313379008e-06 2.0191775854625856e+01 1.5973109626187577e+01 1.3198316108055126e+00 0 0 0
775 1 -7.1067067438730662e-07 2.0144591367762231e+01 1.3699140784888057e+01 2.4291906354189723e+00 0 0 0
776 1 3.9489063949218417e-06 1.7657599021347533e+01 1.4486158906980320e+01 1.0274964683582337e+00 0 0 0
777 1 1.6146357386338953e-06 1.8914401927345125e+01 1.4043877741689837e+01 3.2576332839369302e+00 0 0 0
778 1 6.6170364307406258e-06 1.6416608676991146e+01 1.4084553011681322e+01 3.2350663388396494e+00 0 0 0
780 1 -5.5599889428709566e-06 1.7621035835738677e+01 1.3673670875166808e+01 2.4410483149615221e+00 0 0 0
828 1 3.2360289748602584e-06 2.1415241736048383e+01 1.4075685630991519e+01 3.2106471802334760e+00 0 0 0
1085 1 1.2726805313809839e-06 1.7672927944614209e+01 1.8204691066046095e+01 3.2587574881552213e+00 0 0 0
1146 1 4.0200438788289494e-06 2.0181980711695029e+01 1.8320461684795728e+01 3.2634950911956473e+00 0 0 0
5 1 -2.1256653903910877e-06 0.0000000000000000e+00 2.5084722249033341e+01 -2.9562628677656138e+00 0 -1 0
12 1 -3.7837645816623624e-07 5.0422188891854036e+00 2.5084722249033341e+01 -2.9562628677656133e+00 0 -1 0
15 1 7.4299100326745001e-07 2.5211094445927018e+00 2.5084722249033341e+01 -2.9562628677656133e+00 0 -1 0
120 1 2.0679829866640021e-06 2.5273561177106925e+00 2.2852783579274671e-03 1.4511165877871480e-02 0 0 0
124 1 1.4218579418855650e-06 3.3871264191266875e-02 2.5067522960903570e+01 -1.0381091677813970e-02 0 -1 0
158 1 1.6204407102381381e-06 7.5936246191793444e+00 2.5060696732261107e+01 3.1750124583367872e-02 0 -1 0
162 1 5.6375152145920739e-07 5.0780432725900910e+00 2.5028490338960676e+01 -1.1302186411634814e-02 0 -1 0
217 1 -2.0247007086379796e-06 3.7816641668890529e+00 2.0903935207465693e+01 -2.9562628677656142e+00 0 0 0
218 1 4.2602718245557019e-06 1.2605547222963516e+00 2.0903935207465690e+01 -2.9562628677656124e+00 0 0 0
219 1 1.5259479564227202e-06 1.2605547222963498e+00 1.9383649011188556e+01 -3.2250140373938452e+00 0 0 0
223 1 7.0699380100138218e-07 6.3027736114817543e+00 2.0903935207465693e+01 -2.9562628677656142e+00 0 0 0
224 1 -3.5053093772003826e-07 6.3027736114817543e+00 1.9383649011188556e+01 -3.2250140373938452e+00 0 0 0
225 1 1.6156796408762127e-06 3.7816641668890520e+00 1.9383649011188556e+01 -3.2250140373938452e+00 0 0 0
523 1 -2.8619449540785308e-07 8.2892296304323120e-25 2.3564436052756200e+01 -3.2250140373938452e+00 0 0 0
524 1 -4.0237073176886120e-07 1.2605547222963498e+00 2.4704650700140739e+01 -8.0625350937816043e-01 0 0 0
525 1 -1.7752370398122963e-06 0.0000000000000000e+00 2.2804292953997283e+01 -1.8812581887655679e+00 0 0 0
526 1 6.8605356704901486e-08 5.0422188891854027e+00 2.3564436052756204e+01 -3.2250140373938452e+00 0 0 0
527 1 -8.2068784733687728e-07 6.3027736114817543e+00 2.4704650700140736e+01 -8.0625350937816043e-01 0 0 0
528 1 -3.8395086315990784e-06 3.7816641668890529e+00 2.4704650700140739e+01 -8.0625350937816043e-01 0 0 0
529 1 -2.0290646257247028e-06 5.0422188891854045e+00 2.2804292953997283e+01 -1.8812581887655679e+00 0 0 0
530 1 -9.9639584512231343e-07 2.5211094445927014e+00 2.3564436052756200e+01 -3.2250140373938452e+00 0 0 0
531 1 -1.2301801226756460e-06 3.7816641668890512e+00 2.3184364503271109e+01 -1.0750046791935992e+00 0 0 0
532 1 2.8064480172306714e-07 1.2605547222963498e+00 2.3184364503271109e+01 -1.0750046791935992e+00 0 0 0
533 1 6.7472949453380167e-07 2.5211094445926996e+00 2.1284006757165500e+01 -2.1500093586007800e+00 0 0 0
534 1 -1.0517018173625253e-07 2.5211094445927014e+00 2.2804292953997283e+01 -1.8812581887655679e+00 0 0 0
535 1 -9.4211170485726640e-08 3.7714606801917592e+00 2.2442102493612836e+01 2.0235690286778571e-01 0 0 0
536 1 1.1461612508729284e-06 1.2642229598935983e+00 2.2452012980767925e+01 2.4239012787425848e-01 0 0 0
537 1 -1.0889280452378643e-06 2.5211094445927031e+00 2.0523863658573092e+01 -8.0625350937816131e-01 0 0 0
538 1 -3.2257650975440050e-09 0.0000000000000000e+00 2.1284006757165500e+01 -2.1500093586007800e+00 0 0 0
539 1 6.4563105178716380e-07 1.2416300969885545e+00 2.0929610953177178e+01 4.5073864592288009e-02 0 0 0
540 1 -2.5090999875398555e-06 0.0000000000000000e+00 1.9003577461703468e+01 -1.0750046791936001e+00 0 0 0
541 1 -1.9490321574360530e-06 0.0000000000000000e+00 2.0523863658573092e+01 -8.0625350937816131e-01 0 0 0
542 1 -1.5371940407160828e-06 1.2469660609907010e+00 2.0179142318509118e+01 1.3644302463612026e+00 0 0 0
548 1 -3.0041420591020979e-06 7.5633283337781050e+00 2.3564436052756200e+01 -3.2250140373938452e+00 0 0 0
550 1 -2.8845150495608640e-07 6.3027736114817552e+00 2.3184364503271109e+01 -1.0750046791935992e+00 0 0 0
552 1 -2.4568691703568350e-06 7.5633283337781041e+00 2.2804292953997283e+01 -1.8812581887655679e+00 0 0 0
554 1 -2.8422948883017775e-06 6.3862020281862684e+00 2.2426397735470829e+01 2.9924300397244119e-01 0 0 0
556 1 2.6804293264453547e-06 5.0422188891854036e+00 2.1284006757165500e+01 -2.1500093586007782e+00 0 0 0
557 1 1.5982999625135248e-06 6.3495533207237109e+00 2.0912149935378014e+01 -4.4937810085512245e-03 0 0 0
558 1 2.9204962808377388e-06 3.8208962056048628e+00 2.0884022057771872e+01 -8.9709723395335391e-03 0 0 0
559 1 -2.5296629825012548e-07 5.0422188891854027e+00 1.9003577461703465e+01 -1.0750046791935992e+00 0 0 0
560 1 -9.8804765704266905e-08 5.0422188891854027e+00 2.0523863658573092e+01 -8.0625350937816131e-01 0 0 0
561 1 -6.8213786578448929e-06 6.3164486659155576e+00 2.0141510033727418e+01 1.3175965452550096e+00 0 0 0
562 1 -1.6656478147251506e-06 3.7820669402985372e+00 2.0170069617967599e+01 1.3281751739301380e+00 0 0 0
564 1 1.2951517467192783e-06 2.5211094445927023e+00 1.9003577461703465e+01 -1.0750046791936001e+00 0 0 0
598 1 2.4146127444044703e-06 7.5633283337781050e+00 1.9003577461703465e+01 -1.0750046791935992e+00 0 0 0
919 1 -6.7133278908578639e-06 4.8743366469259961e-02 2.4327609835334339e+01 1.3749660107849506e+00 0 0 0
920 1 -1.9633241085528484e-06 5.0116126820601261e+00 2.4359516253368845e+01 1.3520182908086154e+00 0 0 0
921 1 4.9831411212360445e-06 3.7379693214245386e+00 2.4681323805743663e+01 2.1646451724122020e+00 0 0 0
922 1 7.5372552223483027e-07 1.2879606690885923e+00 2.4738428520293027e+01 2.1630150243004858e+00 0 0 0
923 1 1.6182628083100443e-06 2.4926809393139693e+00 2.2806621896043865e+01 1.1066885979197185e+00 0 0 0
924 1 -2.7784985755591376e-06 2.5279311883165074e+00 2.4324298437695560e+01 1.3341536839332533e+00 0 0 0
927 1 -1.7447455710388217e-06 2.4956454363902472e+00 2.2080034452423817e+01 2.4813929609243273e+00 0 0 0
928 1 3.2342075545575492e-06 3.0127619526019014e-02 2.2860446805988392e+01 1.1294082203841738e+00 0 0 0
929 1 3.7382061010535152e-06 1.2410452783225392e+00 2.2449432777044883e+01 3.2105210788928598e+00 0 0 0
930 1 2.0815687914717030e-06 2.2661182042014861e+01 2.0546875809511050e+01 2.2210915198013983e+00 -1 0 0
931 1 -2.9590483358850076e-06 2.2682126193012859e+01 2.2084429586318798e+01 2.4081299657856290e+00 -1 0 0
936 1 2.8313356256473867e-06 6.3022917444315993e+00 2.4702487666439282e+01 2.1298774864226213e+00 0 0 0
938 1 -2.0220131756216031e-06 7.5852606420842452e+00 2.4328790006929015e+01 1.3182248949757867e+00 0 0 0
942 1 2.6531975638434538e-06 5.0763101993957678e+00 2.2813797413269874e+01 1.0433918778572657e+00 0 0 0
943 1 2.9176435290206283e-06 6.3154961861520125e+00 2.2408185449355074e+01 3.2232048343350717e+00 0 0 0
944 1 1.9751004571219234e-06 3.8184070326366037e+00 2.2417966739372552e+01 3.2720659431125032e+00 0 0 0
945 1 4.2129760940853786e-07 5.0621347755725337e+00 2.0528346062990945e+01 2.1407484323196369e+00 0 0 0
946 1 -4.6410446394382268e-06 5.0182924483629154e+00 2.2047585906568607e+01 2.4175104630192008e+00 0 0 0
950 1 1.0548833511179183e-06 2.5148831244018242e+00 2.0567964772154575e+01 2.1456843039415618e+00 0 0 0
980 1 2.0271892819834241e-06 7.5756707399534928e+00 2.0489451624566140e+01 2.1094022134289743e+00 0 0 0
22 1 -2.3405523740065648e-06 1.0084437778370807e+01 2.5084722249033341e+01 -2.9562628677656133e+00 0 -1 0
25 1 -6.6896944882788661e-07 7.5633283337781059e+00 2.5084722249033344e+01 -2.9562628677656138e+00 0 -1 0
32 1 5.9933765881698259e-07 1.5126656667556210e+01 2.5084722249033344e+01 -2.9562628677656133e+00 0 -1 0
35 1 -1.4246219687113647e-06 1.2605547222963509e+01 2.5084722249033344e+01 -2.9562628677656138e+00 0 -1 0
191 1 4.3686643866991084e-06 1.2580121333804449e+01 2.5069285198202856e+01 -1.9789735393936678e-02 0 -1 0
195 1 -1.6257169873360890e-06 1.0132234396024415e+01 2.5034357532094628e+01 4.6910942016214825e-02 0 -1 0
213 1 -3.3939267287534140e-07 1.5163631739342206e+01 2.5047494245889634e+01 2.9004477770257671e-02 0 -1 0
222 1 -1.9167418002817446e-06 8.8238830560744557e+00 2.0903935207465690e+01 -2.9562628677656124e+00 0 0 0
242 1 -1.2172385195885194e-07 1.3866101945259860e+01 2.0903935207465690e+01 -2.9562628677656142e+00 0 0 0
243 1 -1.0139600074241876e-06 1.1344992500667157e+01 2.0903935207465690e+01 -2.9562628677656142e+00 0 0 0
244 1 -5.8061662696229471e-07 1.1344992500667157e+01 1.9383649011188556e+01 -3.2250140373938452e+00 0 0 0
245 1 5.8689834715461865e-07 8.8238830560744574e+00 1.9383649011188556e+01 -3.2250140373938452e+00 0 0 0
281 1 2.5656667762729657e-06 1.3866101945259858e+01 1.9383649011188556e+01 -3.2250140373938452e+00 0 0 0
544 1 -1.9654718875277399e-06 1.0084437778370805e+01 2.3564436052756204e+01 -3.2250140373938452e+00 0 0 0
545 1 -2.9650328156881458e-06 1.1344992500667159e+01 2.4704650700140736e+01 -8.0625350937816043e-01 0 0 0
546 1 -8.1263688758778278e-07 8.8238830560744557e+00 2.4704650700140736e+01 -8.0625350937816043e-01 0 0 0
547 1 3.4436274344597620e-06 1.0084437778370807e+01 2.2804292953997283e+01 -1.8812581887655679e+00 0 0 0
549 1 4.6545964836301940e-07 8.8238830560744557e+00 2.3184364503271109e+01 -1.0750046791935992e+00 0 0 0
551 1 2.2609382597034937e-06 7.5633283337781059e+00 2.1284006757165500e+01 -2.1500093586007800e+00 0 0 0
553 1 1.9206627894264308e-06 8.8443613642373453e+00 2.2384549383898637e+01 2.8527227394352545e-01 0 0 0
555 1 -2.1501456075200006e-06 7.5633283337781059e+00 2.0523863658573092e+01 -8.0625350937816131e-01 0 0 0
578 1 -2.1673870508397427e-07 1.5126656667556210e+01 2.3564436052756200e+01 -3.2250140373938452e+00 0 0 0
580 1 -1.3930629955434760e-06 1.3866101945259857e+01 2.4704650700140736e+01 -8.0625350937816043e-01 0 0 0
581 1 -3.7078018762571917e-06 1.5126656667556208e+01 2.2804292953997283e+01 -1.8812581887655679e+00 0 0 0
582 1 4.1280293249630957e-07 1.2605547222963512e+01 2.3564436052756204e+01 -3.2250140373938452e+00 0 0 0
583 1 5.3328902955647959e-06 1.3866101945259862e+01 2.3184364503271109e+01 -1.0750046791935992e+00 0 0 0
584 1 2.8680561610675870e-07 1.1344992500667157e+01 2.3184364503271109e+01 -1.0750046791935992e+00 0 0 0
585 1 2.3686947106677575e-06 1.2605547222963507e+01 2.1284006757165503e+01 -2.1500093586007782e+00 0 0 0
586 1 -1.1930688782716395e-06 1.2605547222963509e+01 2.2804292953997283e+01 -1.8812581887655679e+00 0 0 0
587 1 -5.7031831324034842e-06 1.3872009363222352e+01 2.2431328814981249e+01 2.6926792551799894e-01 0 0 0
588 1 -2.3697302560716717e-06 1.1404007933354261e+01 2.2420216187521667e+01 2.7595274579578855e-01 0 0 0
589 1 -4.0745958213319417e-07 1.2605547222963509e+01 2.0523863658573092e+01 -8.0625350937816131e-01 0 0 0
590 1 -2.9338717901706741e-06 1.0084437778370805e+01 2.1284006757165500e+01 -2.1500093586007800e+00 0 0 0
591 1 -2.0034676325743031e-07 1.1336607864852628e+01 2.0913606901460014e+01 -3.9181076424306890e-03 0 0 0
592 1 8.4989745630352662e-07 8.8386635265086895e+00 2.0910775986834420e+01 1.6374522215599416e-03 0 0 0
593 1 -1.4929148617203316e-06 1.0084437778370807e+01 1.9003577461703465e+01 -1.0750046791936001e+00 0 0 0
594 1 -3.0691430943203646e-07 1.0084437778370805e+01 2.0523863658573092e+01 -8.0625350937816131e-01 0 0 0
595 1 2.1803282868157974e-06 1.1386432115983439e+01 2.0133823053982425e+01 1.3422106111158569e+00 0 0 0
596 1 1.5983419536782202e-06 8.8419729108255574e+00 2.0076175058095846e+01 1.3445038426021199e+00 0 0 0
642 1 3.0251828398495240e-06 1.3851196265139302e+01 2.0935849461517680e+01 -2.9287529223465222e-02 0 0 0
643 1 2.1309067447568423e-06 1.5126656667556208e+01 1.9003577461703468e+01 -1.0750046791935992e+00 0 0 0
646 1 -1.8159028487501908e-06 1.3922241559900829e+01 2.0138589911176339e+01 1.3353650083666639e+00 0 0 0
648 1 -9.4483548010813233e-07 1.2605547222963509e+01 1.9003577461703465e+01 -1.0750046791936001e+00 0 0 0
934 1 -2.8506434082690248e-08 1.0086476452126147e+01 2.4294806092051758e+01 1.3619323961374705e+00 0 0 0
935 1 3.9031616697109680e-06 8.7904683909196173e+00 2.4723473763238829e+01 2.1754288953315002e+00 0 0 0
937 1 2.6741660720242311e-07 7.5971790598191831e+00 2.2827668596144878e+01 1.1212522764984414e+00 0 0 0
941 1 1.2077683343000525e-06 7.5660662868543920e+00 2.2025183320982670e+01 2.3996488891101384e+00 0 0 0
964 1 -4.1843743274216579e-06 1.5156730120016023e+01 2.4266417015395213e+01 1.4202065922267118e+00 0 0 0
965 1 3.9045980670163780e-06 1.3879352926871810e+01 2.4716503979774672e+01 2.1404850317118074e+00 0 0 0
966 1 6.1786745044959053e-06 1.1338439706312599e+01 2.4692689069247681e+01 2.1896932134663629e+00 0 0 0
967 1 4.4312579869585466e-06 1.2686178826093220e+01 2.2785951499154002e+01 1.0985934526339229e+00 0 0 0
968 1 -5.6440399037871046e-06 1.2596870199152645e+01 2.4352286512922895e+01 1.3646814589914247e+00 0 0 0
971 1 -6.4497978340197512e-06 1.2648470969165539e+01 2.2018360854807202e+01 2.4457308547380179e+00 0 0 0
972 1 -8.6834130860818386e-08 1.0136455359451595e+01 2.2807202529237948e+01 1.1486351697981860e+00 0 0 0
973 1 2.9590523336717352e-06 1.1312684458600119e+01 2.2417553500302795e+01 3.2593691720922422e+00 0 0 0
974 1 4.1615686392226176e-06 8.8137312352807164e+00 2.2455871071725269e+01 3.2604283844864792e+00 0 0 0
975 1 6.3671632972723742e-07 1.0066867079570050e+01 2.0518123684770888e+01 2.1557348757615307e+00 0 0 0
976 1 -3.1770074851321809e-06 1.0064152599002204e+01 2.2039127921331502e+01 2.4264746616848538e+00 0 0 0
1020 1 -1.4289636028817836e-06 1.3868816334300149e+01 2.2390076464703373e+01 3.2395942276233667e+00 0 0 0
1021 1 2.3463240213557196e-06 1.5120885536882565e+01 2.0507549520561039e+01 2.1324575381478748e+00 0 0 0
1026 1 -2.1119723916365560e-06 1.2641514852842693e+01 2.0543608463437458e+01 2.1359311396816412e+00 0 0 0
41 1 2.5699082243030374e-06 2.0168875556741614e+01 2.5084722249033344e+01 -2.9562628677656133e+00 0 -1 0
44 1 -1.1695904045138001e-06 1.7647766112148911e+01 2.5084722249033341e+01 -2.9562628677656138e+00 0 -1 0
209 1 9.6635802085900485e-07 1.7620480342590845e+01 2.5060405365270746e+01 -7.1460735151968584e-03 0 -1 0
216 1 3.5191710619328671e-06 2.0189152021189866e+01 2.5034560454086844e+01 2.2746027441985263e-03 0 -1 0
278 1 2.9667113699057382e-06 1.8908320834445263e+01 2.0903935207465693e+01 -2.9562628677656142e+00 0 0 0
279 1 -5.3387849208132321e-07 1.6387211389852560e+01 2.0903935207465690e+01 -2.9562628677656124e+00 0 0 0
280 1 -2.3772686834952374e-06 1.6387211389852563e+01 1.9383649011188556e+01 -3.2250140373938452e+00 0 0 0
330 1 -1.0392672200265278e-06 2.1429430279037962e+01 2.0903935207465690e+01 -2.9562628677656142e+00 0 0 0
331 1 -7.3873714625999886e-07 2.1429430279037966e+01 1.9383649011188556e+01 -3.2250140373938452e+00 0 0 0
332 1 -2.1934197259384455e-06 1.8908320834445263e+01 1.9383649011188556e+01 -3.2250140373938452e+00 0 0 0
579 1 -1.5598696555618376e-06 1.6387211389852560e+01 2.4704650700140739e+01 -8.0625350937816043e-01 0 0 0
628 1 3.9935251619655185e-06 2.0168875556741614e+01 2.3564436052756200e+01 -3.2250140373938452e+00 0 0 0
629 1 -2.3882982109567632e-06 2.1429430279037966e+01 2.4704650700140739e+01 -8.0625350937816043e-01 0 0 0
630 1 -2.2915616820438013e-06 1.8908320834445263e+01 2.4704650700140736e+01 -8.0625350937816043e-01 0 0 0
631 1 -4.6409526160103814e-06 2.0168875556741614e+01 2.2804292953997283e+01 -1.8812581887655697e+00 0 0 0
632 1 -5.6740541426295694e-07 1.7647766112148911e+01 2.3564436052756200e+01 -3.2250140373938452e+00 0 0 0
633 1 -1.2476597062724669e-06 1.8908320834445263e+01 2.3184364503271109e+01 -1.0750046791936010e+00 0 0 0
634 1 4.7189600280689420e-06 1.6387211389852560e+01 2.3184364503271109e+01 -1.0750046791935992e+00 0 0 0
635 1 1.9443467234189793e-06 1.7647766112148911e+01 2.1284006757165500e+01 -2.1500093586007800e+00 0 0 0
636 1 -3.7166517913727940e-07 1.7647766112148911e+01 2.2804292953997283e+01 -1.8812581887655679e+00 0 0 0
637 1 9.7659315036491284e-08 1.8906522550454618e+01 2.2413991944257525e+01 2.7609143851844892e-01 0 0 0
638 1 -1.7521312653464125e-06 1.6403781238404363e+01 2.2419954065284582e+01 3.0119667785087045e-01 0 0 0
639 1 1.6005192730687929e-06 1.7647766112148911e+01 2.0523863658573092e+01 -8.0625350937816131e-01 0 0 0
640 1 -1.3178818043826266e-06 1.5126656667556214e+01 2.1284006757165503e+01 -2.1500093586007800e+00 0 0 0
641 1 -1.3347066884820602e-06 1.6403677944280169e+01 2.0864579599365879e+01 -1.2035557974248941e-02 0 0 0
644 1 1.4560256566021462e-06 1.5126656667556212e+01 2.0523863658573092e+01 -8.0625350937816131e-01 0 0 0
645 1 -4.7817487940005762e-08 1.6446521891536843e+01 2.0102373444992455e+01 1.3469718283946324e+00 0 0 0
694 1 7.5823502862158637e-06 2.1429430279037966e+01 2.3184364503271109e+01 -1.0750046791935992e+00 0 0 0
695 1 -6.9906121762201868e-06 2.1435459062420520e+01 2.2426385652630394e+01 2.6870161645075369e-01 0 0 0
696 1 -2.2259984276094240e-06 2.0168875556741614e+01 2.1284006757165500e+01 -2.1500093586007800e+00 0 0 0
697 1 3.0584392392066847e-07 2.1418410503307019e+01 2.0938711427443277e+01 1.5087893211005583e-02 0 0 0
698 1 4.5730555105545501e-08 1.8883060961077394e+01 2.0895515551395174e+01 -5.5714290782846190e-02 0 0 0
699 1 1.7893806734462780e-06 2.0168875556741614e+01 1.9003577461703465e+01 -1.0750046791936001e+00 0 0 0
700 1 2.6537974515076312e-06 2.0168875556741611e+01 2.0523863658573092e+01 -8.0625350937816131e-01 0 0 0
701 1 -2.6682384582274352e-06 2.1390049146827003e+01 2.0163303364160459e+01 1.3672682771324618e+00 0 0 0
702 1 -7.5353312493064233e-06 1.8913144400925432e+01 2.0162706629439064e+01 1.3400864610492951e+00 0 0 0
704 1 -3.5581245217542458e-06 1.7647766112148915e+01 1.9003577461703468e+01 -1.0750046791936001e+00 0 0 0
1010 1 -5.2005261721765065e-06 2.0119157645776454e+01 2.4293898619341832e+01 1.3572085147119037e+00 0 0 0
1011 1 1.3701456018208598e-06 1.8887205092579922e+01 2.4719257553213072e+01 2.1235183066715382e+00 0 0 0
1012 1 2.7456668798040359e-06 1.6377023518963554e+01 2.4695244709844701e+01 2.2074470371141612e+00 0 0 0
1013 1 2.1717861635300902e-06 1.7660459001604551e+01 2.2763410351768240e+01 1.1125488324144581e+00 0 0 0
1014 1 -3.0630914201004290e-06 1.7593933823820603e+01 2.4298036184467431e+01 1.3683095070190623e+00 0 0 0
1017 1 -3.2348557149007486e-06 1.7652118266134359e+01 2.1970677023994025e+01 2.4562464977023555e+00 0 0 0
1018 1 1.1324798552244138e-06 1.5120595047974559e+01 2.2805739912265043e+01 1.0633453597554079e+00 0 0 0
1019 1 2.6720097160513256e-06 1.6388898852651590e+01 2.2393787703937782e+01 3.1859128694572418e+00 0 0 0
1022 1 -4.0755412546618142e-07 1.5134115885460099e+01 2.2047052233951213e+01 2.4209456954799422e+00 0 0 0
1072 1 3.2120682444464344e-06 2.1436399185031174e+01 2.4684827600713696e+01 2.1712252313511211e+00 0 0 0
1074 1 7.9259902406571842e-06 2.0165042244694611e+01 2.2794011488466076e+01 1.0944443951655087e+00 0 0 0
1075 1 4.6141168078208072e-06 2.1430852654164081e+01 2.2425117142605547e+01 3.1932866768610602e+00 0 0 0
1076 1 3.7483689605141456e-06 1.8960705667090185e+01 2.2418033020986577e+01 3.2614860744348850e+00 0 0 0
1077 1 5.3953536984950361e-06 2.0104905292998279e+01 2.0513683130388099e+01 2.1654403388643018e+00 0 0 0
1078 1 -6.8982334947847117e-06 2.0164370822765019e+01 2.2056220435716739e+01 2.4267231785014665e+00 0 0 0
1082 1 1.3991989848373730e-06 1.7683044565894058e+01 2.0534496111532622e+01 2.1071641508789876e+00 0 0 0
328 1 -3.9545345765872260e-06 1.2723810945778931e+00 4.9384531578145925e+00 4.6483013052901807e+00 0 0 0
329 1 -3.7051229912473988e-06 4.1789183883096340e-02 3.0329170170131134e+00 3.5297185547684058e+00 0 0 0
380 1 -1.6397478839931884e-06 6.3090498696177510e+00 4.9708841631085150e+00 4.5628178768557133e+00 0 0 0
381 1 2.9351995719354724e-07 3.7729000372747126e+00 4.9507241870979835e+00 4.6989090551660126e+00 0 0 0
382 1 -8.2753416866697585e-07 5.0556581228394117e+00 3.0453692949917941e+00 3.4963206615254623e+00 0 0 0
384 1 4.2669532221806034e-06 3.8109605943056390e+00 3.4620717532242500e+00 4.3216621055917042e+00 0 0 0
385 1 4.4705211455272100e-06 1.2779254574586036e+00 3.4593938567909102e+00 4.3768364180468833e+00 0 0 0
387 1 -2.5892407702190042e-06 2.5462621156520591e+00 3.0221338059830369e+00 3.5708327585834634e+00 0 0 0
388 1 -1.7902037043570675e-06 3.7909938699527332e+00 2.6227555164639500e+00 5.7251630043606134e+00 0 0 0
389 1 -5.8737003632873690e-07 1.2261206892315148e+00 2.6329286360383355e+00 5.6618529225950276e+00 0 0 0
390 1 -4.9526262820235215e-07 2.5611109943045829e+00 7.7244955819044547e-01 4.6098845508286326e+00 0 0 0
392 1 -1.0975506288507651e-06 1.2718572378189381e+00 1.1194097541525325e+00 5.4026895416903731e+00 0 0 0
393 1 -1.8248448836272774e-06 2.2678335582536533e+01 7.6240046956186558e-01 4.5762869535130806e+00 -1 0 0
394 1 2.5247868623881761e-06 1.2714606880786363e+00 3.8983886337937351e-01 6.7783540546642334e+00 0 0 0
439 1 9.6360455200686581e-07 6.3328212795762404e+00 3.3894196073062388e+00 4.3119768798474922e+00 0 0 0
443 1 -3.4938012389126339e-06 6.2416803998220960e+00 2.6611324845386970e+00 5.7085530577857924e+00 0 0 0
446 1 2.2155287829739433e-06 6.3187262673125710e+00 1.1841662049746702e+00 5.4254221297908130e+00 0 0 0
447 1 -8.3238095679215741e-07 3.8206311238499611e+00 1.1221081414893905e+00 5.4294543544495060e+00 0 0 0
448 1 -6.8274933554620810e-06 5.0895328489420111e+00 7.9044713391004606e-01 4.5972876897280583e+00 0 0 0
449 1 -6.1493821083466012e-08 6.3447010025597299e+00 4.2234321789047075e-01 6.7737117536082545e+00 0 0 0
450 1 3.2729001105271076e-06 3.8277886098550615e+00 3.6157276997320215e-01 6.7895915652184051e+00 0 0 0
690 1 4.3640959333720057e-06 2.2615588908376271e+01 5.3086762382025539e+00 5.4409817665182283e+00 -1 0 0
693 1 -3.3546917776873579e-06 2.2200021301481066e-02 4.5986899733545865e+00 6.7798971999021349e+00 0 0 0
747 1 -1.1116187634235813e-08 5.0678720652446714e+00 5.3071374120223211e+00 5.4503539404513361e+00 0 0 0
751 1 -1.4819675688999747e-06 5.0332946927029543e+00 4.5696066246773448e+00 6.7768015053019646e+00 0 0 0
752 1 -2.3441751439563277e-07 2.4917996893626144e+00 5.3071413985358884e+00 5.4661554446876561e+00 0 0 0
753 1 2.9934521495778406e-06 3.7680237215297043e+00 4.9309914073381593e+00 7.6660372868108935e+00 0 0 0
754 1 1.4461512511543528e-06 1.2723801671373371e+00 4.9643187440323038e+00 7.6439938936894469e+00 0 0 0
755 1 -3.2772223976350079e-06 2.4811844193942099e+00 3.0632854079457283e+00 6.4929733678268544e+00 0 0 0
756 1 -2.9736500054414025e-07 2.4890306267835030e+00 4.5721191815089126e+00 6.8457421646892422e+00 0 0 0
757 1 8.2790613628145959e-07 3.7516533634180447e+00 4.1764385241252224e+00 8.9934410691435804e+00 0 0 0
758 1 -1.4277145056102480e-06 1.2716646029957819e+00 4.1432369034353504e+00 8.9354265710625445e+00 0 0 0
759 1 3.2897540875164862e-06 2.4996669287403557e+00 2.3002738764453445e+00 7.8402970134943741e+00 0 0 0
760 1 3.6031453856639852e-07 2.2684893166523828e+01 3.0790329761151947e+00 6.4331862139510241e+00 -1 0 0
761 1 2.5760851860413696e-06 1.2170865931394437e+00 2.6573571850254631e+00 8.6840574350560100e+00 0 0 0
762 1 8.7130861692968096e-08 2.2626229830738673e+01 7.4905018245863275e-01 7.5833436372100094e+00 -1 0 0
763 1 1.1077015783240843e-06 2.2664048998445754e+01 2.3155334538289369e+00 7.8166359031645571e+00 -1 0 0
765 1 8.1437650483557957e-07 6.7896264985981480e-03 1.6056538179695854e-02 8.9119869841429118e+00 0 0 0
810 1 5.0829449533020714e-06 6.3486065072297988e+00 4.9355399539154474e+00 7.5200433281796393e+00 0 0 0
811 1 3.6395667424458876e-06 7.5589370072293542e+00 3.0173522885892354e+00 6.5477706774952997e+00 0 0 0
814 1 -6.6273211418012097e-06 6.2667747485067551e+00 4.1673405128830421e+00 8.8681616836910955e+00 0 0 0
816 1 2.2268763735868367e-06 5.0338206860400474e+00 3.0549635791442165e+00 6.5199081349145178e+00 0 0 0
817 1 3.1601793945709161e-06 6.3044187692186338e+00 2.6614464433133467e+00 8.6770533462916912e+00 0 0 0
818 1 -1.2663625031411588e-06 3.7649054640744732e+00 2.6685363224835985e+00 8.6240282053929729e+00 0 0 0
819 1 -2.2921689592994677e-06 5.0360232298616756e+00 7.7417484315878538e-01 7.5751670316750666e+00 0 0 0
820 1 -1.0152019222975081e-06 5.0006184777072153e+00 2.2697996919380885e+00 7.8170105995874914e+00 0 0 0
823 1 -5.1268748800276263e-06 5.0739288694218407e+00 4.0709835914449828e-02 8.9056339275005492e+00 0 0 0
824 1 1.8989427513796782e-06 2.5491040476408746e+00 7.7401678673717922e-01 7.6074669909477226e+00 0 0 0
825 1 7.9154212394712120e-07 3.7483091703947884e+00 4.3760535822588853e-01 9.8167630575155087e+00 0 0 0
826 1 1.9184901562748561e-06 1.2146129437966597e+00 4.0653802889939483e-01 9.7408150454889313e+00 0 0 0
827 1 -3.1340552113405632e-06 2.4842632238414075e+00 1.6813205811649166e-02 8.9566288919805732e+00 0 0 0
872 1 9.0932809452518505e-06 6.2556780789199671e+00 3.9624596801925221e-01 9.7180586866351764e+00 0 0 0
873 1 -3.9358370484473624e-06 7.5665640158099183e+00 1.4585764656458319e-02 8.8997824847360025e+00 0 0 0
1133 1 -4.6443653220169027e-06 2.5087595564099487e+00 4.5617939901953228e+00 9.7845556441757076e+00 0 0 0
1138 1 2.4599006177469496e-06 2.2661641106051356e+01 4.5590124767794338e+00 9.7763970612822231e+00 -1 0 0
1189 1 -3.0461613699937082e-06 7.5689039163254259e+00 4.5897886287351808e+00 9.7161512094462363e+00 0 0 0
1194 1 4.1503934736557141e-06 5.0439228950828507e+00 4.5610181396146983e+00 9.7547780524828163e+00 0 0 0
434 1 -3.4207034930400270e-06 1.1326795502714010e+01 4.9054589843458301e+00 4.6131438270514611e+00 0 0 0
435 1 -2.0253301823593748e-06 8.8442612943975707e+00 4.9472562100547037e+00 4.6148608560716564e+00 0 0 0
436 1 -2.1823895704218738e-07 1.0095634087525157e+01 3.0112675790628018e+00 3.5446617525394104e+00 0 0 0
438 1 1.1787330677523029e-06 8.8760727633204208e+00 3.3974557028777892e+00 4.3455985835625732e+00 0 0 0
441 1 -2.8420645389402148e-06 7.5602925436012969e+00 3.0256607653558385e+00 3.5327772139576350e+00 0 0 0
442 1 -1.7604108974641079e-06 8.8413043851077262e+00 2.6684234176797919e+00 5.6715301478565596e+00 0 0 0
444 1 -7.2558961198741838e-07 7.5799436966861791e+00 7.4157776164391342e-01 4.5479010410188554e+00 0 0 0
475 1 -7.8682035085116260e-07 1.3885174801687583e+01 4.9552176722056371e+00 4.6530251610616009e+00 0 0 0
476 1 -2.7716308085790523e-06 1.5115168110807277e+01 3.0942566605978596e+00 3.5439505099294397e+00 0 0 0
478 1 7.0068176145271490e-07 1.3873368994562513e+01 3.4711139070711692e+00 4.3455352322901506e+00 0 0 0
479 1 -1.4825005918199598e-07 1.1405020794629875e+01 3.4006865214551372e+00 4.3166685813049961e+00 0 0 0
481 1 -2.6596805683956711e-06 1.2655439946965753e+01 3.0169945125584228e+00 3.5171108301778844e+00 0 0 0
482 1 -2.5788417634929793e-06 1.3862665302602695e+01 2.6448293132400753e+00 5.6277482673628612e+00 0 0 0
483 1 -1.1897502464620619e-07 1.1380244938555343e+01 2.7155481149221696e+00 5.6562039807609956e+00 0 0 0
484 1 6.6867638446078681e-07 1.2589033198567886e+01 6.9441169191045871e-01 4.6083951207139533e+00 0 0 0
486 1 4.1874292138703059e-06 1.1346183266136380e+01 1.1315848519936633e+00 5.4805161972721192e+00 0 0 0
487 1 2.6747995097188756e-06 8.8736742234268959e+00 1.1834674337535920e+00 5.4411643406236578e+00 0 0 0
488 1 -9.5986401815939156e-06 1.0086653994317544e+01 7.7063062578075503e-01 4.6316432352522670e+00 0 0 0
489 1 -1.1993537243525759e-06 1.1384099038961102e+01 3.9240000593858465e-01 6.7916002789371568e+00 0 0 0
490 1 -4.4020762135011153e-07 8.8518147507537961e+00 3.9458521901976074e-01 6.7766321369947828e+00 0 0 0
511 1 2.7100677598034067e-06 1.3851357169280062e+01 1.1239684068266751e+00 5.3894422059789839e+00 0 0 0
512 1 -3.6276994187583374e-06 1.5095731176372951e+01 7.5930371480042846e-01 4.5564162456710688e+00 0 0 0
514 1 -3.8839377599150349e-06 1.3933013332948759e+01 3.6474593182481635e-01 6.7843932800261753e+00 0 0 0
803 1 1.9494845136986283e-06 1.0060105182130766e+01 5.3271115645369376e+00 5.4692535702050691e+00 0 0 0
807 1 -1.0378944665939830e-06 1.0074906735154515e+01 4.5464627731125802e+00 6.8199760308555666e+00 0 0 0
808 1 2.3566019432563003e-06 7.5781738924741697e+00 5.2988682364905575e+00 5.3747919238954092e+00 0 0 0
809 1 3.9667338586231218e-06 8.8509296300363864e+00 4.9300564364477903e+00 7.5874712904150705e+00 0 0 0
812 1 -3.1939502012941389e-06 7.6002529059236741e+00 4.5388783455382429e+00 6.7691506400913095e+00 0 0 0
813 1 4.1639230402351483e-07 8.8359294414189655e+00 4.1590073254939961e+00 8.9182017768040307e+00 0 0 0
815 1 -1.4925865958819878e-06 7.5523343411792885e+00 2.3137903432808073e+00 7.8734570625505720e+00 0 0 0
853 1 -4.8973315692228537e-06 1.5040431682339129e+01 4.5265656676095025e+00 6.8051127083031178e+00 0 0 0
854 1 3.6115497351965732e-06 1.2596144134509517e+01 5.3342363753565536e+00 5.3925154196681788e+00 0 0 0
855 1 2.3011423368232903e-06 1.3847526555768054e+01 4.9502368994390782e+00 7.6389334457424827e+00 0 0 0
856 1 3.0828553962532850e-06 1.1381062932856791e+01 4.9077135994387833e+00 7.5973897788182514e+00 0 0 0
857 1 5.8706638755044595e-07 1.2640674833781052e+01 3.0574679846576736e+00 6.4743921139813159e+00 0 0 0
858 1 -4.6485171122909032e-06 1.2636189698126454e+01 4.5133965496554200e+00 6.7985145786757952e+00 0 0 0
859 1 -6.1279275172717248e-06 1.3867532891764919e+01 4.1576459597332631e+00 8.9618695343419432e+00 0 0 0
860 1 1.4269854477856886e-06 1.1418988044204964e+01 4.1744830200715048e+00 8.9513240094347335e+00 0 0 0
861 1 -2.9202401371091565e-06 1.2629673455901299e+01 2.2824619113870286e+00 7.8118102328620145e+00 0 0 0
862 1 3.1944787375331801e-06 1.0112651389562799e+01 3.0523243426098432e+00 6.5096985877790710e+00 0 0 0
863 1 -1.1570041713151304e-06 1.1349238313091243e+01 2.6983512906583220e+00 8.6189460993363749e+00 0 0 0
864 1 1.3728699629517083e-07 8.8545329140846398e+00 2.6676057108321949e+00 8.6982190594023070e+00 0 0 0
865 1 6.1486945563654924e-08 1.0122217437543432e+01 7.2485347719438742e-01 7.5672424979612654e+00 0 0 0
866 1 -7.1197356529550783e-07 1.0084210009813187e+01 2.3102764097802764e+00 7.8595812288106064e+00 0 0 0
869 1 -3.8743545276494452e-06 1.0133889908676041e+01 4.2905215472647848e-02 8.8539316480925443e+00 0 0 0
870 1 2.0956722729723166e-06 7.6478766384837922e+00 8.0038384838167742e-01 7.5637680055358940e+00 0 0 0
871 1 4.5428379856136262e-06 8.8124685997231875e+00 3.9363521704256033e-01 9.6931917514340622e+00 0 0 0
892 1 1.8843285756420020e-06 1.5131472009524309e+01 2.9834708916811521e+00 6.4722199595008627e+00 0 0 0
894 1 4.5349847504959418e-06 1.3863909383025213e+01 2.6886527388013444e+00 8.6343327392791736e+00 0 0 0
896 1 -4.3803531743296366e-06 1.5171023622143771e+01 2.3259942198282713e+00 7.8527869382039652e+00 0 0 0
899 1 -3.7802199691705816e-06 1.5132167809413197e+01 9.6531287785572260e-03 8.9514887494259572e+00 0 0 0
900 1 4.4871776777840876e-06 1.2638907687572379e+01 7.7270648389491770e-01 7.5861528247818084e+00 0 0 0
901 1 5.1907685147141748e-07 1.3897019191231298e+01 3.7111060608451157e-01 9.7184773204365289e+00 0 0 0
902 1 1.9556831716685621e-06 1.1297492222891925e+01 3.8266912137337172e-01 9.7252929806812389e+00 0 0 0
903 1 -8.5469386402959525e-07 1.2620111641231690e+01 3.1923625320802340e-02 8.9345187481828070e+00 0 0 0
1239 1 5.4606686696909915e-06 1.2635502476806332e+01 4.6214719835045717e+00 9.6994113482874660e+00 0 0 0
1244 1 -3.8304067330723455e-07 1.0090654724964182e+01 4.5556667361922933e+00 9.7245249309810564e+00 0 0 0
1278 1 7.8915690835464571e-06 1.5093878422755514e+01 4.6197160337436065e+00 9.7385498708353992e+00 0 0 0
474 1 -5.2865202353453903e-06 1.6396713439060630e+01 4.9163263530426997e+00 4.6514378899142059e+00 0 0 0
498 1 -7.7075429191456107e-06 2.1420248353442425e+01 4.8982816824459512e+00 4.6095356719395992e+00 0 0 0
499 1 -1.4567985638001517e-06 1.8875532799456579e+01 4.8840762237987247e+00 4.5791300608543342e+00 0 0 0
500 1 -5.8280365643684399e-07 2.0209120444917517e+01 3.0780983455102016e+00 3.4586901499152236e+00 0 0 0
502 1 1.4208497213094060e-06 1.8949244535056060e+01 3.3828384663499071e+00 4.2638729298654274e+00 0 0 0
503 1 2.9299853399076371e-06 1.6406247621347212e+01 3.4286148893828865e+00 4.3596018896931037e+00 0 0 0
505 1 -4.2258585816863907e-06 1.7650139556992272e+01 3.0367985590324160e+00 3.4867018403710346e+00 0 0 0
506 1 -2.7711687699206019e-06 1.8941971331750334e+01 2.6972244939691405e+00 5.6890461425313728e+00 0 0 0
507 1 -2.8917006373774890e-06 1.6387528802987735e+01 2.6255828217142438e+00 5.7017405259903029e+00 0 0 0
508 1 4.2993575578809762e-07 1.7626437704871602e+01 7.5663770694916888e-01 4.6713525192051648e+00 0 0 0
510 1 4.0145019928330221e-06 1.6390835053894733e+01 1.1449832947456728e+00 5.3896331246919766e+00 0 0 0
513 1 -7.0026228222540253e-07 1.6416209676505982e+01 3.3478189419750926e-01 6.7550494944309616e+00 0 0 0
515 1 3.7919526900998808e-06 2.1427663945889819e+01 3.4428598982347607e+00 4.3244636982091578e+00 0 0 0
516 1 -3.8967156808623808e-06 2.1462196218861262e+01 2.7012542138441162e+00 5.6581795270122637e+00 0 0 0
518 1 -2.5618015399953848e-06 2.1443107506953062e+01 1.1551281134482863e+00 5.4524802785888067e+00 0 0 0
519 1 2.8064750694886624e-06 1.8980118166855963e+01 1.1788622441578867e+00 5.4411152191648533e+00 0 0 0
520 1 4.1234456098020012e-06 2.0206701978220575e+01 8.0389160572643326e-01 4.6364767212403999e+00 0 0 0
521 1 -2.1364725454261504e-06 2.1428218883173287e+01 4.2546290279091453e-01 6.7755486992281391e+00 0 0 0
522 1 -1.5408807426444009e-07 1.8925246442715903e+01 3.8930854674168786e-01 6.7335923843436545e+00 0 0 0
849 1 3.2000000140191795e-06 1.5129563428869020e+01 5.2980766356807107e+00 5.4749839088887935e+00 0 0 0
879 1 5.5795966415955168e-07 2.0140743300065139e+01 5.3032100499789703e+00 5.3880182724115171e+00 0 0 0
883 1 1.1123894556409686e-06 2.0163046816198094e+01 4.5792676495605509e+00 6.7886815544123387e+00 0 0 0
884 1 2.5655553069775645e-06 1.7611884923799980e+01 5.2750535012770357e+00 5.3494779511371204e+00 0 0 0
885 1 6.0571952276736575e-07 1.8908210171657480e+01 5.0039045029712730e+00 7.5999876506124151e+00 0 0 0
886 1 7.8197965766641148e-06 1.6316099248009031e+01 4.9424462657379005e+00 7.6025826803803405e+00 0 0 0
887 1 -1.6139577155978514e-07 1.7634787443678082e+01 3.0767906605702002e+00 6.5189604186356274e+00 0 0 0
888 1 -4.2958618785554052e-06 1.7597378941750151e+01 4.5995167339206082e+00 6.7935978119493834e+00 0 0 0
889 1 -3.9297385288283472e-06 1.8866583046596357e+01 4.2103995719209841e+00 8.8631902905678412e+00 0 0 0
890 1 -1.3915665325190551e-06 1.6333208406245614e+01 4.1283041217024641e+00 8.9241409420571944e+00 0 0 0
891 1 -3.8283941724795876e-06 1.7680453218661579e+01 2.3042525096731326e+00 7.8144642914738398e+00 0 0 0
893 1 1.5226864060045275e-06 1.6428369335312997e+01 2.6629924053675889e+00 8.7081062248712477e+00 0 0 0
895 1 3.3957936597403040e-06 1.5170666450240423e+01 7.6430606311991744e-01 7.5812865388099961e+00 0 0 0
904 1 5.5532188844025913e-06 2.1436799265394420e+01 4.9586573406578252e+00 7.5453113528795823e+00 0 0 0
905 1 1.0472441835426038e-06 2.1392230373033080e+01 4.2078265636484602e+00 8.9777557998159541e+00 0 0 0
906 1 2.1954309498441532e-06 2.0154727009193461e+01 3.0576642369679643e+00 6.4981177940081105e+00 0 0 0
907 1 -5.9761336007164613e-06 2.1476330577084717e+01 2.7203882935567671e+00 8.7190404690297107e+00 0 0 0
908 1 6.8442784936544571e-06 1.8951084643601490e+01 2.7073638310187982e+00 8.6466925499537730e+00 0 0 0
909 1 1.7934950793626045e-06 2.0138674187377891e+01 7.8400517921137669e-01 7.5792518205792749e+00 0 0 0
910 1 -4.0571346790950668e-07 2.0177184692635077e+01 2.3238925522499327e+00 7.8676201872335687e+00 0 0 0
913 1 -1.5074393910313320e-06 2.0145150183393959e+01 3.4939456768048535e-02 8.9132439852320253e+00 0 0 0
914 1 -2.0655348988592392e-06 1.7676469440098394e+01 6.9975498487308685e-01 7.5531530702573537e+00 0 0 0
915 1 6.1405266326721909e-07 1.8918547496355739e+01 4.1567890718645245e-01 9.7157149935854186e+00 0 0 0
916 1 3.0795134063549166e-06 1.6380685489768311e+01 4.3955482773302534e-01 9.6780729323964501e+00 0 0 0
917 1 -3.4860618613058691e-06 1.7657875291410825e+01 2.5067322464639691e+01 8.9064365179654938e+00 0 -1 0
918 1 2.8449007104968482e-06 2.1424187791184025e+01 3.9458128807478138e-01 9.7512063174627741e+00 0 0 0
1273 1 2.2728555513533678e-06 1.7620113101517184e+01 4.5748036711296534e+00 9.7569515530205049e+00 0 0 0
1296 1 2.8907577819782337e-06 2.0139083850803704e+01 4.5564531139451603e+00 9.7338175235986810e+00 0 0 0
321 1 -2.7753100314089699e-06 3.7646167375688129e+00 7.2092948938172237e+00 3.5034284297055245e+00 0 0 0
322 1 -1.2392515288815888e-06 1.2791558661620468e+00 7.2353291355893461e+00 3.5283505052393185e+00 0 0 0
373 1 -2.4817285031923858e-06 6.2990154433098962e+00 7.2644075445182708e+00 3.5422747416927729e+00 0 0 0
621 1 1.3507506378599284e-06 2.4777978282146194e+00 1.1438830737238909e+01 3.5306872651893491e+00 0 0 0
623 1 4.5695102775397073e-06 1.2076307142608140e+00 1.1798185726765384e+01 4.2903014111845765e+00 0 0 0
625 1 -4.8951556182141904e-07 2.2614336745293070e+01 1.1409908826356823e+01 3.5446650518568976e+00 -1 0 0
626 1 -2.8137647137456430e-06 1.2236898473967004e+00 1.1005720692337093e+01 5.6481691142427559e+00 0 0 0
627 1 -2.9064980005153501e-06 2.2621331732519156e+01 9.1323425539896999e+00 4.5651597628544289e+00 -1 0 0
671 1 -3.9186109780322210e-07 7.5963605478745135e+00 1.1413562277169673e+01 3.4949226306780465e+00 0 0 0
673 1 6.5398160393537878e-07 6.3156107057808493e+00 1.1755209310688160e+01 4.3427815785177062e+00 0 0 0
674 1 5.5857435581471004e-06 3.7652691596858943e+00 1.1781960721307591e+01 4.3791774003313186e+00 0 0 0
676 1 -4.9709828161927566e-06 4.9870792974466021e+00 1.1416807396036431e+01 3.5905596679477276e+00 0 0 0
677 1 -2.3864970010079261e-06 6.2629726510398012e+00 1.1010609204008261e+01 5.6801869010097645e+00 0 0 0
678 1 -4.1682714668847047e-06 3.7331444379751106e+00 1.1026853849557096e+01 5.7080401111358947e+00 0 0 0
679 1 3.6710489327008399e-07 5.0435043069634036e+00 9.1402299854351607e+00 4.5557305500256851e+00 0 0 0
681 1 1.6940679392696134e-06 3.7620562253031458e+00 9.4791681999786892e+00 5.4042030486245007e+00 0 0 0
682 1 2.3826980994811351e-06 1.2029425174574042e+00 9.4708629802046573e+00 5.3933478492652958e+00 0 0 0
683 1 1.3576397109104244e-06 2.5620254855759934e+00 7.5929249261672620e+00 4.3047450032155998e+00 0 0 0
684 1 -2.1492568045655621e-06 2.5005298073902718e+00 9.1416753314699264e+00 4.6059866968952567e+00 0 0 0
685 1 -9.5289631712832443e-07 3.7359123629835733e+00 8.7249499743413299e+00 6.7525524528441059e+00 0 0 0
686 1 -3.3629835795202181e-06 1.1971527529375299e+00 8.7534753910545735e+00 6.7568044829977696e+00 0 0 0
687 1 -3.9551425954640124e-06 2.5391502424827177e+00 6.9068917276526687e+00 5.7146788172806184e+00 0 0 0
688 1 5.0509867944997619e-06 2.2646038713037019e+01 7.5801925654284998e+00 4.2930222428040823e+00 -1 0 0
689 1 3.4746947345572906e-06 1.2549807215683180e+00 7.2266509388153954e+00 6.4824893045103664e+00 0 0 0
691 1 -5.0361496260700811e-06 2.2642749817000325e+01 6.8337541329964804e+00 5.6543079111669714e+00 -1 0 0
692 1 4.3536690233376634e-07 1.2684810991818749e+00 6.5043742224009238e+00 7.8937904288876286e+00 0 0 0
738 1 1.1377125964660219e-06 6.2955611177342297e+00 9.4958753755059604e+00 5.3672379883348631e+00 0 0 0
739 1 3.9791282289073163e-06 7.5802610032345044e+00 7.6544326336004325e+00 4.3395671324640741e+00 0 0 0
742 1 -5.8703013954163476e-06 6.2750602565404181e+00 8.7286567480282802e+00 6.7793269540165424e+00 0 0 0
743 1 9.6770012453897203e-07 7.5527835705643129e+00 6.8405951948824741e+00 5.6963195760978653e+00 0 0 0
744 1 3.3410465353635955e-06 5.0062377278539421e+00 7.6291976334412182e+00 4.2954973711915709e+00 0 0 0
745 1 5.2396835866398406e-06 6.3100316727568808e+00 7.2239071358115075e+00 6.5072366708879548e+00 0 0 0
746 1 2.6369834302952628e-07 3.7744862862927291e+00 7.2154281080441072e+00 6.4894355076310317e+00 0 0 0
748 1 -2.2302611684440170e-06 5.0536824668891001e+00 6.8841434750303083e+00 5.6965720305104668e+00 0 0 0
749 1 -4.3658066953686753e-06 6.2831418976261233e+00 6.4739521439718581e+00 7.8668106652927010e+00 0 0 0
750 1 3.0672737932613283e-06 3.7245873870271562e+00 6.4099078198437063e+00 7.8978138594169343e+00 0 0 0
1006 1 1.6359915968433328e-06 2.2681770261920928e+01 1.1448503066604296e+01 6.4775189675621050e+00 -1 0 0
1008 1 -3.1931069808011846e-06 1.2309888475722708e+00 1.2565224286175905e+01 8.9342934225443909e+00 0 0 0
1009 1 -2.2822269469866444e-06 2.2668381497914261e+01 1.0698858940010977e+01 7.7954331002053205e+00 -1 0 0
1053 1 8.3152893768706180e-06 4.9435875279962618e+00 1.1392918027149822e+01 6.5175182380181909e+00 0 0 0
1055 1 -5.5076091849985306e-06 6.2489134645517970e+00 1.2525890346217658e+01 9.0229343223686183e+00 0 0 0
1056 1 6.5023461344496200e-07 3.7231591056092164e+00 1.2531278571884995e+01 8.9043123692233817e+00 0 0 0
1057 1 -5.5553223369410973e-06 4.9985543614700774e+00 1.0633064224047464e+01 7.8929754233275125e+00 0 0 0
1058 1 -1.6134098372858682e-06 2.5112859947546862e+00 1.1453203558786820e+01 6.4991807801473662e+00 0 0 0
1059 1 8.4788943485297739e-07 3.7440000687459429e+00 1.0999334908359263e+01 8.6951376680822428e+00 0 0 0
1060 1 2.6993559142960087e-06 1.2553828435851524e+00 1.1040910467495046e+01 8.6121139019308757e+00 0 0 0
1061 1 5.0445651290101364e-06 2.5202304010248677e+00 9.1387685366700264e+00 7.5732539879702188e+00 0 0 0
1062 1 -6.0844449261781177e-06 2.5295970864933577e+00 1.0675928425503468e+01 7.8476121750266765e+00 0 0 0
1065 1 -4.1672291913484069e-06 2.5097123173286953e+00 8.3668436935657020e+00 8.8973979868319510e+00 0 0 0
1066 1 8.0133454168803548e-06 9.1525435303099201e-03 9.1232174821353578e+00 7.5757678169502247e+00 0 0 0
1067 1 -2.2606217040833912e-06 1.2126364231204811e+00 8.7316935406426701e+00 9.7517313823149685e+00 0 0 0
1068 1 2.8570723668565147e-06 2.2640534923916146e+01 6.8632610765883877e+00 8.6935572895064634e+00 -1 0 0
1069 1 -2.3524246864382384e-06 2.2668621220202198e+01 8.3694864576261327e+00 8.9546472983015910e+00 -1 0 0
1114 1 2.8365332315491143e-06 7.4717221405363397e+00 1.1407934984593339e+01 6.5413645344245142e+00 0 0 0
1116 1 3.0233035713243953e-06 6.2891842686012804e+00 1.1020804394624045e+01 8.6628567658262128e+00 0 0 0
1117 1 5.8891854910412838e-06 7.5360250043277528e+00 9.1755129970627110e+00 7.6011913551610766e+00 0 0 0
1121 1 6.6256348756360505e-07 7.5034221118933946e+00 8.3646417876155770e+00 8.9648545992518489e+00 0 0 0
1122 1 4.4597952553481258e-06 4.9649928312054712e+00 9.1524837955857947e+00 7.5681808081555788e+00 0 0 0
1123 1 3.3131786370349814e-07 6.2387265592244709e+00 8.7500085301550463e+00 9.7439310098956042e+00 0 0 0
1124 1 6.2262159769998200e-06 3.7844393644313494e+00 8.7308508026115721e+00 9.7377523860323549e+00 0 0 0
1125 1 -3.9061568381049773e-06 5.0464256814332273e+00 6.8293552460482445e+00 8.6352521839067720e+00 0 0 0
1126 1 -2.4753435663831063e-06 4.9633029046345882e+00 8.3679398884978973e+00 8.9077123064547319e+00 0 0 0
1130 1 -2.9037063194529170e-06 2.5034921316981515e+00 6.8805567752086700e+00 8.6071830406805692e+00 0 0 0
372 1 -2.4135297385290876e-06 8.8190082853339309e+00 7.2384104151617361e+00 3.5622423415352609e+00 0 0 0
426 1 -3.7462710406153631e-06 1.3795138946980266e+01 7.2488080091010856e+00 3.5565506081743457e+00 0 0 0
427 1 -4.7577894397460166e-06 1.1283397435447723e+01 7.2221458370213067e+00 3.6047629787942972e+00 0 0 0
727 1 -6.5164224808209155e-07 1.2581967514813895e+01 1.1493942980917318e+01 3.5668863907299144e+00 0 0 0
729 1 7.7358962091152033e-06 1.1294199089698923e+01 1.1803659560210347e+01 4.3687099809914987e+00 0 0 0
730 1 3.1431673450941179e-06 8.8245690163208419e+00 1.1772783790275994e+01 4.3600806662330163e+00 0 0 0
732 1 -8.6302637638963702e-06 1.0080957811470906e+01 1.1375200609342045e+01 3.5372664687463953e+00 0 0 0
733 1 -5.9968261622563094e-06 1.1337871728064730e+01 1.0998425497910088e+01 5.7596891170102156e+00 0 0 0
734 1 -2.6717012707579923e-06 8.7653387766611033e+00 1.1061182964437261e+01 5.7179721036233069e+00 0 0 0
735 1 -3.3270086255003190e-06 1.0095345724377047e+01 9.1670490890272340e+00 4.6357917519207028e+00 0 0 0
737 1 4.0722004036351955e-06 8.8186062934154155e+00 9.5037923581908483e+00 5.4347996565972894e+00 0 0 0
740 1 -3.9925679603378166e-06 7.5378759780342772e+00 9.1362388364674079e+00 4.5791013334703203e+00 0 0 0
741 1 -4.5617887857415921e-06 8.8091819860154370e+00 8.7695330865876482e+00 6.7948303746814620e+00 0 0 0
786 1 -1.2330920563301591e-06 1.3841171820482556e+01 1.1800728202030294e+01 4.3524014143409344e+00 0 0 0
788 1 -2.1604853435907091e-06 1.5121078025806380e+01 1.1416495374099958e+01 3.5117347337063274e+00 0 0 0
790 1 1.5371412686060722e-06 1.3812016981112256e+01 1.1017859705359475e+01 5.7023252091512093e+00 0 0 0
793 1 3.4923358539047501e-06 1.3859586784951505e+01 9.5056951128887945e+00 5.4513422470127182e+00 0 0 0
794 1 3.9913856129830473e-06 1.1361523987541117e+01 9.5060578067526897e+00 5.4469221036973963e+00 0 0 0
795 1 3.8451125373059270e-06 1.2583246233047975e+01 7.6220595720625939e+00 4.3938701846257411e+00 0 0 0
796 1 -4.4351643657689261e-06 1.2641670918194151e+01 9.1227780387146531e+00 4.7160522567516505e+00 0 0 0
797 1 -6.4555131055156481e-06 1.3842456945072046e+01 8.6863580967069662e+00 6.7922725594777305e+00 0 0 0
798 1 -4.2971509704900356e-06 1.1331033946810434e+01 8.7970736079883949e+00 6.7684337440707516e+00 0 0 0
799 1 1.1152634672176386e-06 1.2578819561858865e+01 6.8237516591055405e+00 5.7100162275167126e+00 0 0 0
800 1 1.0566839997958849e-06 1.0026907317435796e+01 7.6215074456325782e+00 4.3832915796773344e+00 0 0 0
801 1 3.9543720336640508e-07 1.1293237281134473e+01 7.1925236448838943e+00 6.5045762191082739e+00 0 0 0
802 1 6.0360374604034370e-06 8.7711620739544180e+00 7.2332728639745483e+00 6.5142765480119316e+00 0 0 0
804 1 -4.6507946740157137e-06 1.0045942380936774e+01 6.7947992892596618e+00 5.7717350767308053e+00 0 0 0
805 1 1.0388948726955036e-07 1.1321780490398652e+01 6.4796405639457868e+00 7.8302392902143430e+00 0 0 0
806 1 -4.6860199606170746e-06 8.8032198946916722e+00 6.4706034543646185e+00 7.8998535536482200e+00 0 0 0
848 1 2.6364188591634920e-06 1.3821240578492034e+01 7.1358528995514749e+00 6.5472219144497199e+00 0 0 0
850 1 -6.3550119836524865e-06 1.5072730042816792e+01 6.8054793217902541e+00 5.7531323172521143e+00 0 0 0
852 1 -7.0864300064136158e-06 1.3850203265149968e+01 6.4558812287126255e+00 7.8621167464518837e+00 0 0 0
1109 1 7.0870421877816046e-06 1.0081106392382527e+01 1.1397262751159944e+01 6.4675287583715333e+00 0 0 0
1111 1 -6.1592961080221358e-06 1.1325814199790184e+01 1.2604471490698931e+01 8.8998110540575475e+00 0 0 0
1112 1 -4.1487043130566831e-06 8.8118050087793520e+00 1.2519523934174110e+01 8.9348387016247273e+00 0 0 0
1113 1 -5.6054986155119913e-06 1.0115823712170686e+01 1.0671001751132547e+01 7.8757209382799358e+00 0 0 0
1115 1 3.8137906466277022e-06 8.8040055190751403e+00 1.1060633991670596e+01 8.6823559473847300e+00 0 0 0
1118 1 -7.5947213591519327e-06 7.5211012987465038e+00 1.0669702469726067e+01 7.8626091644412517e+00 0 0 0
1165 1 1.1076704451419274e-06 1.5113426976802641e+01 1.1426697355323871e+01 6.4553455772223050e+00 0 0 0
1168 1 7.2842407302325996e-08 1.3880101866292158e+01 1.2504770966944577e+01 8.8715796512006122e+00 0 0 0
1170 1 -2.7731342755336470e-07 1.2535082714973864e+01 1.1350259009247656e+01 6.5301550839795768e+00 0 0 0
1171 1 5.3019289822937395e-06 1.3834129652845441e+01 1.1023819897388810e+01 8.6695881843068712e+00 0 0 0
1172 1 8.1604640580333400e-06 1.1356335222298732e+01 1.1067441365888657e+01 8.6754482007873044e+00 0 0 0
1173 1 4.2795219768645906e-06 1.2602725095723754e+01 9.1214295898808260e+00 7.6228266790349135e+00 0 0 0
1174 1 -6.8121914450929059e-06 1.2585363693935193e+01 1.0627005246708892e+01 7.8815933069249775e+00 0 0 0
1177 1 -1.4534212967118222e-06 1.2542047565085692e+01 8.3883756755445038e+00 8.9328340790032907e+00 0 0 0
1178 1 3.7773498603576951e-06 1.0045410670952652e+01 9.1747614730162024e+00 7.6056612117587816e+00 0 0 0
1179 1 3.4847454950333147e-07 1.1255725344669473e+01 8.7530447161248084e+00 9.7459090553441712e+00 0 0 0
1180 1 4.6767934085628691e-06 8.7763569952448570e+00 8.7067855728252610e+00 9.7800805144776728e+00 0 0 0
1181 1 -3.6572004200648071e-06 1.0051770325510338e+01 6.8756945002887777e+00 8.6754405138465565e+00 0 0 0
1182 1 -1.9295488379326895e-06 1.0028300679394622e+01 8.3883719065590103e+00 8.9117460398924688e+00 0 0 0
1186 1 3.1061619096848475e-06 7.5387292081606088e+00 6.8704615971710519e+00 8.6329209099511761e+00 0 0 0
1230 1 -1.2981998623276358e-06 1.3846306927952140e+01 8.7554684543925596e+00 9.7664872457799525e+00 0 0 0
1232 1 -1.0934245396364658e-06 1.5131699615860631e+01 8.3641144123220794e+00 8.9890150984174468e+00 0 0 0
1236 1 4.7402614924802379e-06 1.2562544079812042e+01 6.8635964903424345e+00 8.6835807901152098e+00 0 0 0
466 1 -5.4748538634143430e-06 1.8895608635067440e+01 7.2527011896968778e+00 3.5376224941502712e+00 0 0 0
467 1 -7.4835014632738884e-06 1.6324954731657204e+01 7.2063918781032887e+00 3.5232915744736419e+00 0 0 0
492 1 -3.9885389743615172e-06 2.1401700238377657e+01 7.1842505476987144e+00 3.4714104870261240e+00 0 0 0
783 1 -1.7418935676474655e-06 1.7626371211886145e+01 1.1388813627685375e+01 3.5639495457850190e+00 0 0 0
785 1 3.2380542382059880e-06 1.6353799432169492e+01 1.1798733567140863e+01 4.3380869386823893e+00 0 0 0
789 1 -5.1973317403449183e-06 1.6357646455899960e+01 1.1010292814908903e+01 5.6799561826953209e+00 0 0 0
791 1 -2.6406059479689001e-06 1.5094775549137909e+01 9.1220074291817781e+00 4.6105682430861012e+00 0 0 0
831 1 -5.6229328872935108e-08 2.1392732420780952e+01 1.1824740333117951e+01 4.3613872050057205e+00 0 0 0
832 1 1.4045508043503177e-06 1.8897799300482014e+01 1.1809234191223549e+01 4.3648638332687151e+00 0 0 0
834 1 -3.9486578462873260e-06 2.0104296344888485e+01 1.1441392979071029e+01 3.5473915500615667e+00 0 0 0
835 1 5.3501960968846779e-07 2.1420721959623222e+01 1.1127736994463207e+01 5.7151889651925725e+00 0 0 0
836 1 -1.0166225008972726e-06 1.8858371176730362e+01 1.1031473372845282e+01 5.6710651338551230e+00 0 0 0
837 1 -2.1275104675526627e-06 2.0160753921360492e+01 9.1475106641988262e+00 4.5908649414835221e+00 0 0 0
839 1 2.8016129573369335e-07 1.8924209774439920e+01 9.5327514983068706e+00 5.4007888297111277e+00 0 0 0
840 1 3.5869242625248259e-06 1.6341845901729968e+01 9.4578160504615134e+00 5.3991161152656737e+00 0 0 0
841 1 1.5635273086236499e-06 1.7583931453623382e+01 7.6026794281445369e+00 4.3791582666314675e+00 0 0 0
842 1 -4.5757196809099754e-06 1.7614563395101683e+01 9.1271803609824715e+00 4.6136634805473555e+00 0 0 0
843 1 -9.0851771094889844e-07 1.8912895195248559e+01 8.7231391620939007e+00 6.7279811260890527e+00 0 0 0
844 1 -2.2288498391517970e-06 1.6361973622934560e+01 8.7084498881832797e+00 6.7661916838482856e+00 0 0 0
845 1 -1.3580041133766187e-06 1.7613254655191152e+01 6.8385148044352899e+00 5.6779395815001985e+00 0 0 0
846 1 5.6760907671658692e-06 1.5071781430097564e+01 7.5883742336386932e+00 4.3626555654121795e+00 0 0 0
847 1 8.8905533229904110e-06 1.6323998379990098e+01 7.1944416196449570e+00 6.4953680695583360e+00 0 0 0
851 1 -2.1716871093103940e-06 1.6302517169588707e+01 6.4417819886815408e+00 7.9145436778080551e+00 0 0 0
874 1 1.8987374274374697e-06 2.1420802026371042e+01 9.4677564314205398e+00 5.4179332745229480e+00 0 0 0
875 1 -4.1693487317506346e-06 2.1435400309955124e+01 8.7196154661039902e+00 6.7688172240409035e+00 0 0 0
876 1 4.3673306230828130e-06 2.0123346329572797e+01 7.5541610094585137e+00 4.3185340680981135e+00 0 0 0
877 1 -2.1466349249922008e-06 2.1390493593436013e+01 7.2291704559694772e+00 6.3876025978031441e+00 0 0 0
878 1 3.4580939245471574e-06 1.8855097217309442e+01 7.2225043242495151e+00 6.5027531836261909e+00 0 0 0
880 1 2.4550461966416335e-07 2.0114915377625341e+01 6.8642626569320884e+00 5.6563613317179762e+00 0 0 0
881 1 -4.6740535128410628e-06 2.1394580184623070e+01 6.4965929356655217e+00 7.8320815109916202e+00 0 0 0
882 1 -1.2513670918632476e-06 1.8878184632947853e+01 6.4627045050147434e+00 7.8631160676672627e+00 0 0 0
1167 1 -5.5538797949850617e-06 1.6406486947957962e+01 1.2498304165499302e+01 8.8211051153821742e+00 0 0 0
1169 1 7.5158426974532222e-07 1.5104171187621478e+01 1.0605542011000734e+01 7.8349246245299424e+00 0 0 0
1215 1 2.1817835018756862e-06 2.0144405261597562e+01 1.1423474508344189e+01 6.4408036134205613e+00 0 0 0
1217 1 -1.0018842210511628e-05 2.1441067718807815e+01 1.2528011839963844e+01 8.8963468906318237e+00 0 0 0
1218 1 -2.7269209901827311e-06 1.8903502851714123e+01 1.2559323952026949e+01 8.8792792083493381e+00 0 0 0
1219 1 -1.2166616643691742e-06 2.0168782194272378e+01 1.0679285170282931e+01 7.8508315131509177e+00 0 0 0
1220 1 1.6209063586342358e-06 1.7623244658249472e+01 1.1422759034456353e+01 6.4413667585185035e+00 0 0 0
1221 1 7.8995012323463354e-06 1.8903853587926555e+01 1.1043390543482397e+01 8.6236045941234210e+00 0 0 0
1222 1 1.6085537846413886e-06 1.6337866163045057e+01 1.0997755614422340e+01 8.6464558369505209e+00 0 0 0
1223 1 6.8215912708658474e-07 1.7598148324192415e+01 9.0800703229053372e+00 7.5400835078181476e+00 0 0 0
1224 1 -3.2519301055666210e-06 1.7603243277369085e+01 1.0622993451600589e+01 7.7509610871200962e+00 0 0 0
1227 1 -4.6210864145883446e-06 1.7681960121761286e+01 8.3433761714106343e+00 8.9707484789662395e+00 0 0 0
1228 1 2.1065058633467883e-06 1.5157484403598932e+01 9.0271190162390944e+00 7.5755468411993050e+00 0 0 0
1229 1 4.6036238229842003e-06 1.6413875836826271e+01 8.7134845166184487e+00 9.7699139925102614e+00 0 0 0
1231 1 4.8455669189335797e-06 1.5096347219596675e+01 6.8225512568762410e+00 8.7303253496110589e+00 0 0 0
1260 1 2.4104562337464537e-06 2.1406333699929004e+01 1.1045767817513486e+01 8.6143374439590144e+00 0 0 0
1262 1 -1.5551052433771313e-06 2.0187329621391193e+01 9.1003415388298645e+00 7.6051746367879174e+00 0 0 0
1263 1 1.9362271129877195e-06 2.1387434763212294e+01 8.7435389946272615e+00 9.7591885659669941e+00 0 0 0
1264 1 -1.3333518731441373e-06 1.8924871884251591e+01 8.7381510403262670e+00 9.7461957047570458e+00 0 0 0
1265 1 1.7091523713721471e-06 2.0158945077084265e+01 6.8597471417832780e+00 8.5929211952694917e+00 0 0 0
1266 1 3.2210878220384071e-06 2.0136253859599577e+01 8.3532945396812277e+00 8.9180669034878992e+00 0 0 0
1270 1 -8.7327316825745242e-07 1.7591809778237636e+01 6.8352776510612019e+00 8.7188606485367828e+00 0 0 0
576 1 1.0440681792781652e-06 1.2588312721066504e+00 1.5561021678742426e+01 3.5527557782539358e+00 0 0 0
611 1 -7.6823513761209387e-06 6.2843778383951792e+00 1.5553095402091914e+01 3.5617240746709480e+00 0 0 0
612 1 8.0902163814301488e-07 3.7805914846319375e+00 1.5560613691291286e+01 3.5473755738422135e+00 0 0 0
619 1 -6.2200947940604920e-06 3.8134124464228076e+00 1.3350101652798971e+01 4.5498044890813354e+00 0 0 0
620 1 2.9411683672143498e-06 1.2686411473323762e+00 1.3311203464491237e+01 4.6393587521583077e+00 0 0 0
670 1 -7.5086484987176785e-07 6.3209351298754690e+00 1.3326048697608732e+01 4.6096705095326991e+00 0 0 0
957 1 -1.8575068753452799e-06 2.5239104986088714e+00 1.7482559946627482e+01 4.5788294271518337e+00 0 0 0
959 1 -2.3051694881111403e-06 1.2785188217230918e+00 1.7822877029997269e+01 5.4065717438401331e+00 0 0 0
960 1 2.2016136220580792e-06 2.2655385982575215e+01 1.5928655084618375e+01 4.2727530644167011e+00 -1 0 0
961 1 3.2302995096979243e-06 7.0738270368229331e-04 1.7478539963602241e+01 4.6050963103080980e+00 0 0 0
962 1 -2.1606438210393118e-06 1.2227835632062254e+00 1.7124418488644203e+01 6.7706617919633487e+00 0 0 0
963 1 -2.6759008145361484e-06 2.2688166483585977e+01 1.5253400909888063e+01 5.6604539467557249e+00 -1 0 0
989 1 1.4430740863785954e-06 6.3736496711144728e+00 1.7890417106466462e+01 5.4394320503824050e+00 0 0 0
990 1 7.7970492297159699e-08 3.7794998992439766e+00 1.7834581034608437e+01 5.4395070047116612e+00 0 0 0
991 1 5.8242119570302401e-06 5.1067727893403339e+00 1.5975202482541230e+01 4.3806081358385294e+00 0 0 0
992 1 -4.6162993798246100e-06 5.0394087498623517e+00 1.7479817931647879e+01 4.6684185874521438e+00 0 0 0
993 1 2.0082332448833668e-06 6.3140016072137790e+00 1.7140272739110529e+01 6.7955122706178468e+00 0 0 0
994 1 -7.4517549868491416e-07 3.7498761980937845e+00 1.7077197678739623e+01 6.7504442742798307e+00 0 0 0
995 1 -1.7993894807168226e-06 5.0579241702574231e+00 1.5240810288422082e+01 5.7188095480046517e+00 0 0 0
996 1 4.5440887165115668e-06 2.5354402414714996e+00 1.5945201285198559e+01 4.3090475661363650e+00 0 0 0
997 1 3.4263506907526239e-06 3.7679019459660172e+00 1.5544810023145402e+01 6.5659829141123289e+00 0 0 0
998 1 -1.1234401336980235e-06 1.2717367199540173e+00 1.5591297380106560e+01 6.4806755801063680e+00 0 0 0
999 1 -1.4452833123258940e-06 2.5495488904627033e+00 1.3688814950377559e+01 5.3798937039282420e+00 0 0 0
1000 1 -1.1384926886850732e-07 2.5721374992922401e+00 1.5206461140836510e+01 5.7314996894866033e+00 0 0 0
1001 1 3.0535390409694334e-07 3.7859987790297382e+00 1.4790994542591008e+01 7.9130653156310418e+00 0 0 0
1002 1 -1.4180526022818774e-06 1.2839971004777193e+00 1.4844728719128925e+01 7.8658741652303350e+00 0 0 0
1003 1 -1.2844470392498544e-06 2.5336105216275695e+00 1.2920341786962860e+01 6.7550668943588823e+00 0 0 0
1004 1 3.6255334451875589e-06 4.2728538528319621e-02 1.3689103040404003e+01 5.4040077160343474e+00 0 0 0
1005 1 4.7059155860383898e-06 1.2899346222046206e+00 1.3360748670494859e+01 7.5227859483595862e+00 0 0 0
1007 1 -2.9991388255616116e-06 3.4843586956094061e-02 1.3001803245899163e+01 6.8050327726077242e+00 0 0 0
1044 1 -1.5591648666100385e-06 6.2915236816039419e+00 1.5590143729082801e+01 6.5273111500089520e+00 0 0 0
1046 1 6.9106673660266169e-08 7.5893049680765294e+00 1.5270554403343416e+01 5.7097219015283258e+00 0 0 0
1048 1 -4.1550563730710342e-06 6.2708605474296428e+00 1.4845186634887119e+01 7.8398778286617672e+00 0 0 0
1049 1 -1.9889313972492102e-06 7.5049894724419302e+00 1.2938451395838367e+01 6.7924813635473882e+00 0 0 0
1050 1 1.4407597494965729e-06 5.1046935269501610e+00 1.3736103620217293e+01 5.4147267629091909e+00 0 0 0
1051 1 3.9511766104713319e-07 6.2949895727401710e+00 1.3306524025137486e+01 7.6503451869961934e+00 0 0 0
1052 1 3.9240075938827980e-06 3.7591313987915256e+00 1.3284709028143496e+01 7.5841623103371285e+00 0 0 0
1054 1 -6.7044002426968036e-07 5.0004187052792108e+00 1.2925261860981792e+01 6.7919163376751301e+00 0 0 0
1343 1 2.1539971582660786e-06 2.2661684634840366e+01 1.7494745069795435e+01 7.6523948984437720e+00 -1 0 0
1346 1 -2.3941598023652575e-06 2.4182212932006952e-02 1.6711393601126012e+01 8.9787812969187328e+00 0 0 0
1368 1 1.9307908261391973e-06 5.0720424004239222e+00 1.7454839916430725e+01 7.5941936188352077e+00 0 0 0
1372 1 -1.5837404912609831e-06 5.0701313993060140e+00 1.6708360799405909e+01 8.9539783831483781e+00 0 0 0
1373 1 2.5795855944220074e-06 2.5323205977369128e+00 1.7501069560851214e+01 7.5507644066042010e+00 0 0 0
1374 1 1.9992152163330563e-06 3.7714647499219134e+00 1.7118419412294980e+01 9.7442223087307873e+00 0 0 0
1375 1 5.4953905027077608e-06 1.3364016266312184e+00 1.7143552232201142e+01 9.7406862536501500e+00 0 0 0
1376 1 7.1279700643085095e-07 2.5269465997206582e+00 1.5228893991117081e+01 8.6534790132367139e+00 0 0 0
1377 1 -2.3582209762699049e-06 2.5275668275086534e+00 1.6765580122284529e+01 8.8930382360900104e+00 0 0 0
1381 1 3.0022918993605654e-06 2.2644496793280190e+01 1.5156043537823447e+01 8.6810247140782710e+00 -1 0 0
1383 1 4.9424672987468089e-06 3.7541650778438887e-03 1.2908629903862719e+01 9.7066676159190255e+00 0 0 0
1415 1 3.8870175564243880e-07 6.3281568594985940e+00 1.7035512288593942e+01 9.7089232772371687e+00 0 0 0
1417 1 -2.2364691966426377e-06 7.6295887103187319e+00 1.6733188404527617e+01 8.9358331072668644e+00 0 0 0
1421 1 4.3498280932134341e-08 5.0533767960192471e+00 1.5188190594369020e+01 8.7296537916882144e+00 0 0 0
1424 1 4.7158202354831032e-06 4.9916454256359417e+00 1.2933777847702848e+01 9.7464280324928758e+00 0 0 0
1429 1 3.9346723717465533e-06 2.4689469688067991e+00 1.2922754933858604e+01 9.6989488296027133e+00 0 0 0
1483 1 9.6142205355350104e-06 7.5634368141955868e+00 1.2944458006755585e+01 9.8154776474437462e+00 0 0 0
661 1 -5.4381974424478972e-06 1.1367989008506651e+01 1.5612369124151913e+01 3.5615190106997239e+00 0 0 0
662 1 -2.4923682043003658e-06 8.8872909488375811e+00 1.5557874961088030e+01 3.5427705003230532e+00 0 0 0
669 1 -6.2997604464607555e-06 8.8031036021069546e+00 1.3322670520884023e+01 4.6340071523371131e+00 0 0 0
718 1 -7.2106954057693808e-06 1.3889866897217335e+01 1.5588340688135403e+01 3.4911435894887695e+00 0 0 0
725 1 -2.8327560301715451e-06 1.3847009666185700e+01 1.3324358524300552e+01 4.6150197058808358e+00 0 0 0
726 1 -6.2852355834238718e-06 1.1339221712910518e+01 1.3320350737165873e+01 4.6188442854436396e+00 0 0 0
987 1 -5.2980754836082317e-06 7.5776407797358480e+00 1.7471526623761672e+01 4.5977682207589101e+00 0 0 0
1033 1 -5.8948698589983831e-06 1.2604652403397600e+01 1.7498244562366143e+01 4.6588639094378133e+00 0 0 0
1035 1 7.6713522105920972e-06 1.1347571662972125e+01 1.7857023016483726e+01 5.4509792243057413e+00 0 0 0
1036 1 5.9024587193433750e-06 8.8235190157885608e+00 1.7904097076752866e+01 5.4254541461664152e+00 0 0 0
1037 1 2.6663349560801936e-06 1.0075110481145094e+01 1.5990214246126536e+01 4.3604218520035403e+00 0 0 0
1038 1 -6.2355355477072506e-06 1.0077132336640407e+01 1.7490213848409116e+01 4.6531639441568879e+00 0 0 0
1039 1 -2.9528426536366469e-06 1.1381995526406737e+01 1.7070026222800529e+01 6.8023046657334945e+00 0 0 0
1040 1 -5.5606480562572552e-08 8.8138228265840048e+00 1.7142361563851324e+01 6.7633665078626137e+00 0 0 0
1041 1 -3.7165670622189431e-06 1.0033226203759057e+01 1.5224641296464821e+01 5.7685190183167299e+00 0 0 0
1042 1 6.4738194362925240e-06 7.6059567798789658e+00 1.5877223356888196e+01 4.3477739969140536e+00 0 0 0
1043 1 2.2957079188328028e-06 8.8346376840643153e+00 1.5581519162904717e+01 6.5739494561500607e+00 0 0 0
1045 1 7.7745092552738424e-06 7.5752961002794237e+00 1.3720350312665476e+01 5.4524582295794266e+00 0 0 0
1047 1 -2.1463481146649479e-06 8.8411728023927640e+00 1.4783156050278674e+01 7.9170733894799090e+00 0 0 0
1092 1 8.1482797062412302e-06 1.3835399726405708e+01 1.7855747975618542e+01 5.4455046998036316e+00 0 0 0
1094 1 -1.6890259239966473e-06 1.5094097832745252e+01 1.7453509108033341e+01 4.6109428704903905e+00 0 0 0
1096 1 -8.5443565450951719e-06 1.3873461278780866e+01 1.7094132609775347e+01 6.7371738178906790e+00 0 0 0
1097 1 1.4889615207978479e-06 1.5200243312732923e+01 1.5203025416172478e+01 5.6841373238243342e+00 0 0 0
1098 1 5.6119517059041935e-06 1.2647300504462704e+01 1.5970684848809201e+01 4.3426628984758109e+00 0 0 0
1099 1 8.3156861556446083e-07 1.3837072587691042e+01 1.5541831776062921e+01 6.5279745403588514e+00 0 0 0
1100 1 3.7972901961882026e-07 1.1390075478060597e+01 1.5615028236230435e+01 6.5022107674540637e+00 0 0 0
1101 1 6.5954517186762179e-06 1.2564919317824961e+01 1.3649156359432386e+01 5.4130501487801554e+00 0 0 0
1102 1 -1.1679091640935563e-06 1.2618455352670438e+01 1.5235314064919935e+01 5.7186872502160595e+00 0 0 0
1103 1 9.8216660866808675e-07 1.3854471800300816e+01 1.4788055980727830e+01 7.8769490331774996e+00 0 0 0
1104 1 4.6835810021222868e-06 1.1341467439720715e+01 1.4844995759206220e+01 7.8336762724588818e+00 0 0 0
1105 1 -2.9833273518444864e-06 1.2561212181607697e+01 1.2913790608676830e+01 6.7952832720620462e+00 0 0 0
1106 1 2.5212435315016978e-06 1.0077276748909103e+01 1.3705806032848930e+01 5.4440814450114612e+00 0 0 0
1107 1 5.9162860876822203e-06 1.1292605219670028e+01 1.3326768541136948e+01 7.5801000068388786e+00 0 0 0
1108 1 2.2524003844470135e-06 8.7817445233248179e+00 1.3274722890672150e+01 7.5941266799454112e+00 0 0 0
1110 1 -5.4338098846419589e-06 1.0017319321500398e+01 1.2934163969146443e+01 6.7719350835012895e+00 0 0 0
1162 1 3.6591908257321229e-06 1.5155628842002248e+01 1.3709257319312762e+01 5.3735208203539244e+00 0 0 0
1164 1 -6.7513469404399105e-07 1.3808217084800090e+01 1.3289879167873201e+01 7.5896011803675334e+00 0 0 0
1166 1 -2.0281571573686315e-06 1.5098533953731886e+01 1.2990819239209511e+01 6.6837275093488184e+00 0 0 0
1408 1 3.3502834791361539e-07 1.0101343691272390e+01 1.7513624124405233e+01 7.6271718049519084e+00 0 0 0
1412 1 1.5109770153206003e-07 1.0065595174226113e+01 1.6748972790820247e+01 8.9374609710575328e+00 0 0 0
1413 1 1.5463023677478906e-06 7.5621638010081753e+00 1.7486575918535184e+01 7.6326103119507378e+00 0 0 0
1414 1 3.3341076926715196e-06 8.8206259427434262e+00 1.7129722460672056e+01 9.7672676371277340e+00 0 0 0
1416 1 3.7945648740433485e-06 7.5587492807114955e+00 1.5171962095045279e+01 8.6540756663113854e+00 0 0 0
1466 1 1.2426339674866774e-06 1.5128063981943100e+01 1.6723668023965548e+01 8.9631025668329709e+00 0 0 0
1467 1 4.1670199315335415e-06 1.2641345157575705e+01 1.7491775466562675e+01 7.5841870418906501e+00 0 0 0
1468 1 4.2778275622925709e-06 1.3875251149980180e+01 1.7143733713999925e+01 9.7410992198208213e+00 0 0 0
1469 1 -6.0920130602462420e-07 1.1338660307343776e+01 1.7083186346314502e+01 9.7977823529515877e+00 0 0 0
1470 1 2.2582372674369987e-06 1.2631080559689508e+01 1.5211566260981471e+01 8.6541340055558500e+00 0 0 0
1471 1 -2.0666659240751950e-06 1.2670461115609758e+01 1.6717895797189374e+01 8.8875531970846495e+00 0 0 0
1475 1 -2.3911648053513893e-06 1.0126500538079112e+01 1.5214126856539046e+01 8.6776125183711859e+00 0 0 0
1478 1 8.6771071820794927e-06 1.0075446844942816e+01 1.2894658216685421e+01 9.7098962054416713e+00 0 0 0
1531 1 1.2874952506592907e-06 1.5130074019396840e+01 1.5196156217314790e+01 8.6717000936492248e+00 0 0 0
1534 1 2.7902699409870119e-06 1.5160541317741714e+01 1.2863178162355338e+01 9.7298599037651670e+00 0 0 0
1539 1 -1.4960728288904581e-06 1.2619948156596079e+01 1.2978332839027360e+01 9.7202514528425059e+00 0 0 0
717 1 -4.4282917011099490e-06 1.6438691676374138e+01 1.5597447238712732e+01 3.5341959415919941e+00 0 0 0
773 1 -1.5429363980093601e-06 2.1463760979709733e+01 1.5624297941601856e+01 3.4162332308733148e+00 0 0 0
774 1 -1.4804792399195669e-06 1.8881317041373467e+01 1.5619086566413491e+01 3.5281834885875067e+00 0 0 0
781 1 -7.4770887154176243e-06 1.8869155767373964e+01 1.3382369543764678e+01 4.6012737932032222e+00 0 0 0
782 1 -1.3649686219052619e-06 1.6395947507519494e+01 1.3360734030523272e+01 4.5843068741359057e+00 0 0 0
829 1 -5.8387402421200040e-06 2.1461792557275704e+01 1.3362655510696339e+01 4.5654545424137112e+00 0 0 0
1089 1 -5.5117325790353236e-06 1.7629091577368101e+01 1.7498914970505538e+01 4.6551838140230037e+00 0 0 0
1091 1 2.3853046479949476e-06 1.6410869956468659e+01 1.7887815044073058e+01 5.4902654828861879e+00 0 0 0
1093 1 4.0055220768332314e-06 1.5123623677927590e+01 1.5946376096330992e+01 4.3448845239497826e+00 0 0 0
1095 1 -1.0801452378202992e-06 1.6410911760445952e+01 1.7154432476190170e+01 6.8203031170268069e+00 0 0 0
1147 1 5.0888187064422964e-07 2.1479985279664248e+01 1.7904386850213797e+01 5.4609002483931013e+00 0 0 0
1148 1 2.5242305169291651e-06 1.8929913913499277e+01 1.7948201569009004e+01 5.3818572159941409e+00 0 0 0
1149 1 3.1409925434799067e-06 2.0172131931677487e+01 1.6022260762786448e+01 4.3060608668222873e+00 0 0 0
1150 1 -5.0409866548775657e-06 2.0218012720709250e+01 1.7551758341977422e+01 4.6145640875772376e+00 0 0 0
1151 1 -3.2713475660973008e-08 2.1432395133181792e+01 1.7071696210642717e+01 6.8123512869308431e+00 0 0 0
1152 1 -3.1206120433895411e-06 1.8957627797595940e+01 1.7123755889697996e+01 6.7496044406268068e+00 0 0 0
1153 1 -4.7994553731590492e-06 2.0206325689283616e+01 1.5252464798288511e+01 5.6065433462970642e+00 0 0 0
1154 1 5.2728799835908477e-06 1.7664057410285729e+01 1.5984612240246536e+01 4.3196579590416144e+00 0 0 0
1155 1 4.7883048455619666e-06 1.8913381191244671e+01 1.5616865356134081e+01 6.4935374104187336e+00 0 0 0
1156 1 2.3631285075024532e-06 1.6394990204186414e+01 1.5647871854947805e+01 6.5384865512053656e+00 0 0 0
1157 1 4.4868991236156588e-06 1.7659891972148774e+01 1.3743547402691998e+01 5.3918951201044383e+00 0 0 0
1158 1 -6.6940768625318631e-06 1.7691310652611829e+01 1.5252938492209172e+01 5.7125244263337125e+00 0 0 0
1159 1 -6.5810019909309764e-06 1.8876516433922550e+01 1.4874519762792033e+01 7.8316214257796268e+00 0 0 0
1160 1 1.1035387393440831e-06 1.6396847264275980e+01 1.4799278582460378e+01 7.8485001348974270e+00 0 0 0
1161 1 -5.1424884443653231e-06 1.7652333995859518e+01 1.2992786148935100e+01 6.7651826001456437e+00 0 0 0
1163 1 2.9371723687273651e-06 1.6387355254441996e+01 1.3338452071492227e+01 7.5446832187251625e+00 0 0 0
1210 1 2.3978455616249317e-06 2.1444611469340263e+01 1.5574207626211608e+01 6.5306366469963573e+00 0 0 0
1211 1 -7.0206255368067926e-06 2.1441382403589419e+01 1.4783275092858966e+01 7.8394001215548430e+00 0 0 0
1212 1 9.2192847250652863e-06 2.0158980759081818e+01 1.3744694342041443e+01 5.4051595697486325e+00 0 0 0
1213 1 4.9526857897511446e-06 2.1425748446612484e+01 1.3287779252916829e+01 7.5895184255553803e+00 0 0 0
1214 1 6.5319889483696321e-06 1.8947479590405262e+01 1.3318487901915610e+01 7.5610243569851949e+00 0 0 0
1216 1 -4.5839933343414147e-06 2.0185795185079801e+01 1.2970702443994506e+01 6.7004758111041864e+00 0 0 0
1462 1 9.8374509937055956e-07 1.5127035444683059e+01 1.7501782378601046e+01 7.6026357662252622e+00 0 0 0
1518 1 2.6289092607411107e-06 2.0166223867139799e+01 1.7454998752291839e+01 7.5546431144562591e+00 0 0 0
1522 1 -1.1219094852471729e-06 2.0155176171566474e+01 1.6733627163157120e+01 8.9112390776928461e+00 0 0 0
1523 1 2.1444130601049729e-06 1.7702189469144407e+01 1.7515169591878088e+01 7.5714358684409238e+00 0 0 0
1524 1 1.8503000246848674e-06 1.8878735035310189e+01 1.7146218959862054e+01 9.7710859514184634e+00 0 0 0
1525 1 4.2990307153772688e-07 1.6404682441734160e+01 1.7098370057983537e+01 9.7381507843005011e+00 0 0 0
1526 1 2.6654312741121921e-06 1.7633216145395604e+01 1.5228668490473844e+01 8.6264072595868519e+00 0 0 0
1527 1 -2.7813913187742665e-08 1.7679355420734208e+01 1.6766338182122766e+01 8.9242414195312296e+00 0 0 0
1582 1 -2.7435388558089547e-06 2.1407788714750200e+01 1.7104982871582230e+01 9.7596739824926129e+00 0 0 0
1584 1 3.4476538117490963e-06 2.0175431951714625e+01 1.5243625300270219e+01 8.6806974472158860e+00 0 0 0
1587 1 3.8400114645281273e-06 2.0196209751674488e+01 1.2919066469960230e+01 9.7065742026061805e+00 0 0 0
1592 1 2.9370484783096247e-06 1.7609828223685756e+01 1.2944474271041441e+01 9.6559148222450606e+00 0 0 0
925 1 -1.4008424795675274e-06 3.7911731345264390e+00 2.3956593788514756e+01 3.5552396764619716e+00 0 0 0
926 1 -1.6777016699707274e-06 1.2080025586162122e+00 2.3959904195923858e+01 3.4630717365134296e+00 0 0 0
932 1 -4.1607365902559689e-06 1.2350918977670842e+00 2.1673628080183921e+01 4.5694303794631281e+00 0 0 0
933 1 1.7563417870524721e-06 2.2669208098607996e+01 1.9792765195930130e+01 3.5182433101982014e+00 -1 0 0
940 1 -3.8610559194865188e-06 6.2580934696996717e+00 2.3962616039324704e+01 3.4322444474518035e+00 0 0 0
947 1 -4.1788979975878021e-06 6.3225728374168719e+00 2.1709486886884591e+01 4.5828340030759014e+00 0 0 0
948 1 -1.9418238987652247e-06 3.7853242687190125e+00 2.1657562470923803e+01 4.6060301941106765e+00 0 0 0
949 1 2.1108593952271655e-06 5.0170160818988689e+00 1.9752223498872841e+01 3.4668261753172809e+00 0 0 0
951 1 -2.0130842183790756e-06 3.7996913029122004e+00 2.0134862419904330e+01 4.3217467417959172e+00 0 0 0
952 1 3.1974985795018769e-07 1.2017882227313501e+00 2.0173408043805026e+01 4.3459942749617104e+00 0 0 0
954 1 2.5293376737073168e-06 2.5490088512596962e+00 1.9801360919336641e+01 3.4911903577280481e+00 0 0 0
955 1 2.4132676317001026e-06 3.7362927917124931e+00 1.9391346967390962e+01 5.7250411174179767e+00 0 0 0
956 1 1.5337919956597725e-06 1.1634581816606313e+00 1.9429696460336451e+01 5.6979356701589792e+00 0 0 0
982 1 4.4661100493781323e-06 6.3277715989902861e+00 2.0144733750546553e+01 4.2721567885117064e+00 0 0 0
984 1 -5.0586746834135210e-07 7.5877725422393389e+00 1.9775402717565374e+01 3.5061671647247934e+00 0 0 0
986 1 -5.8611994901308890e-06 6.3191151545943463e+00 1.9383476172648599e+01 5.6340001062950948e+00 0 0 0
1315 1 1.0064005667180262e-06 2.5410610475781441e+00 2.4294399651557701e+01 4.3348047714198108e+00 0 0 0
1316 1 -5.7211184607334456e-06 2.4764825043184024e+00 2.3586087048086881e+01 5.6568600923483281e+00 0 0 0
1317 1 5.3201438746763971e-06 5.1031699577671541e-03 2.4340121100909833e+01 4.3471414639431858e+00 0 0 0
1318 1 -2.2711516853614052e-06 1.3080497860341351e+00 2.3958918008928421e+01 6.4717828974960154e+00 0 0 0
1319 1 1.5398960941572592e-06 8.6551626358619127e-03 2.2012878500377511e+01 5.4071031773326235e+00 0 0 0
1320 1 -2.7334276577673041e-06 2.2679808537981682e+01 2.3586817958530730e+01 5.6743588619158345e+00 -1 0 0
1321 1 -1.4672980058207391e-06 1.2680909456625835e+00 2.3229594557285207e+01 7.8656864239430284e+00 0 0 0
1322 1 6.4651968493981041e-06 3.2971020674900271e-02 2.1305184844383877e+01 6.7669175141263054e+00 0 0 0
1325 1 4.4590509478673586e-06 5.0566663667517640e+00 2.4351444183643210e+01 4.3060890551960798e+00 0 0 0
1326 1 2.2937407108161584e-06 6.2869680934515344e+00 2.3993141200495529e+01 6.4931472568012323e+00 0 0 0
1327 1 5.1765369393086331e-06 3.7863341988475696e+00 2.3926829010016466e+01 6.4996202538473327e+00 0 0 0
1328 1 -1.9957767731588673e-07 5.0609087061992941e+00 2.2030477768011615e+01 5.4283235970678891e+00 0 0 0
1329 1 -1.5444849191661970e-06 5.0596623707193675e+00 2.3573938823221496e+01 5.6781517149333229e+00 0 0 0
1330 1 -5.2125132098869430e-06 6.3067200394059828e+00 2.3204507981345873e+01 7.8492029314909475e+00 0 0 0
1331 1 -6.3806750456156987e-06 3.7944994375596410e+00 2.3216550230343643e+01 7.8311673275876688e+00 0 0 0
1332 1 -7.1838916931470585e-07 5.0474120032064036e+00 2.1311657518307076e+01 6.7500282905198201e+00 0 0 0
1333 1 3.7781704476641701e-06 2.5342409263233656e+00 2.2053720861961278e+01 5.3828643467134869e+00 0 0 0
1334 1 4.2691018062380479e-07 3.7699930885190938e+00 2.1717778218858964e+01 7.6201190770806235e+00 0 0 0
1335 1 -1.6460913870845800e-06 1.2628056130065233e+00 2.1672879777205722e+01 7.5187513640942552e+00 0 0 0
1336 1 -9.3056068449424365e-07 2.4942889216879642e+00 1.9791785648960605e+01 6.5036384959050162e+00 0 0 0
1337 1 3.0753118672547591e-06 2.4725450276458134e+00 2.1330158170066802e+01 6.7415426493651571e+00 0 0 0
1338 1 -4.2157436066334444e-06 3.8041142674474910e+00 2.0922406758513361e+01 8.9595448737728205e+00 0 0 0
1339 1 -4.1149383897967956e-07 1.2868522459720066e+00 2.0944484181690715e+01 8.9262269193954111e+00 0 0 0
1340 1 -1.5782917607464518e-06 2.5348783750967838e+00 1.9045433330538575e+01 7.8596379228758577e+00 0 0 0
1341 1 -4.0768370988362919e-06 2.2642589142110555e+01 1.9781893147133964e+01 6.5205951003852656e+00 -1 0 0
1342 1 7.7936322865451286e-09 1.2845642375787891e+00 1.9441261562470721e+01 8.6320707836740329e+00 0 0 0
1344 1 4.7654537270324430e-06 5.6855452494758082e-04 1.9041189487268522e+01 7.8540650745175151e+00 0 0 0
1357 1 3.2200197906331343e-06 7.5256317911704249e+00 2.2092667713409096e+01 5.3915499454575206e+00 0 0 0
1359 1 1.8719212127593243e-06 6.3421273514781120e+00 2.1671381919295658e+01 7.5296088284029263e+00 0 0 0
1360 1 1.1339326563848525e-06 7.5622804282108662e+00 1.9800694872833805e+01 6.4927013894855703e+00 0 0 0
1361 1 2.3749034636196421e-07 7.5348534759035983e+00 2.1285339579270943e+01 6.7085842254749330e+00 0 0 0
1363 1 -1.7019893641484592e-06 6.3892067469945033e+00 2.0912480812367583e+01 8.9439274352890052e+00 0 0 0
1365 1 3.3414134369356372e-06 5.0822272802141786e+00 1.9768340665746059e+01 6.4974020761903502e+00 0 0 0
1366 1 1.8820410875326865e-06 6.3284644127575618e+00 1.9432598469187688e+01 8.6785376202785613e+00 0 0 0
1367 1 1.4025110407332012e-06 3.7753362123421366e+00 1.9410783941258927e+01 8.6236185435703820e+00 0 0 0
1369 1 -4.2797123651975029e-07 5.0748841041986115e+00 1.9062069776054404e+01 7.8069032486625396e+00 0 0 0
1702 1 1.3394036198535089e-06 2.2670635343999503e+01 2.3597835104767821e+01 8.6521414713160549e+00 -1 0 0
1705 1 2.6367169609792923e-06 5.0984882984139350e+00 2.3521285567570391e+01 8.6937298623565873e+00 0 0 0
1709 1 2.1996932031064868e-06 2.5550113091451574e+00 2.3608009073563895e+01 8.6591247820665398e+00 0 0 0
1712 1 4.2939526591313369e-06 2.5392027709944038e+00 2.1288669335008017e+01 9.7706341272133681e+00 0 0 0
1717 1 -7.6943409545217648e-07 2.2664489795794175e+01 2.1290680528306929e+01 9.7219589979985344e+00 -1 0 0
1727 1 2.6673638442556237e-06 7.5856385598582206e+00 2.3579165963144419e+01 8.6898539010116220e+00 0 0 0
1730 1 4.2754128395747096e-06 7.6329130179810027e+00 2.1304847754027513e+01 9.7751045523224480e+00 0 0 0
1735 1 7.9240282659330553e-06 5.0455164757022128e+00 2.1255922168722027e+01 9.7672282641974473e+00 0 0 0
939 1 -1.9990362383908780e-06 8.8255557428371425e+00 2.3940084093497006e+01 3.4904902059937051e+00 0 0 0
969 1 -2.0302912701047794e-06 1.3890285258509893e+01 2.3924950025558363e+01 3.4852982023416148e+00 0 0 0
970 1 -5.4968001014922658e-07 1.1329308926263749e+01 2.3891038903551117e+01 3.5163578594695148e+00 0 0 0
977 1 -9.3233775451228606e-07 1.1377656409808841e+01 2.1641050310276743e+01 4.6701533086614146e+00 0 0 0
978 1 -2.0633189873395282e-06 8.8379315537437435e+00 2.1613453435666639e+01 4.5976212994804229e+00 0 0 0
979 1 -4.0114458230969329e-06 1.0077471040425644e+01 1.9731042747740300e+01 3.5523950104686035e+00 0 0 0
981 1 3.6886500544688478e-06 8.8115633864857141e+00 2.0049000621114480e+01 4.3427508891183102e+00 0 0 0
985 1 -4.9775400020900585e-06 8.8339571657525546e+00 1.9362959313913382e+01 5.7134957610249693e+00 0 0 0
1024 1 7.8021907306450178e-07 1.3895609546502591e+01 2.1610855193829046e+01 4.5855493004480756e+00 0 0 0
1025 1 -2.3655054461007148e-07 1.5070584964617758e+01 1.9768062970506183e+01 3.5077884576667646e+00 0 0 0
1027 1 2.6890792790111505e-06 1.3836441545030988e+01 2.0166442207919076e+01 4.2936107158006660e+00 0 0 0
1028 1 3.6262887471191943e-06 1.1392850621250243e+01 2.0112255759824659e+01 4.3569729227052134e+00 0 0 0
1030 1 -1.4406924892367427e-06 1.2619569759396814e+01 1.9783723340895310e+01 3.5085850699024790e+00 0 0 0
1031 1 -1.0363378581440413e-05 1.3824601779628086e+01 1.9410812299735877e+01 5.7105433479215817e+00 0 0 0
1032 1 -6.2969848886987762e-06 1.1349455936407054e+01 1.9374728356410806e+01 5.6876604373657216e+00 0 0 0
1323 1 1.2616148923792503e-06 7.5887703346337121e+00 2.4374297660887258e+01 4.2883723028791048e+00 0 0 0
1324 1 -3.2671616512264413e-06 7.5332715908377326e+00 2.3592410517462731e+01 5.6715106520579566e+00 0 0 0
1347 1 3.5518253329984825e-06 1.2610892830199743e+01 2.4242711541358581e+01 4.2939231092864567e+00 0 0 0
1348 1 -2.7947113616067989e-06 1.2682073852969260e+01 2.3488207349608928e+01 5.6747323824139260e+00 0 0 0
1349 1 2.6139948806379792e-06 1.0010688527421028e+01 2.4288052491211690e+01 4.4128145213050471e+00 0 0 0
1350 1 1.9358638513272311e-06 1.1427395099588933e+01 2.3935640576907399e+01 6.4932166756899772e+00 0 0 0
1351 1 2.8892563475887122e-06 8.7996498308157545e+00 2.3908201429905134e+01 6.5294780406520232e+00 0 0 0
1352 1 4.9106011683429010e-06 1.0113207307087935e+01 2.1999741946315794e+01 5.4252774377540609e+00 0 0 0
1353 1 -1.7784491276441715e-06 1.0076775815685412e+01 2.3534784806901001e+01 5.7127346253873084e+00 0 0 0
1354 1 -3.8110316897887165e-06 1.1369063478472457e+01 2.3179350982281775e+01 7.8382203748747790e+00 0 0 0
1355 1 -2.5393319626991555e-06 8.8722328614386239e+00 2.3146547801621750e+01 7.8705449363395310e+00 0 0 0
1356 1 -5.3176826647928132e-06 1.0079271895037477e+01 2.1278276573856608e+01 6.7625657397366332e+00 0 0 0
1358 1 2.5939190026805414e-06 8.8539208657212836e+00 2.1618800891262669e+01 7.5775304845124136e+00 0 0 0
1362 1 -3.6204445477523902e-06 8.8489923775818475e+00 2.0887201039323912e+01 8.9165648351753948e+00 0 0 0
1364 1 -1.5246372184611680e-06 7.5763747900134648e+00 1.9005655901682278e+01 7.8213878142304347e+00 0 0 0
1391 1 1.6394647574786330e-06 1.3892173116499709e+01 2.3942089506111699e+01 6.4857894092319617e+00 0 0 0
1392 1 2.0772823496971579e-06 1.5177474523702848e+01 2.2050394586857976e+01 5.4260708657472705e+00 0 0 0
1395 1 -4.8520711270869383e-06 1.3864064427110092e+01 2.3213344373696536e+01 7.8304108577505813e+00 0 0 0
1396 1 -8.8468896674632949e-07 1.5165427389981234e+01 2.1267896679987206e+01 6.7563215903162570e+00 0 0 0
1397 1 9.3087924758241366e-07 1.2644177400374037e+01 2.2017295765364100e+01 5.4387596341103945e+00 0 0 0
1398 1 1.2647522390702802e-06 1.3882584352942962e+01 2.1686485649135893e+01 7.5820688967626335e+00 0 0 0
1399 1 2.3408328841688594e-06 1.1352891314728039e+01 2.1660409751039854e+01 7.5804999749739084e+00 0 0 0
1400 1 8.0762231237830574e-06 1.2561864268058271e+01 1.9774442930553601e+01 6.4993302150609340e+00 0 0 0
1401 1 -3.2001177402608485e-06 1.2590830715100681e+01 2.1267908610943643e+01 6.7966795835993388e+00 0 0 0
1402 1 -2.9925929480403795e-07 1.3935121375998280e+01 2.0938029746155667e+01 8.9548211667467363e+00 0 0 0
1403 1 1.1819105609934867e-06 1.1368648387372154e+01 2.0970821720813884e+01 8.9610540964185663e+00 0 0 0
1404 1 -4.2774688111263711e-06 1.2610314581485678e+01 1.9082171557819972e+01 7.9074305444330975e+00 0 0 0
1405 1 4.2347630522874227e-06 1.0042616612580753e+01 1.9726803043842040e+01 6.4960761982821822e+00 0 0 0
1406 1 3.0004081479119018e-06 1.1327900027910092e+01 1.9376360095501205e+01 8.6645366343566526e+00 0 0 0
1407 1 -4.1151748775891750e-07 8.8564341829936843e+00 1.9400246717461613e+01 8.6323242274620586e+00 0 0 0
1409 1 -4.4569122269510636e-06 1.0063651915723328e+01 1.8989471502187357e+01 7.8408642544482401e+00 0 0 0
1459 1 3.6874778984345638e-06 1.5086013018954905e+01 1.9780547881781796e+01 6.5164045298795834e+00 0 0 0
1461 1 4.3668993325447703e-06 1.3830752319471165e+01 1.9421010945914137e+01 8.6885120244793637e+00 0 0 0
1463 1 -5.6077013825304737e-06 1.5104273298100722e+01 1.8996886483920484e+01 7.8795379343370220e+00 0 0 0
1723 1 3.2166325102551621e-06 1.0135188105129563e+01 2.3632790548985941e+01 8.6365257921963039e+00 0 0 0
1757 1 5.6226815398755047e-06 1.5089883468253538e+01 2.3554055528142094e+01 8.6703653983051456e+00 0 0 0
1761 1 3.8293674204504158e-06 1.2583195728656040e+01 2.3558682883019038e+01 8.6666945237321684e+00 0 0 0
1764 1 6.1311296521956441e-07 1.2664069637261262e+01 2.1222031032776073e+01 9.7125989277685640e+00 0 0 0
1769 1 -1.7675234088749551e-07 1.0099509290422498e+01 2.1277915240483349e+01 9.7342709722815091e+00 0 0 0
1819 1 -6.0180233222326329e-06 1.5161531658212798e+01 2.1271597659039479e+01 9.7257174218818179e+00 0 0 0
1015 1 1.5713849856396987e-06 1.8922754004817751e+01 2.4032989022955388e+01 3.4988118249921349e+00 0 0 0
1016 1 -3.2653615444124398e-06 1.6418743658737629e+01 2.3913109558707909e+01 3.4900804110042070e+00 0 0 0
1023 1 -2.1557551032574672e-06 1.6389269889417065e+01 2.1654004317111379e+01 4.5937378669703568e+00 0 0 0
1073 1 -5.0650195693314837e-06 2.1441193106966807e+01 2.3998143640278375e+01 3.4926707462144377e+00 0 0 0
1079 1 -2.6102267313794772e-06 2.1453622147065335e+01 2.1721098279482913e+01 4.6247560007383228e+00 0 0 0
1080 1 -5.6284827794619251e-06 1.8973099241679119e+01 2.1728103789945937e+01 4.5885994280633966e+00 0 0 0
1081 1 -3.1085471542978224e-06 2.0177162791866031e+01 1.9791526642404932e+01 3.5055763615800744e+00 0 0 0
1083 1 6.1891967440007064e-06 1.8918924291220371e+01 2.0163516272930526e+01 4.2704450840011239e+00 0 0 0
1084 1 5.1687744404069718e-07 1.6411061227228711e+01 2.0116478786223471e+01 4.2941716954308662e+00 0 0 0
1086 1 -3.0020579556702611e-06 1.7643957208321076e+01 1.9744917964734906e+01 3.4591101319731878e+00 0 0 0
1087 1 -3.8685160194749067e-07 1.8862365961114715e+01 1.9463346975473009e+01 5.6439805493677513e+00 0 0 0
1088 1 -2.8519434526221781e-06 1.6351226959079618e+01 1.9386670805057513e+01 5.6744193925098365e+00 0 0 0
1144 1 -7.7955399736039911e-08 2.1401033956195221e+01 2.0203749206845007e+01 4.3307929889829637e+00 0 0 0
1145 1 -1.5348904818007284e-06 2.1427639021498528e+01 1.9391502067123632e+01 5.6973678885208461e+00 0 0 0
1387 1 1.0836041393308028e-06 1.7639460655133131e+01 2.4394603174788163e+01 4.3640399266828451e+00 0 0 0
1388 1 2.8111071843252961e-07 1.7613146949353467e+01 2.3568398376305968e+01 5.6871086591395459e+00 0 0 0
1389 1 1.9968747031187385e-06 1.5102993403041461e+01 2.4308092205683828e+01 4.2874241748663371e+00 0 0 0
1390 1 -1.0881776032270357e-06 1.6379758823579575e+01 2.3948286697099281e+01 6.4419239813685429e+00 0 0 0
1393 1 2.7370558076509091e-06 1.5130682751450516e+01 2.3548543644846006e+01 5.6543447073438742e+00 0 0 0
1394 1 1.5247501508362953e-06 1.6374375019500537e+01 2.3221795148208948e+01 7.7882165463368977e+00 0 0 0
1443 1 -1.1685595216971102e-06 2.0130770984508676e+01 2.4350842102361991e+01 4.2951346651863567e+00 0 0 0
1444 1 -1.5091150691449053e-06 2.1473979503829717e+01 2.3964898664770125e+01 6.4656808448980554e+00 0 0 0
1445 1 2.1457060311842352e-06 1.8842947390587874e+01 2.3912319966333129e+01 6.4787350206123406e+00 0 0 0
1446 1 2.0197752751227536e-06 2.0190685850263435e+01 2.2068709541553385e+01 5.3687674943142181e+00 0 0 0
1447 1 2.9026569163430735e-06 2.0188261681844654e+01 2.3597998388803369e+01 5.6680634579931439e+00 0 0 0
1448 1 -3.8064095136110362e-06 2.1425220991599080e+01 2.3209658784658814e+01 7.8430267366416873e+00 0 0 0
1449 1 9.0335353583837056e-07 1.8926991488124688e+01 2.3185314860227020e+01 7.8175041295461520e+00 0 0 0
1450 1 -2.5915159133843447e-06 2.0144323234591052e+01 2.1298162545930740e+01 6.7353100659016452e+00 0 0 0
1451 1 9.2875788894636453e-08 1.7662240209206669e+01 2.2066906641009851e+01 5.3495494509295973e+00 0 0 0
1452 1 2.0049772915484140e-07 1.8933556586300657e+01 2.1675416338637330e+01 7.5532649369795912e+00 0 0 0
1453 1 4.6822333242381358e-07 1.6419070104376370e+01 2.1656904261118381e+01 7.6109826393962585e+00 0 0 0
1454 1 1.9648334708096054e-06 1.7694450003684569e+01 1.9762865988436655e+01 6.4740189659917746e+00 0 0 0
1455 1 -3.4657985686888341e-06 1.7666402245554750e+01 2.1339383197474532e+01 6.8187615751331929e+00 0 0 0
1456 1 -2.7654119731033409e-07 1.8964898902736667e+01 2.0943965435752450e+01 8.8659703966463788e+00 0 0 0
1457 1 1.4113794206226317e-06 1.6426299996852165e+01 2.0883736175588009e+01 8.9308576569377554e+00 0 0 0
1458 1 -4.2535506219652539e-06 1.7674107539510501e+01 1.9049120448374861e+01 7.8379892084083114e+00 0 0 0
1460 1 3.2130000613123177e-06 1.6364757913268647e+01 1.9393508504071267e+01 8.6544001866057982e+00 0 0 0
1513 1 -1.0008385427051923e-06 2.1472252759132399e+01 2.1663992291544282e+01 7.5620809308111800e+00 0 0 0
1514 1 -5.3798258397481333e-06 2.1472141391970084e+01 2.0860066418944864e+01 8.8912765846608579e+00 0 0 0
1515 1 4.2757032640262179e-07 2.0162278719650622e+01 1.9767216551400313e+01 6.4883893035652767e+00 0 0 0
1516 1 3.3522782202190455e-06 2.1434764067361243e+01 1.9364469560209972e+01 8.6704898273969260e+00 0 0 0
1517 1 2.2532301844625495e-06 1.8907630445975428e+01 1.9433423941968911e+01 8.6424809530934237e+00 0 0 0
1519 1 5.6841065230480081e-07 2.0180478295663448e+01 1.9036512408260101e+01 7.8236836945581398e+00 0 0 0
1807 1 1.3481993356567753e-06 2.0157119299503659e+01 2.3612730093969351e+01 8.6452709150234739e+00 0 0 0
1811 1 5.8435202779335970e-06 1.7678474421612353e+01 2.3557199759720241e+01 8.6737897097635006e+00 0 0 0
1814 1 -9.7508244964027873e-07 1.7707857907098724e+01 2.1300533574186780e+01 9.7310431272014508e+00 0 0 0
1870 1 3.2944796011307598e-06 2.0224202378724883e+01 2.1276580994873203e+01 9.7147738462167919e+00 0 0 0
764 1 -9.2459766320177278e-07 1.2413970966284522e+00 1.8895749887773798e+00 9.9950363922545336e+00 0 0 0
821 1 -2.0255182649090066e-06 6.2751969825811411e+00 1.9151472387331447e+00 9.9872415034191100e+00 0 0 0
822 1 1.4242863534779091e-06 3.7549836978158679e+00 1.9347146457997868e+00 1.0033106701439484e+01 0 0 0
1071 1 2.2347768592958541e-08 7.7796515783148295e-03 6.0541131791182243e+00 1.0026695305155556e+01 0 0 0
1129 1 3.2186273747366586e-06 5.0258609038793516e+00 6.1296320835421669e+00 1.0002040793642626e+01 0 0 0
1134 1 -3.1667630371600723e-08 2.5184874568349116e+00 6.1573037223040741e+00 9.9843969962033938e+00 0 0 0
1135 1 -3.4229727795098987e-08 3.7792901143631212e+00 5.7215695820115497e+00 1.2228916280903958e+01 0 0 0
1136 1 2.5532492287547146e-06 1.2426646362711367e+00 5.7385951595553237e+00 1.2179615118639097e+01 0 0 0
1137 1 -4.3876880685780804e-06 2.4920842428157330e+00 3.8478641513377516e+00 1.1120169557763981e+01 0 0 0
1139 1 1.4052741048683614e-06 1.2097787988524100e+00 4.1781088498451444e+00 1.1929298887395332e+01 0 0 0
1140 1 1.0036803440745962e-06 2.2678466347684211e+01 2.2502083989717150e+00 1.0879856337269237e+01 -1 0 0
1141 1 2.5644622772577293e-06 2.2681129954247854e+01 3.7965727571165253e+00 1.1161191717245590e+01 -1 0 0
1142 1 -4.5298079954695380e-06 1.3417565011449899e+00 3.4253910910646082e+00 1.3210721659285403e+01 0 0 0
1143 1 -1.0037991076813856e-06 5.4416171565085016e-03 1.5423601400157509e+00 1.2229324815145185e+01 0 0 0
1192 1 -2.8584012204788885e-07 6.2981609673166528e+00 5.7134499790023119e+00 1.2166279186468064e+01 0 0 0
1195 1 2.0315694235154974e-06 6.2765431586215321e+00 4.2236816206735277e+00 1.1853964361757477e+01 0 0 0
1196 1 -1.6510779454080123e-06 3.7595187779703285e+00 4.2188048750281588e+00 1.1968260679123228e+01 0 0 0
1197 1 5.5489625071775070e-06 5.0318019550549096e+00 2.3139762234478223e+00 1.0832109689808791e+01 0 0 0
1198 1 -3.4844651517356025e-06 5.0395543403431242e+00 3.7860708242130610e+00 1.1113847279731905e+01 0 0 0
1199 1 3.8205903214640676e-06 6.3302331565704568e+00 3.4634976192056319e+00 1.3241662394421214e+01 0 0 0
1200 1 1.0484676636052321e-06 3.8212720947960768e+00 3.4217797290686143e+00 1.3263849397400490e+01 0 0 0
1201 1 -2.6156008145098823e-06 5.0432326699707009e+00 1.5427274628824310e+00 1.2142761751174195e+01 0 0 0
1202 1 4.8317559776009114e-06 2.4961989638823119e+00 2.3243691214541768e+00 1.0809438578324491e+01 0 0 0
1203 1 9.2648025262999503e-07 3.7780076440465300e+00 1.9288134651516975e+00 1.2983000438683945e+01 0 0 0
1204 1 6.9115939040759648e-08 1.2928438596710374e+00 1.9003430916253645e+00 1.3019300516746716e+01 0 0 0
1206 1 -1.6270202500919461e-06 2.5194826939148403e+00 1.5142791253278345e+00 1.2155666465714223e+01 0 0 0
1207 1 -1.2838407871269983e-06 3.7899586516562680e+00 1.1559173490398507e+00 1.4356881332886346e+01 0 0 0
1208 1 6.0880040194141469e-06 1.2980248423731482e+00 1.1368299241976960e+00 1.4359911463157935e+01 0 0 0
1254 1 -2.7566609166662037e-07 6.3234016258425072e+00 1.9005732912967364e+00 1.2972365536459245e+01 0 0 0
1256 1 -2.7250144555746553e-06 7.5582104118656241e+00 1.5370602057409612e+00 1.2165929597927487e+01 0 0 0
1258 1 7.8252882597665777e-07 6.2559000717919950e+00 1.1936016799430791e+00 1.4311833134438116e+01 0 0 0
1502 1 1.8026278640262869e-07 2.5335540168520119e+00 6.1034723960472537e+00 1.3066694533182906e+01 0 0 0
1506 1 1.9090281043515176e-06 2.5684340318210892e+00 5.3409218504500071e+00 1.4389772800065906e+01 0 0 0
1507 1 5.9430411528981801e-07 2.6377707226724223e-02 6.1003498356099568e+00 1.3081481956830094e+01 0 0 0
1508 1 -4.3588056607538604e-07 1.3334956437457310e+00 5.7378323201008499e+00 1.5218987300174506e+01 0 0 0
1509 1 -3.8173886103054012e-06 2.2688070853929933e+01 3.7694029652995935e+00 1.4064018751861392e+01 -1 0 0
1510 1 2.4748760234382506e-07 6.6515350207375194e-03 5.3126862306210860e+00 1.4454031172019013e+01 0 0 0
1511 1 1.2039794091583423e-05 1.2955332994855711e+00 4.9391516615595679e+00 1.6646141676716400e+01 0 0 0
1512 1 4.7943229597832107e-06 2.2677606402880443e+01 2.9868984270647418e+00 1.5395279436005062e+01 -1 0 0
1558 1 6.7963523832867605e-07 7.5267302285240660e+00 6.0539331854350475e+00 1.2960217831490469e+01 0 0 0
1563 1 1.9372585984147103e-06 5.0440591030572257e+00 6.1036498665912138e+00 1.3027777759771363e+01 0 0 0
1564 1 1.6508046923585085e-07 6.3603257981546832e+00 5.6861155695481527e+00 1.5133779795342116e+01 0 0 0
1565 1 -4.2452256882390137e-06 3.7669942590038312e+00 5.6945172089456753e+00 1.5203456322520244e+01 0 0 0
1566 1 6.5241563980714216e-06 5.0766873723682382e+00 3.8173287383201377e+00 1.4123750803931387e+01 0 0 0
1567 1 2.3602399595500929e-06 5.1056550622749501e+00 5.3647326724160207e+00 1.4438460509995403e+01 0 0 0
1568 1 -3.7437802280097429e-06 6.3608375129512531e+00 4.9043446056164788e+00 1.6534247222980405e+01 0 0 0
1569 1 4.0545181638424003e-06 3.8582409057153226e+00 4.9199497801348171e+00 1.6614587477127831e+01 0 0 0
1570 1 -2.6773863512285385e-06 5.0514013174653858e+00 3.0376366444741665e+00 1.5372996685146886e+01 0 0 0
1571 1 -7.7748375333192098e-07 2.5592105880876876e+00 3.8108553715531293e+00 1.4108695374065157e+01 0 0 0
1572 1 -4.4194947603801605e-06 3.7571178507355500e+00 3.4698584973106157e+00 1.6291270286754735e+01 0 0 0
1573 1 -8.3502010316277608e-06 1.2659939498553383e+00 3.4081633105171298e+00 1.6310942561214652e+01 0 0 0
1574 1 -5.3100041729621789e-06 2.5325626320223003e+00 1.5718747710987047e+00 1.5154251813204764e+01 0 0 0
1575 1 8.0059493935936047e-06 2.5350880823619857e+00 3.0790643256158283e+00 1.5418589361698052e+01 0 0 0
1578 1 -1.2561121539714007e-06 2.5471752381548902e+00 7.7413309885477621e-01 1.6570613345916936e+01 0 0 0
1579 1 -5.3639045898219735e-06 2.6896008891981085e-02 1.5087531375770651e+00 1.5174902897406401e+01 0 0 0
1581 1 1.0128514724395693e-05 6.2920110295894754e-02 8.1916554058296454e-01 1.6584480322855718e+01 0 0 0
1626 1 4.3164437092139274e-06 6.2801543506933450e+00 3.4534690291448036e+00 1.6210968653711056e+01 0 0 0
1627 1 1.8063205372508692e-06 7.5711054708469234e+00 1.5751043723877602e+00 1.5099352827929746e+01 0 0 0
1628 1 -2.1826052457550125e-06 7.6172591967618537e+00 3.0813540964820483e+00 1.5454587705121494e+01 0 0 0
1632 1 -2.9169406340662157e-06 5.0071837978911251e+00 1.5270536175147909e+00 1.5091180662856869e+01 0 0 0
1635 1 1.0133669978763853e-06 5.1471667241934425e+00 7.9768981663987815e-01 1.6569691116390114e+01 0 0 0
867 1 -5.8311877777440373e-06 1.1353337190377415e+01 1.9034189020855379e+00 9.9406512491045671e+00 0 0 0
868 1 9.5541894739053818e-08 8.8242604985353914e+00 1.9543929415186585e+00 9.9653745507006093e+00 0 0 0
898 1 -6.0874698449245811e-08 1.3835534820273807e+01 1.9870611001201639e+00 1.0038161153384177e+01 0 0 0
1185 1 -1.0389346079397746e-06 1.0085764353371934e+01 6.1334423477955848e+00 1.0024785822094165e+01 0 0 0
1190 1 4.5286489762314443e-07 7.5506374740917517e+00 6.0149009857008791e+00 9.9893800026529860e+00 0 0 0
1191 1 3.6963101153626004e-06 8.7863893521849441e+00 5.7654173337782195e+00 1.2122647316382045e+01 0 0 0
1193 1 -4.7283326955784716e-06 7.5308469292297087e+00 3.8031581609830720e+00 1.1102582572151679e+01 0 0 0
1235 1 -7.8883805313090251e-06 1.5117732644487964e+01 6.0572697527651416e+00 1.0011098753576288e+01 0 0 0
1240 1 -2.3178448299724535e-06 1.2601671982435635e+01 6.1186682355584123e+00 9.9996248229592535e+00 0 0 0
1241 1 -4.7776178875327668e-06 1.3894864718715656e+01 5.7317557248105464e+00 1.2163209680209373e+01 0 0 0
1242 1 -3.2316550454872877e-06 1.1333542653157885e+01 5.7023115402484557e+00 1.2200774532439933e+01 0 0 0
1243 1 -3.3072668577100389e-06 1.2621799215880079e+01 3.8499203077556858e+00 1.1109293028826698e+01 0 0 0
1245 1 3.2877850997493264e-06 1.1379701133529112e+01 4.2567879121522889e+00 1.1842341045621911e+01 0 0 0
1246 1 1.2944099786966605e-06 8.7915062003845339e+00 4.2486299036892881e+00 1.1870359067304793e+01 0 0 0
1247 1 3.8044737888080757e-06 1.0085239620719289e+01 2.3061840306841268e+00 1.0760294340620037e+01 0 0 0
1248 1 -5.2955199885647571e-06 1.0038690708797443e+01 3.8422137404240324e+00 1.1042502743801391e+01 0 0 0
1249 1 -1.1337611258790478e-06 1.1338723048380707e+01 3.3888007852924460e+00 1.3182384369963602e+01 0 0 0
1250 1 1.0636098086863560e-06 8.8471170469012321e+00 3.4258408927959145e+00 1.3213572655156078e+01 0 0 0
1251 1 -1.8267554855765626e-06 1.0106142703327780e+01 1.4833280974556124e+00 1.2160471170299672e+01 0 0 0
1252 1 2.1475029058127815e-06 7.5635460018108498e+00 2.2471333094617916e+00 1.0810936498275414e+01 0 0 0
1253 1 2.7764631162828146e-07 8.8127719384653336e+00 1.9115707186509086e+00 1.2940596094058302e+01 0 0 0
1257 1 1.5407717019994850e-07 8.8529940384518255e+00 1.2103379283430309e+00 1.4292299159279192e+01 0 0 0
1280 1 1.3510384121776155e-06 1.3868826563048589e+01 4.1992195895663587e+00 1.1922660657642700e+01 0 0 0
1282 1 -2.9758913540492651e-06 1.5156554593391826e+01 3.8353197708875397e+00 1.1074484023632584e+01 0 0 0
1284 1 -6.6391252813494225e-06 1.3887229470682721e+01 3.4081594620917319e+00 1.3267664918727691e+01 0 0 0
1285 1 -3.9070959848917191e-06 1.5129750276096550e+01 1.5497912172165027e+00 1.2161566783940920e+01 0 0 0
1286 1 4.4811753147655022e-06 1.2592787586513754e+01 2.3045511984698250e+00 1.0765430249091390e+01 0 0 0
1287 1 2.9803860118500561e-06 1.3927699341219940e+01 1.9034165483449836e+00 1.2990974389812207e+01 0 0 0
1288 1 6.1430456098741057e-07 1.1373207677833777e+01 1.8840767874852575e+00 1.2922257231636348e+01 0 0 0
1290 1 -2.1628756218919130e-06 1.2635823987769589e+01 1.5574279932596571e+00 1.2127825548287113e+01 0 0 0
1291 1 -5.6040715931708221e-08 1.3888337854464410e+01 1.1046388778499878e+00 1.4360855214665632e+01 0 0 0
1292 1 -5.6539839755344985e-06 1.1379975636201520e+01 1.1530213027378315e+00 1.4293819768784912e+01 0 0 0
1562 1 -8.0626164686624388e-06 7.5858383360307249e+00 5.3088609792626187e+00 1.4314240071899690e+01 0 0 0
1611 1 7.0694699743625085e-06 1.2611352737564195e+01 6.0837046422217007e+00 1.2951063165017828e+01 0 0 0
1615 1 -1.9804358996673553e-06 1.2600368846326242e+01 5.3576349453861978e+00 1.4332635425893585e+01 0 0 0
1616 1 4.1965363624889463e-06 1.0087775333763929e+01 6.0689325431616501e+00 1.2953883594909408e+01 0 0 0
1617 1 3.3101569704458562e-06 1.1364000085176789e+01 5.6499901617559880e+00 1.5097344473683258e+01 0 0 0
1618 1 8.2844147763793861e-06 8.8580267974681028e+00 5.7278784197552923e+00 1.5090019723171910e+01 0 0 0
1619 1 3.3532301486982512e-06 1.0106306519518514e+01 3.7815205683205089e+00 1.3988441430945493e+01 0 0 0
1620 1 -2.9196147493279216e-06 1.0112884166161610e+01 5.2820414432233536e+00 1.4291407606570925e+01 0 0 0
1621 1 -6.5012710451423217e-06 1.1383470671115068e+01 4.9405725929418800e+00 1.6517307463948249e+01 0 0 0
1622 1 -1.5122558894071904e-05 8.8627269533788091e+00 4.9435569787882416e+00 1.6539060765106047e+01 0 0 0
1623 1 -4.3765518537565930e-06 1.0113673031347084e+01 3.0677223969061158e+00 1.5358939570616858e+01 0 0 0
1624 1 -1.7075209720043474e-06 7.5769370564742955e+00 3.7997467888248702e+00 1.4087331120640041e+01 0 0 0
1625 1 6.2474016313098957e-06 8.8732303929642757e+00 3.4272873483484725e+00 1.6308469500221022e+01 0 0 0
1631 1 -3.8087207424418351e-07 7.6162161819228142e+00 8.2253948690555778e-01 1.6560545006979215e+01 0 0 0
1654 1 5.2932205818910274e-06 1.5152667429124726e+01 6.0785618634805756e+00 1.3001208724300016e+01 0 0 0
1656 1 3.9704956165782937e-06 1.3872762714029614e+01 5.7478534596211066e+00 1.5105954903409433e+01 0 0 0
1658 1 -6.2382969956002070e-06 1.5119117365982209e+01 5.3192487653416176e+00 1.4420465164894935e+01 0 0 0
1660 1 -1.2979483794292737e-06 1.3874710089964577e+01 4.9440169785624635e+00 1.6540570882235535e+01 0 0 0
1661 1 -1.0423047943995045e-05 1.5112301191710973e+01 3.0759574825554861e+00 1.5389510824500080e+01 0 0 0
1662 1 4.1042900765350095e-06 1.2576679828259104e+01 3.8299328617266202e+00 1.3971788464884749e+01 0 0 0
1663 1 1.9747058954977778e-06 1.3817710005323963e+01 3.4282077924246290e+00 1.6222119932896469e+01 0 0 0
1664 1 4.7149386402537524e-06 1.1400472526782455e+01 3.4328867783337880e+00 1.6201388428801863e+01 0 0 0
1665 1 1.1932215547553746e-06 1.2670105717585759e+01 1.5269636700474616e+00 1.5114804471130158e+01 0 0 0
1666 1 -1.1757002266903964e-06 1.2606062831323145e+01 3.0913311951100999e+00 1.5379528993780983e+01 0 0 0
1669 1 1.4346650761554915e-06 1.2684922318789281e+01 7.7215438645115675e-01 1.6483003309249202e+01 0 0 0
1670 1 -2.5731808873603127e-07 1.0110333548031802e+01 1.5415888764907244e+00 1.5092803711383002e+01 0 0 0
1673 1 -1.3718674745396764e-06 1.0123006219100501e+01 7.8836261887048875e-01 1.6503462421647640e+01 0 0 0
897 1 -5.5737694034266852e-06 1.6412536715839632e+01 1.9182287388273696e+00 9.9933200355646221e+00 0 0 0
911 1 -2.3476949758242796e-06 2.1416842294617560e+01 1.9030890282385604e+00 1.0052862743134291e+01 0 0 0
912 1 -8.6222772841209845e-07 1.8890509420975178e+01 1.9091998960847618e+00 9.9695220917603802e+00 0 0 0
1269 1 -1.2701302499602167e-06 2.0170434824149339e+01 6.0925707779067508e+00 9.9388699113618681e+00 0 0 0
1274 1 -4.9023242342577082e-06 1.7615951215544708e+01 6.0867024787385473e+00 9.9950460621283135e+00 0 0 0
1275 1 -9.3540456976176503e-07 1.8884519843428610e+01 5.7364184521039885e+00 1.2165023360061362e+01 0 0 0
1276 1 -5.6476292429753058e-06 1.6383800087022525e+01 5.7168325112531404e+00 1.2197522684418908e+01 0 0 0
1277 1 -5.7403925396820456e-06 1.7670814334783692e+01 3.8213532516912783e+00 1.1091733877016408e+01 0 0 0
1279 1 3.2803278814479360e-06 1.6356320432242693e+01 4.1610200601280871e+00 1.1906463313819501e+01 0 0 0
1281 1 6.5215890866450630e-06 1.5093630901775454e+01 2.3290690343581013e+00 1.0791406645260428e+01 0 0 0
1283 1 -4.0230483850382977e-06 1.6425273585914827e+01 3.4081152389363054e+00 1.3278827354795423e+01 0 0 0
1295 1 -3.3352966684414616e-06 2.1386400693490437e+01 5.7477421453329001e+00 1.2215627660925895e+01 0 0 0
1297 1 2.0642252619206974e-06 2.1417402943081672e+01 4.1783491293805897e+00 1.1930561112311599e+01 0 0 0
1298 1 4.9471438003701687e-06 1.8912601951906343e+01 4.1918066094032067e+00 1.1903631318978373e+01 0 0 0
1299 1 3.1192472213998739e-06 2.0184313042823256e+01 2.2521866699881805e+00 1.0817150702925224e+01 0 0 0
1300 1 -6.8277046232553324e-06 2.0129290787733524e+01 3.8174489081879353e+00 1.1073814002159027e+01 0 0 0
1301 1 -9.4417978227880082e-07 2.1454759604215148e+01 3.4144123740609662e+00 1.3283272374716205e+01 0 0 0
1302 1 -4.6912154976992078e-06 1.8943670449252725e+01 3.4473871954607516e+00 1.3325402725254227e+01 0 0 0
1303 1 -1.6800984670730869e-06 2.0207444672252677e+01 1.5374440543476378e+00 1.2236034463386900e+01 0 0 0
1304 1 7.2435478397256851e-07 1.7675787951858176e+01 2.2858874231903914e+00 1.0818452550210765e+01 0 0 0
1305 1 3.6579435221159339e-07 1.8928699919071125e+01 1.9070785366274043e+00 1.3057421704611457e+01 0 0 0
1306 1 5.4541608456088256e-06 1.6431094110615430e+01 1.9144272510052338e+00 1.3025409750680529e+01 0 0 0
1308 1 -3.9750938816231964e-06 1.7656579461261082e+01 1.5497468828292646e+00 1.2193162597474009e+01 0 0 0
1309 1 -5.3880780736028457e-06 1.8883910387158068e+01 1.0850081234621365e+00 1.4401322317748331e+01 0 0 0
1310 1 2.8637068259303643e-06 1.6401614157173075e+01 1.1605066663853538e+00 1.4347295866692738e+01 0 0 0
1312 1 4.3904492666012444e-06 2.1488041325505435e+01 1.9501621640171574e+00 1.3066089205930924e+01 0 0 0
1313 1 1.1461910588222179e-06 2.1498912715510794e+01 1.1030871492076111e+00 1.4446714735157736e+01 0 0 0
1649 1 3.3752007412630015e-06 1.7608411484454020e+01 6.0838969845187352e+00 1.3039517153422475e+01 0 0 0
1653 1 -1.0423146591361620e-05 1.7586116981948614e+01 5.3181544044851332e+00 1.4394240492756820e+01 0 0 0
1655 1 1.0853614140963447e-05 1.6376461092449599e+01 5.7167855715147216e+00 1.5165833183651104e+01 0 0 0
1657 1 6.9503679346455513e-06 1.5150020936993013e+01 3.7820959171727346e+00 1.4076441405271325e+01 0 0 0
1659 1 -1.6230835220353669e-05 1.6411906438695393e+01 5.0327028289563902e+00 1.6568319178781231e+01 0 0 0
1676 1 -7.5975627021648946e-08 2.0121600915875852e+01 6.1151361326044418e+00 1.2964771205363586e+01 0 0 0
1677 1 -1.0963349482521371e-06 2.1458287052460115e+01 5.6773677816269714e+00 1.5185346854426147e+01 0 0 0
1678 1 3.6555564983248661e-06 1.8883369581640363e+01 5.6841486077722099e+00 1.5142041489046001e+01 0 0 0
1679 1 6.9330446631490984e-06 2.0197960310180417e+01 3.7844441865878609e+00 1.4063211472288650e+01 0 0 0
1680 1 -4.0307199193916377e-06 2.0180853680661262e+01 5.2879733575780037e+00 1.4373628057889023e+01 0 0 0
1681 1 6.6983481141281058e-06 2.1454723801511594e+01 4.9582873325576822e+00 1.6576243531726302e+01 0 0 0
1682 1 -5.6910961363359849e-06 1.8881020593271973e+01 4.9709453723304655e+00 1.6629987765184882e+01 0 0 0
1683 1 -9.9315384072725648e-07 2.0155475959594611e+01 3.0044020833157918e+00 1.5411552738702385e+01 0 0 0
1684 1 8.0591784645249441e-06 1.7675240206109546e+01 3.7881896431199791e+00 1.4099021628873267e+01 0 0 0
1685 1 3.9291935981795137e-06 1.8912942361232364e+01 3.4257730419386210e+00 1.6354835724109552e+01 0 0 0
1686 1 2.1008207467022141e-05 1.6373303978792883e+01 3.5144749410319194e+00 1.6322767285046048e+01 0 0 0
1687 1 4.0804064960420973e-06 1.7681141106154136e+01 1.5512887848888812e+00 1.5177976985495881e+01 0 0 0
1688 1 -1.2366550284318622e-05 1.7633997464003471e+01 3.0536956627349534e+00 1.5437624138521349e+01 0 0 0
1691 1 5.0176907697500561e-07 1.7667445691404350e+01 8.2383357068115703e-01 1.6608524922254809e+01 0 0 0
1692 1 1.7715290844669989e-06 1.5194576180849795e+01 1.5186557372983238e+00 1.5200216262871528e+01 0 0 0
1695 1 -4.4087466860316646e-06 1.5220061268069051e+01 7.6321841181611561e-01 1.6583292344853920e+01 0 0 0
1696 1 -3.1560831108211884e-06 2.1371880213946895e+01 3.4007793083413325e+00 1.6325578715301582e+01 0 0 0
1698 1 -3.0010768101800321e-06 2.0189465537643329e+01 1.5258260464854201e+00 1.5146437684778162e+01 0 0 0
1701 1 2.2234384857817267e-05 2.0199836251404417e+01 7.3464188631641814e-01 1.6655740445474834e+01 0 0 0
1063 1 -2.2827154977651062e-06 3.7114766106959980e+00 1.0247728532518225e+01 9.9958284867921030e+00 0 0 0
1064 1 -4.0984557548832452e-07 1.2074101549108058e+00 1.0286283459535710e+01 9.9831940497561789e+00 0 0 0
1070 1 -3.6369505659671996e-06 1.2367165819231802e+00 8.0309885715897664e+00 1.1116403547579964e+01 0 0 0
1120 1 3.1644500313005072e-07 6.2399238890957642e+00 1.0236909038559254e+01 1.0043424184937054e+01 0 0 0
1127 1 -1.3059014955954945e-06 6.2326052669014995e+00 7.9713787749051708e+00 1.1112795854180652e+01 0 0 0
1128 1 -1.7524715665785804e-06 3.7413831298731051e+00 7.9838815369630032e+00 1.1099181455933996e+01 0 0 0
1131 1 3.9901127081799141e-06 3.7674593521648463e+00 6.4729203876197818e+00 1.0841450426839330e+01 0 0 0
1132 1 -1.6856842989407997e-06 1.2638509862269547e+00 6.4758816505960004e+00 1.0836665479614132e+01 0 0 0
1188 1 1.1018044923028911e-06 6.2921237968366714e+00 6.4665808497825514e+00 1.0813997475092448e+01 0 0 0
1386 1 -4.3632632802118040e-06 2.2655293872619183e+01 1.2171061238932424e+01 1.1098373850732443e+01 -1 0 0
1428 1 -7.5672066956574750e-06 4.9613378351088651e+00 1.2138391813453030e+01 1.1098804600638482e+01 0 0 0
1430 1 4.9340003633487271e-06 3.7188796952984213e+00 1.2528004903576539e+01 1.1848857288710047e+01 0 0 0
1431 1 3.0090618567239911e-06 1.2356411676768237e+00 1.2575744804476754e+01 1.1867616708031060e+01 0 0 0
1432 1 5.5981224734265331e-06 2.5040249372475114e+00 1.0640207067347980e+01 1.0804154652621488e+01 0 0 0
1433 1 -3.7850041766709455e-06 2.4731029513569691e+00 1.2186551739408008e+01 1.1092307036681635e+01 0 0 0
1434 1 -3.2408127364946905e-06 3.6559690421793669e+00 1.1753596216948054e+01 1.3293350090926555e+01 0 0 0
1435 1 -4.9783162333375208e-06 1.2450519574226948e+00 1.1841385320271865e+01 1.3201176901676522e+01 0 0 0
1436 1 -3.8536279881347436e-06 2.5032774080890468e+00 9.8766226879042289e+00 1.2187413002422046e+01 0 0 0
1437 1 6.9987842770810181e-06 2.2656783150321157e+01 1.0696753083486481e+01 1.0801843144162287e+01 -1 0 0
1438 1 3.5783854925621514e-06 1.2202622805252534e+00 1.0286701338048003e+01 1.3009851824147491e+01 0 0 0
1439 1 8.3672824642133026e-06 2.2644082191510897e+01 8.4071446003058945e+00 1.1926004413128846e+01 -1 0 0
1440 1 -2.6692696057268286e-06 2.2655546731558104e+01 9.8965597970979893e+00 1.2239847068064732e+01 -1 0 0
1441 1 -5.4781880505783092e-06 1.2694347530495107e+00 9.5322595035289961e+00 1.4387316559196069e+01 0 0 0
1442 1 -1.2019653907210077e-06 2.7108685515669792e-02 7.5535570496882265e+00 1.3268728346169842e+01 0 0 0
1485 1 7.8154705808677172e-07 6.2574705506519290e+00 1.2527101660120319e+01 1.1914686500259684e+01 0 0 0
1486 1 2.9605260774994372e-06 7.4942458912499914e+00 1.0582739879993014e+01 1.0804892950325160e+01 0 0 0
1489 1 -6.5331247839077110e-06 6.1374339951892489e+00 1.1738120140507368e+01 1.3256467820405517e+01 0 0 0
1490 1 1.4232720618322829e-06 7.4363726422503058e+00 9.8637394062441874e+00 1.2116232682871150e+01 0 0 0
1491 1 2.3260700968932420e-06 4.9453460693310216e+00 1.0602072555249610e+01 1.0856107364340891e+01 0 0 0
1492 1 3.3099928969824593e-06 6.1679290809297767e+00 1.0256019238148424e+01 1.2990075588495262e+01 0 0 0
1493 1 2.7020257415346656e-06 3.7077424137907817e+00 1.0204468433379599e+01 1.3033299819607848e+01 0 0 0
1494 1 2.9708419598196635e-06 4.9926591898259352e+00 8.3776190811379330e+00 1.1945827717610255e+01 0 0 0
1495 1 -4.0628747433589786e-06 4.8988233869336799e+00 9.8778529871340890e+00 1.2204028137447986e+01 0 0 0
1496 1 -4.1741144792484313e-08 6.2495033931396966e+00 9.4534161835458494e+00 1.4325795731977939e+01 0 0 0
1497 1 2.2366020013242957e-06 3.7809740371796039e+00 9.5303693862238834e+00 1.4399570196909917e+01 0 0 0
1498 1 -3.5452336845323871e-06 5.0146533758234435e+00 7.6251416836187973e+00 1.3290851573413679e+01 0 0 0
1499 1 2.9946661997877739e-06 2.4649731838749180e+00 8.4184224530593355e+00 1.1920968461383204e+01 0 0 0
1500 1 -1.1907846728740401e-06 3.8106828896069467e+00 8.0375442740143530e+00 1.4057407733710056e+01 0 0 0
1501 1 2.9608285835629425e-06 1.3072084982363834e+00 7.9710577090070265e+00 1.4116779242336602e+01 0 0 0
1503 1 -3.0134536276419244e-06 2.5409221148733052e+00 7.6236457333621432e+00 1.3282897285447492e+01 0 0 0
1504 1 8.0400211055406898e-06 3.7480598396787110e+00 7.2157771883578405e+00 1.5402941397423962e+01 0 0 0
1505 1 1.1565110341423600e-06 1.2713092000846402e+00 7.2465016584575910e+00 1.5451398352643219e+01 0 0 0
1557 1 1.3779098058471436e-06 6.2831131769086257e+00 7.9497088879145261e+00 1.4086719158704863e+01 0 0 0
1561 1 3.0258515811404742e-06 6.3310478839225697e+00 7.2392180432739659e+00 1.5432377676180032e+01 0 0 0
1796 1 -1.4992512214515791e-06 2.4714897537838270e+00 1.2157040825394484e+01 1.4101193203091331e+01 0 0 0
1800 1 1.6104605360230360e-06 2.5171505999510750e+00 1.1426936193062614e+01 1.5454724107776050e+01 0 0 0
1801 1 1.3193794417078841e-05 2.2663113567373660e+01 1.2171960112451897e+01 1.4052864000607874e+01 -1 0 0
1802 1 4.7575044501911072e-06 1.2364918648196299e+00 1.1773981700045086e+01 1.6246152167623581e+01 0 0 0
1803 1 -2.3617009352716078e-06 1.1899022438992586e-02 9.8640894856135439e+00 1.5114451343284658e+01 0 0 0
1804 1 -8.5676342100035170e-06 2.2624545929855842e+01 1.1363911175361755e+01 1.5379306634688808e+01 -1 0 0
1806 1 9.6277305233942566e-06 2.0722984559711728e-02 9.1089259145910830e+00 1.6575136026490398e+01 0 0 0
1846 1 1.3083960928832367e-05 7.5101989798058337e+00 1.2184525952434498e+01 1.4050071184984098e+01 0 0 0
1850 1 -1.7480140143840982e-05 7.5141550079520494e+00 1.1382108418603755e+01 1.5372689525782068e+01 0 0 0
1851 1 9.1921873933496435e-06 4.9507611896863724e+00 1.2177574571678463e+01 1.4061766306572782e+01 0 0 0
1852 1 1.2950291489508284e-05 6.2857483988913270e+00 1.1840315927102539e+01 1.6245503577866096e+01 0 0 0
1853 1 3.1609804695952525e-06 3.7819170736694039e+00 1.1896305797650069e+01 1.6314817101867636e+01 0 0 0
1854 1 -4.1073374798745706e-06 5.0108120670983443e+00 9.9397599759406603e+00 1.5186971054145221e+01 0 0 0
1855 1 -5.7966777170209635e-06 4.9900452617319120e+00 1.1498818401560744e+01 1.5417932269800477e+01 0 0 0
1858 1 7.0158908873141676e-06 5.0465041710710823e+00 9.0944313396853644e+00 1.6542619366190014e+01 0 0 0
1859 1 3.9684292154864601e-06 2.5257112195650135e+00 9.9223330321621752e+00 1.5197505731231827e+01 0 0 0
1862 1 -6.8913736502596746e-06 2.5354448817168223e+00 7.6523904410775678e+00 1.6296855496330760e+01 0 0 0
1863 1 6.4031982142730043e-06 2.5765151934027894e+00 9.1642875536862629e+00 1.6590464650791901e+01 0 0 0
1865 1 -1.6340321474717959e-06 4.3105945234368122e-02 7.5431941458599221e+00 1.6376612472975314e+01 0 0 0
1913 1 1.6607086768094621e-06 7.5780205784460186e+00 7.6235649973316226e+00 1.6247195668249713e+01 0 0 0
1916 1 -1.1775997104819498e-05 4.9853460159022163e+00 7.5859176476735950e+00 1.6283263622461696e+01 0 0 0
1119 1 -3.0880024804672217e-06 8.7744644290109104e+00 1.0267208824408783e+01 1.0031814039027715e+01 0 0 0
1175 1 -4.8943027468608441e-06 1.3832697774026732e+01 1.0266944426457586e+01 1.0047993529567297e+01 0 0 0
1176 1 8.7912354163751282e-07 1.1296210466009168e+01 1.0263065552805354e+01 1.0001632359124347e+01 0 0 0
1183 1 4.6988524984399645e-06 1.1327527065592282e+01 8.0140740927232024e+00 1.1087139387448593e+01 0 0 0
1184 1 -9.6697882848883635e-07 8.8390644540956060e+00 7.9405509073764016e+00 1.1051686958569006e+01 0 0 0
1187 1 2.9922452542204530e-06 8.7798331642992977e+00 6.4234017974602127e+00 1.0785796241677597e+01 0 0 0
1234 1 -4.1105151167865142e-06 1.3900991671614285e+01 8.0133905716578475e+00 1.1126978164979946e+01 0 0 0
1237 1 6.6706291374384652e-07 1.3832914385844527e+01 6.4853643595136079e+00 1.0839877098870851e+01 0 0 0
1238 1 -1.1513412046146527e-06 1.1262241230350686e+01 6.5194302588034034e+00 1.0841322282446257e+01 0 0 0
1482 1 -5.8272655542956334e-06 1.0077982737648982e+01 1.2153516593072942e+01 1.1057417407915088e+01 0 0 0
1484 1 2.8937448469027882e-06 8.7733949847137964e+00 1.2501322357342143e+01 1.1861244587125856e+01 0 0 0
1487 1 -5.5025119720778034e-06 7.5691777909260329e+00 1.2094791873590379e+01 1.1075960432798487e+01 0 0 0
1488 1 -4.4964894111251558e-06 8.7441950041691268e+00 1.1775020238722030e+01 1.3232114720434902e+01 0 0 0
1540 1 1.5527929586449151e-06 1.3910936488157372e+01 1.2519946928879799e+01 1.1968999318138373e+01 0 0 0
1541 1 4.6646765261487290e-06 1.1380127643660277e+01 1.2545551390370306e+01 1.1879361119309950e+01 0 0 0
1542 1 -1.0602859951521563e-06 1.2563687727468769e+01 1.0657705411369264e+01 1.0828864956653939e+01 0 0 0
1543 1 -1.2492567232814920e-06 1.2595124072941164e+01 1.2175718275723094e+01 1.1120908668033136e+01 0 0 0
1544 1 -6.3998047291129576e-06 1.3926032783219888e+01 1.1771700363318191e+01 1.3274176766300240e+01 0 0 0
1545 1 -1.5069886464071603e-06 1.1334459924212203e+01 1.1816945694683943e+01 1.3199821882382901e+01 0 0 0
1546 1 2.5939546256177989e-07 1.2567920786843727e+01 9.9173753165986014e+00 1.2132228002886693e+01 0 0 0
1547 1 2.2099876990434401e-06 1.0035749134165288e+01 1.0653555879878747e+01 1.0828482958124168e+01 0 0 0
1548 1 6.4536460837433442e-06 1.1330500639332552e+01 1.0316345286120598e+01 1.2985651341682676e+01 0 0 0
1549 1 4.7822804801995528e-06 8.7189541442003193e+00 1.0227655560135448e+01 1.2930156052678358e+01 0 0 0
1550 1 -1.7161114041725279e-06 1.0081852461383942e+01 8.3217842716315591e+00 1.1887131082786109e+01 0 0 0
1551 1 -4.2354665536993177e-06 1.0037849229537578e+01 9.8930653924763305e+00 1.2143078203764826e+01 0 0 0
1552 1 -1.9199196265680299e-06 1.1306275439886338e+01 9.4739882589741526e+00 1.4332816460907591e+01 0 0 0
1553 1 -1.5984298673926909e-06 8.8060697597962978e+00 9.5543593840141625e+00 1.4302065474521690e+01 0 0 0
1554 1 -4.7840318820417635e-06 1.0070144621961020e+01 7.5897852562088381e+00 1.3271623674601480e+01 0 0 0
1555 1 -1.9997368009464371e-06 7.5182809918945148e+00 8.3921947710651601e+00 1.1950415506966264e+01 0 0 0
1556 1 5.2254687879105678e-06 8.8081480362968687e+00 8.0349776755410751e+00 1.4076901751799120e+01 0 0 0
1559 1 -6.7744067288522174e-06 7.5621505326670757e+00 7.6022479817249735e+00 1.3211567520653416e+01 0 0 0
1560 1 -8.6152230420595632e-07 8.7892431225564085e+00 7.2159451442937961e+00 1.5378437246760120e+01 0 0 0
1602 1 7.1848945001464947e-07 1.3858993287857407e+01 1.0278747299897796e+01 1.2985471389736487e+01 0 0 0
1604 1 8.4568787049325246e-08 1.5159787893176858e+01 9.8676260599806636e+00 1.2207395530300953e+01 0 0 0
1606 1 -1.5743955617210205e-06 1.3793513056069921e+01 9.4865049025060735e+00 1.4317465904456165e+01 0 0 0
1607 1 6.9530141218498593e-07 1.5095697206607571e+01 7.5938994566588320e+00 1.3311239525057935e+01 0 0 0
1608 1 1.3902810942183652e-06 1.2591584201543402e+01 8.4220579070630972e+00 1.1881557724287301e+01 0 0 0
1609 1 1.9611638455981374e-06 1.3809743321200616e+01 7.9829904199049349e+00 1.4091086606718486e+01 0 0 0
1610 1 -1.9334194868609884e-06 1.1330018785800608e+01 8.0390065208661881e+00 1.4049910811696327e+01 0 0 0
1612 1 4.2079838675625307e-07 1.2605911558093682e+01 7.6300384198450537e+00 1.3235834505476005e+01 0 0 0
1613 1 -4.7415737511447899e-06 1.3840714628661999e+01 7.2156292111098610e+00 1.5389689876884260e+01 0 0 0
1614 1 -3.1228581119855741e-06 1.1355566827447904e+01 7.2509262133151209e+00 1.5407591144400987e+01 0 0 0
1897 1 2.5517100880228562e-06 1.2620084226802593e+01 1.2198197377161128e+01 1.4002902089681053e+01 0 0 0
1901 1 -2.8925676041911955e-06 1.2547508945442177e+01 1.1437720345121125e+01 1.5373101495446505e+01 0 0 0
1902 1 5.0530964986856712e-06 1.0002395576660886e+01 1.2198528403939033e+01 1.4035857340750924e+01 0 0 0
1903 1 -1.7512758711860176e-06 1.1281004029481885e+01 1.1771850089333885e+01 1.6208875809839245e+01 0 0 0
1904 1 1.6550058794875089e-05 8.7470176333748455e+00 1.1815740856381293e+01 1.6249426847738668e+01 0 0 0
1905 1 5.8106506976496178e-06 1.0109357627955246e+01 9.9167454934006116e+00 1.5121625960193839e+01 0 0 0
1906 1 -1.1545672263585911e-05 9.9777039546568904e+00 1.1416806121260098e+01 1.5364248199872463e+01 0 0 0
1909 1 2.4068434161524574e-06 1.0053629611223746e+01 9.1150386843542623e+00 1.6540970145964177e+01 0 0 0
1910 1 5.5785739956755224e-06 7.5616211100836184e+00 9.9294377592670156e+00 1.5089882261027549e+01 0 0 0
1914 1 -4.0513609245051908e-06 7.5793106956394078e+00 9.1844510166065714e+00 1.6584365124445188e+01 0 0 0
1940 1 5.2635999908696471e-06 1.3798641642794180e+01 1.1738016680896784e+01 1.6256418577696131e+01 0 0 0
1942 1 8.6153241436302253e-07 1.5150278694614695e+01 1.1427147102862069e+01 1.5424043265818664e+01 0 0 0
1945 1 7.1682013257151233e-07 1.5178533227652421e+01 9.1249058461546344e+00 1.6529705025242951e+01 0 0 0
1946 1 2.5038275123569163e-06 1.2553715989643727e+01 9.8798633715577058e+00 1.5107221642173515e+01 0 0 0
1949 1 -2.2760916051006112e-07 1.2561340651348932e+01 7.6199154203686073e+00 1.6235429581223819e+01 0 0 0
1950 1 6.2600538488448500e-07 1.2515245487375287e+01 9.1485484059526101e+00 1.6511469159470085e+01 0 0 0
1952 1 -1.6295016429141206e-06 1.0087078834411191e+01 7.6052990501661304e+00 1.6263662514200522e+01 0 0 0
1972 1 6.8714341368674161e-06 1.5144523641558619e+01 7.5952962025556019e+00 1.6303222806096766e+01 0 0 0
1225 1 3.8954455236022905e-06 1.8887933592085304e+01 1.0336711805011847e+01 1.0003413201289060e+01 0 0 0
1226 1 -2.0588418799323009e-06 1.6368158733928951e+01 1.0212402312805860e+01 1.0026014296341577e+01 0 0 0
1233 1 -1.5566579089840698e-06 1.6364698557568804e+01 7.9913539593195351e+00 1.1147240566198191e+01 0 0 0
1261 1 -1.0796760823007021e-06 2.1423876570472284e+01 1.0254314848348576e+01 9.9764519543897965e+00 0 0 0
1267 1 4.9099846342583795e-07 2.1416456361426039e+01 7.9664543133780601e+00 1.1131924237826510e+01 0 0 0
1268 1 2.9322631059913447e-06 1.8949973854400671e+01 7.9703728320742222e+00 1.1078186154447630e+01 0 0 0
1271 1 5.6371498304237743e-06 1.8892063129778812e+01 6.4611232218915049e+00 1.0828041601043966e+01 0 0 0
1272 1 5.2948830210768268e-06 1.6393781980649841e+01 6.4519291282615123e+00 1.0881698907142024e+01 0 0 0
1294 1 2.7761482325973836e-06 2.1429813036843434e+01 6.4615152084833225e+00 1.0864357960046192e+01 0 0 0
1538 1 -4.6786280470736395e-06 1.5102916022667355e+01 1.2161753190883461e+01 1.1079128228797975e+01 0 0 0
1591 1 -4.4091898854859112e-06 2.0103844425996325e+01 1.2195845143878634e+01 1.1080841535787313e+01 0 0 0
1593 1 2.1826620033908271e-06 1.8853103113257188e+01 1.2586757748336710e+01 1.1866062075609280e+01 0 0 0
1594 1 2.6073841259594572e-06 1.6383127818052035e+01 1.2578041146118677e+01 1.1818644195723364e+01 0 0 0
1595 1 -4.3733124902320696e-06 1.7600178919652876e+01 1.0653143987775103e+01 1.0839412238064485e+01 0 0 0
1596 1 -5.6691498298172842e-06 1.7617100054528223e+01 1.2178367365337889e+01 1.1038762960218131e+01 0 0 0
1597 1 2.9917634198157180e-06 1.8823314637881762e+01 1.1816764591187544e+01 1.3214299954809366e+01 0 0 0
1598 1 2.6770218710156165e-06 1.6393563318437767e+01 1.1858351903067311e+01 1.3213485266632004e+01 0 0 0
1599 1 3.6435997319662932e-06 1.7611858684300778e+01 9.9304678950859593e+00 1.2216710160807180e+01 0 0 0
1600 1 6.4241681584319336e-06 1.5101130356203377e+01 1.0611502944126254e+01 1.0857265982691223e+01 0 0 0
1601 1 2.7782195734047730e-06 1.6364139494814196e+01 1.0297884733668976e+01 1.3001359742622483e+01 0 0 0
1603 1 4.4290425073527058e-06 1.5137312526232364e+01 8.3098187211687193e+00 1.1973076413417729e+01 0 0 0
1605 1 -3.7942056884331387e-06 1.6454565447369845e+01 9.5085252943819114e+00 1.4309739863657301e+01 0 0 0
1636 1 1.9347389927461457e-06 2.1412753281144326e+01 1.2525690786547418e+01 1.1929952417836551e+01 0 0 0
1637 1 -4.1470823654848670e-06 2.1398655530936985e+01 1.1767261376843983e+01 1.3248523106383592e+01 0 0 0
1638 1 -2.1607046093880474e-06 2.0125293024468597e+01 1.0681521785186151e+01 1.0789125001880169e+01 0 0 0
1639 1 2.9326484680480375e-06 2.1388709433104996e+01 1.0258521970205248e+01 1.3000779381693986e+01 0 0 0
1640 1 -1.0408305994362336e-06 1.8879484669636170e+01 1.0285931688552244e+01 1.3002718490451750e+01 0 0 0
1641 1 -4.0127769032896053e-06 2.0145083338977855e+01 8.3783737947274322e+00 1.1907972859477569e+01 0 0 0
1642 1 -4.8968485778842514e-06 2.0123668888467435e+01 9.9353082563510711e+00 1.2162624550069230e+01 0 0 0
1643 1 -5.3160827858501652e-07 2.1475211801732939e+01 9.4489721972436129e+00 1.4320047588408288e+01 0 0 0
1644 1 4.6170975386276865e-06 1.8903239681935908e+01 9.5143830626312926e+00 1.4346171874099326e+01 0 0 0
1645 1 1.5247027979944669e-06 2.0092996588617680e+01 7.5967184315728975e+00 1.3265258248994034e+01 0 0 0
1646 1 -5.3377187101043266e-06 1.7661581844558945e+01 8.3895390254759672e+00 1.1907884649603099e+01 0 0 0
1647 1 6.2981663113404467e-06 1.8872626893995410e+01 8.0253173506143796e+00 1.4032868887351984e+01 0 0 0
1648 1 -7.3662799975915380e-07 1.6400639917153025e+01 7.9865092540415512e+00 1.4109521545941618e+01 0 0 0
1650 1 -1.1857178830411786e-06 1.7612077267672770e+01 7.6062977760432871e+00 1.3267533192210305e+01 0 0 0
1651 1 -2.5338193304485774e-06 1.8904524924497128e+01 7.2305759168871973e+00 1.5391547594758343e+01 0 0 0
1652 1 -4.3275563309051687e-06 1.6381834368849326e+01 7.2253309713288418e+00 1.5438593816274469e+01 0 0 0
1674 1 3.3880009577107686e-06 2.1361210560480597e+01 7.9310641458766273e+00 1.4060064767274257e+01 0 0 0
1675 1 7.5359620228843289e-07 2.1401090518201819e+01 7.1462054806261674e+00 1.5418232850519946e+01 0 0 0
1933 1 -5.4788508003707696e-06 1.7608814887818063e+01 1.2244055410124789e+01 1.4023648707740675e+01 0 0 0
1937 1 5.4053300494170892e-07 1.7691850718960318e+01 1.1484937766700462e+01 1.5344169283314461e+01 0 0 0
1938 1 -6.5317124713835462e-07 1.5173189878859084e+01 1.2159827863354998e+01 1.4076773462662745e+01 0 0 0
1939 1 -9.3069968298348715e-07 1.6385452767813788e+01 1.1787969628842967e+01 1.6260072327456015e+01 0 0 0
1941 1 4.2244721459438082e-06 1.5157198764425296e+01 9.8870993281259576e+00 1.5126141388155281e+01 0 0 0
1958 1 2.4613613181758749e-06 2.0123348461798827e+01 1.2225277834714046e+01 1.4022171942882277e+01 0 0 0
1959 1 2.3887795819467383e-06 2.1452360231448797e+01 1.1725691502913252e+01 1.6246988878941238e+01 0 0 0
1960 1 2.3876398932783020e-06 1.8973733916786088e+01 1.1812532577538180e+01 1.6245448091086601e+01 0 0 0
1961 1 2.8667538277394370e-06 2.0198891048747168e+01 9.8673245270006280e+00 1.5153827576046263e+01 0 0 0
1962 1 -4.8053375791426984e-06 2.0199278619896596e+01 1.1390996266781698e+01 1.5353989265206968e+01 0 0 0
1965 1 -1.7402687492553039e-06 2.0158556575242088e+01 9.1126213923090837e+00 1.6557386184580000e+01 0 0 0
1966 1 -3.6132048702437321e-06 1.7717193821722230e+01 9.9579579854496796e+00 1.5137291054197345e+01 0 0 0
1969 1 1.2345073579779195e-05 1.7620302047316379e+01 7.6672094749405604e+00 1.6237857554630448e+01 0 0 0
1970 1 -5.9864783726821937e-06 1.7637554506331615e+01 9.1415727238448774e+00 1.6517460459856501e+01 0 0 0
1977 1 -5.6898989234172026e-06 2.0129663952568652e+01 7.5451283772379449e+00 1.6157218031658452e+01 0 0 0
1345 1 -3.8975053973596565e-07 1.2853926467401298e+00 1.8686773386904473e+01 1.0045488919526667e+01 0 0 0
1370 1 -3.7964106415453174e-06 6.2652034120492974e+00 1.8597537685978942e+01 9.9944225740571913e+00 0 0 0
1371 1 -2.1351484293546856e-06 3.7625964669964187e+00 1.8632515846758455e+01 1.0036082971549899e+01 0 0 0
1378 1 -1.4526446278407273e-06 3.8107778136621295e+00 1.6393286936638376e+01 1.1133798373807752e+01 0 0 0
1379 1 2.4283206126689555e-07 1.2779031880197309e+00 1.6356072756972033e+01 1.1079918050416680e+01 0 0 0
1380 1 -4.1177875441519208e-06 2.4737347635838853e+00 1.4463665642187634e+01 1.0035697838337217e+01 0 0 0
1382 1 6.9291867758559173e-07 1.1917786686923193e+00 1.4852775154099907e+01 1.0818674560309105e+01 0 0 0
1384 1 -8.9222342026632076e-07 2.2625361423727696e+01 1.4417484258232856e+01 1.0016853040855075e+01 -1 0 0
1385 1 -3.6640250996370163e-06 1.2588491342610846e+00 1.4085189449898113e+01 1.2112579986493415e+01 0 0 0
1419 1 -3.8838881675032224e-06 6.3265445659900061e+00 1.6337932219046444e+01 1.1061653565231735e+01 0 0 0
1420 1 -3.9678623185016002e-07 7.5557966527292768e+00 1.4449688480723829e+01 9.9598458352082044e+00 0 0 0
1422 1 4.9499213780122363e-06 6.2504190820820833e+00 1.4807786865015496e+01 1.0882374104900316e+01 0 0 0
1423 1 -4.0804433988522600e-06 3.7211957512300451e+00 1.4866779173724124e+01 1.0840909104531066e+01 0 0 0
1425 1 1.5388977092792571e-06 4.9893971773906305e+00 1.4458348230939942e+01 1.0078898196056146e+01 0 0 0
1426 1 -5.3557282989919698e-06 6.2952856850763004e+00 1.4041229009173826e+01 1.2183995961661900e+01 0 0 0
1427 1 2.1115625532402523e-06 3.7523916632304637e+00 1.4063287402819125e+01 1.2135196465650278e+01 0 0 0
1722 1 -1.9978673438753960e-06 2.2675224033043552e+01 1.8236050329328126e+01 1.2147467550362700e+01 -1 0 0
1742 1 -1.1581472121893001e-06 5.0185281499512371e+00 1.8251188779552511e+01 1.2181462144542818e+01 0 0 0
1744 1 3.9817465449073067e-06 3.8064244923680732e+00 1.8624642235157928e+01 1.2989271258194513e+01 0 0 0
1745 1 3.6475695262680819e-06 1.2367707670839545e+00 1.8679835043603930e+01 1.2949127056639382e+01 0 0 0
1746 1 9.8698580618638984e-08 2.5073383356736749e+00 1.6753836948094207e+01 1.1911943956319233e+01 0 0 0
1747 1 -8.7961676858710888e-06 2.5265152837258942e+00 1.8281072744403946e+01 1.2182293435597245e+01 0 0 0
1748 1 -1.1487503021742754e-06 3.7783494717336890e+00 1.7822033640337231e+01 1.4368009861298834e+01 0 0 0
1749 1 -4.4201949077358555e-06 1.2342942377593669e+00 1.7869051661843741e+01 1.4331050625371457e+01 0 0 0
1750 1 1.9080288764690093e-06 2.4571763687848120e+00 1.5936360439427267e+01 1.3221613001873857e+01 0 0 0
1751 1 1.3194720674782859e-06 2.2666441139918128e+01 1.6704693176242149e+01 1.1885033851528009e+01 -1 0 0
1752 1 -3.5157553910302335e-06 1.2367656649699470e+00 1.6351392281199903e+01 1.4034947420255602e+01 0 0 0
1753 1 3.7577353060926684e-06 2.2663696160207337e+01 1.4462266911787022e+01 1.2979207691029385e+01 -1 0 0
1754 1 1.9828983432817102e-07 2.2686804267841680e+01 1.5975426154388884e+01 1.3224920286696074e+01 -1 0 0
1755 1 -2.6176590867732962e-06 1.2322477212123060e+00 1.5621174090879377e+01 1.5415499401527294e+01 0 0 0
1756 1 -7.9479005195902003e-06 2.2665670089523438e+01 1.3675467473193827e+01 1.4395673260604436e+01 -1 0 0
1779 1 2.7281087572664229e-06 6.3202379108835407e+00 1.8640818937133442e+01 1.3004934071215537e+01 0 0 0
1781 1 2.6353411814392554e-06 7.5251900451396319e+00 1.8217980541955264e+01 1.2153260843057847e+01 0 0 0
1783 1 1.3968330781765539e-06 6.2890995840265926e+00 1.7865046551368476e+01 1.4341164571543484e+01 0 0 0
1784 1 2.4115802684121479e-06 7.5127472278532048e+00 1.6002604483147966e+01 1.3227874442198303e+01 0 0 0
1785 1 -1.9040910687744370e-06 5.0387108389951631e+00 1.6745501980010875e+01 1.1917002558239590e+01 0 0 0
1786 1 -4.5311312964094749e-06 6.2879912166191048e+00 1.6373478659991601e+01 1.4057830406920475e+01 0 0 0
1787 1 5.0168600743277757e-07 3.7344849963618629e+00 1.6342365404665021e+01 1.4085842417382990e+01 0 0 0
1788 1 1.8506958404706719e-06 5.0371683441554946e+00 1.4411141031150486e+01 1.2971757264991137e+01 0 0 0
1789 1 2.0239475848289179e-07 4.9403943398197550e+00 1.5941433229046661e+01 1.3240559787762461e+01 0 0 0
1790 1 -3.6528152278742090e-07 6.3038366440295617e+00 1.5624064850041831e+01 1.5387298070968294e+01 0 0 0
1791 1 -2.1317773459513700e-06 3.7768541980492318e+00 1.5641402301131100e+01 1.5444127157553606e+01 0 0 0
1792 1 -8.1765440562258140e-06 5.0592525098383225e+00 1.3727209625219228e+01 1.4326245966118076e+01 0 0 0
1793 1 4.6284775461978587e-06 2.4865778510098000e+00 1.4414112220577250e+01 1.2945060457964161e+01 0 0 0
1794 1 7.0845814950197496e-06 3.7228300928619613e+00 1.4111008960338006e+01 1.5150639825615443e+01 0 0 0
1795 1 7.6266359974620709e-06 1.2010122800668841e+00 1.4109163156983071e+01 1.5164941963179475e+01 0 0 0
1797 1 -8.9332487813742438e-06 2.4768502251183384e+00 1.3702199518092421e+01 1.4329768846454073e+01 0 0 0
1798 1 -1.4736438948882722e-05 3.8069908271953290e+00 1.3394944705700093e+01 1.6624584433657223e+01 0 0 0
1799 1 -5.1154770480488409e-06 1.2757118818257771e+00 1.3365854124701226e+01 1.6596314977157462e+01 0 0 0
1843 1 7.0020621576721140e-06 7.5546698691762399e+00 1.4457926494013542e+01 1.3044542144956299e+01 0 0 0
1845 1 1.0683655643273259e-05 6.2535293441826552e+00 1.4065899934239283e+01 1.5196674263874934e+01 0 0 0
1849 1 -2.1855872010117997e-05 6.2319549032256853e+00 1.3378236046149073e+01 1.6624284889257368e+01 0 0 0
2015 1 5.5730047367434544e-06 2.4831701823824086e+00 1.8208160908216673e+01 1.5160869786794924e+01 0 0 0
2019 1 7.4503894652697021e-07 2.4746214978557259e+00 1.7505348269594016e+01 1.6579558863417226e+01 0 0 0
2020 1 -5.1593570638283405e-08 2.2687797340755836e+01 1.8278898456088513e+01 1.5157427191838828e+01 -1 0 0
2022 1 -6.0601513407697218e-06 2.2665759566588292e+01 1.5984893782228296e+01 1.6336179459756803e+01 -1 0 0
2023 1 3.9462820827654017e-06 2.2686488422133660e+01 1.7543137620943611e+01 1.6575837276459140e+01 -1 0 0
2048 1 8.8821092842644745e-06 7.5745286400138614e+00 1.7544433853575455e+01 1.6501468344789831e+01 0 0 0
2049 1 -1.2494037445098919e-06 5.0116340361598084e+00 1.8257986670818251e+01 1.5177572558401316e+01 0 0 0
2052 1 7.2962335030875423e-06 5.0313180901633734e+00 1.6028906430979884e+01 1.6198368322210491e+01 0 0 0
2053 1 -1.2378930161833717e-05 5.0313204720533946e+00 1.7522111067505477e+01 1.6543576863983038e+01 0 0 0
2055 1 3.5057354575683366e-06 2.4871351551987901e+00 1.6012053871780015e+01 1.6328820314276136e+01 0 0 0
2089 1 5.4514631132227353e-07 7.5986201758234149e+00 1.6034736133201761e+01 1.6223438811218859e+01 0 0 0
1410 1 -1.3999681121672330e-06 1.1327139526474967e+01 1.8584104539365324e+01 1.0115697846736238e+01 0 0 0
1411 1 3.6710615540271393e-06 8.8036300331936488e+00 1.8625468631783782e+01 9.9845350018704728e+00 0 0 0
1418 1 -1.3779647283648240e-06 8.7977957380563776e+00 1.6353594534450451e+01 1.1081880019211063e+01 0 0 0
1465 1 -9.6065448143951578e-07 1.3754124712304465e+01 1.8608399702928740e+01 1.0068135105970423e+01 0 0 0
1472 1 -1.0285401458835219e-06 1.3831758223081337e+01 1.6357292058821542e+01 1.1050804757939636e+01 0 0 0
1473 1 1.3346673549250758e-08 1.1366663724204841e+01 1.6307640904591594e+01 1.1113325815281888e+01 0 0 0
1474 1 -3.2014941083275807e-06 1.2568478516402095e+01 1.4411489148064121e+01 1.0022941354366782e+01 0 0 0
1476 1 -1.4937819027501504e-06 1.1318507669242756e+01 1.4836952469180563e+01 1.0849058848969531e+01 0 0 0
1477 1 3.7559525311215848e-06 8.7967897667522692e+00 1.4847397348797033e+01 1.0817666220213086e+01 0 0 0
1479 1 -3.6106492434458949e-06 1.0088542076002192e+01 1.4459959741542603e+01 1.0055629725031579e+01 0 0 0
1480 1 -9.5569414987062056e-07 1.1382729518597271e+01 1.4047134324333838e+01 1.2173414400495643e+01 0 0 0
1481 1 -8.8686094026701709e-06 8.8209299287349623e+00 1.4079035389891111e+01 1.2167504628803032e+01 0 0 0
1533 1 -2.4221320093542593e-06 1.3886602733768672e+01 1.4830043413631337e+01 1.0813334346683220e+01 0 0 0
1535 1 -7.8345932818310782e-07 1.5099943619129530e+01 1.4374149506189601e+01 9.9994147322698836e+00 0 0 0
1537 1 -1.4703855910353336e-06 1.3849275225367624e+01 1.4051111403127990e+01 1.2150480935957802e+01 0 0 0
1776 1 -4.3318475990265953e-06 1.0061248389946595e+01 1.8213665131803982e+01 1.2133261709777795e+01 0 0 0
1778 1 1.4113070126016379e-06 8.7983432746143571e+00 1.8672494878039036e+01 1.2923194905560772e+01 0 0 0
1780 1 2.0405121008261896e-06 7.5842893125359909e+00 1.6699481609992510e+01 1.1869618653415404e+01 0 0 0
1782 1 -2.6249722457976859e-06 8.7956108417174779e+00 1.7863820443237827e+01 1.4301025859630156e+01 0 0 0
1826 1 2.2782990225926070e-06 1.5113972024265445e+01 1.8240212931481043e+01 1.2201841378166593e+01 0 0 0
1828 1 7.6983819221865560e-07 1.3827837618306305e+01 1.8580955887820764e+01 1.3021359921559595e+01 0 0 0
1829 1 5.6857971177559486e-07 1.1314543185866839e+01 1.8619951618034388e+01 1.2996109397162325e+01 0 0 0
1830 1 -1.1971881670200473e-06 1.2583851382791700e+01 1.6690342233626776e+01 1.1904746025179971e+01 0 0 0
1831 1 2.6316302701829196e-06 1.2568237556318715e+01 1.8238097212624961e+01 1.2197254770046905e+01 0 0 0
1832 1 -2.9716386503498833e-06 1.3862983792991557e+01 1.7854494103749321e+01 1.4336648439129702e+01 0 0 0
1833 1 1.3031445786536848e-06 1.1366137035135081e+01 1.7834018138415225e+01 1.4343775756982149e+01 0 0 0
1834 1 -1.6400579482600394e-06 1.2631140070949074e+01 1.5920915039759439e+01 1.3253256581025298e+01 0 0 0
1835 1 3.7682406571375050e-07 1.0054655224595090e+01 1.6691162899394993e+01 1.1914244470424869e+01 0 0 0
1836 1 3.8742882627629652e-06 1.1319372888507120e+01 1.6345397594449341e+01 1.4041516265111232e+01 0 0 0
1837 1 -2.5882025961087744e-06 8.8537159742340741e+00 1.6323031743475013e+01 1.4000115921101028e+01 0 0 0
1838 1 2.9100733321096011e-06 1.0108075629233221e+01 1.4417286468901963e+01 1.2979208077605945e+01 0 0 0
1839 1 1.9960013762310964e-06 1.0112334254009527e+01 1.5925317079886655e+01 1.3269816159349157e+01 0 0 0
1840 1 3.0292178080000609e-06 1.1346945807406819e+01 1.5577653055188998e+01 1.5329673943711539e+01 0 0 0
1841 1 -4.7644482677497295e-06 8.8414108336651491e+00 1.5621538874485069e+01 1.5331774657253900e+01 0 0 0
1842 1 -8.3835672270157839e-06 1.0069352786637822e+01 1.3729172965098227e+01 1.4320163369029041e+01 0 0 0
1844 1 1.2797585751022559e-05 8.7882500301418975e+00 1.4139706233671900e+01 1.5119923849856317e+01 0 0 0
1847 1 -1.0001338381205791e-05 7.4983011800396770e+00 1.3687122788919188e+01 1.4383368493966955e+01 0 0 0
1848 1 -1.0196325220801751e-05 8.7981018336628498e+00 1.3305603886850227e+01 1.6552843939974295e+01 0 0 0
1886 1 -1.7020402090835725e-06 1.5123256939517645e+01 1.6706105029029871e+01 1.1887244493836304e+01 0 0 0
1888 1 -9.9565382987454399e-06 1.3905430944824870e+01 1.6326003750603483e+01 1.4099330165244742e+01 0 0 0
1889 1 -6.9625834994785836e-07 1.5135728561876199e+01 1.4390235738929428e+01 1.2928829673858093e+01 0 0 0
1890 1 5.8612915378853555e-06 1.5187566238380452e+01 1.5943261248391874e+01 1.3209744786468463e+01 0 0 0
1892 1 4.8894233839777343e-06 1.3893401059231008e+01 1.5547474752851002e+01 1.5466033266714566e+01 0 0 0
1894 1 5.2670187130920828e-06 1.2593408499343949e+01 1.4412841795976618e+01 1.2994026522954671e+01 0 0 0
1895 1 -2.1204269884290388e-07 1.3892090686607684e+01 1.4064292976176214e+01 1.5140772336227956e+01 0 0 0
1896 1 1.1354990865717028e-06 1.1321263304578650e+01 1.4038630157316243e+01 1.5136183098346368e+01 0 0 0
1898 1 -5.5237207585319454e-06 1.2607175949931415e+01 1.3725514424317735e+01 1.4325459378238781e+01 0 0 0
1899 1 6.4285133110166019e-06 1.3886362537490719e+01 1.3296584492980571e+01 1.6617279043578844e+01 0 0 0
1900 1 -3.3905353752244409e-06 1.1311367341139654e+01 1.3237142688905504e+01 1.6538329216481859e+01 0 0 0
2044 1 -3.8281039314080612e-07 7.5808824307486082e+00 1.8253127899435285e+01 1.5088632902405093e+01 0 0 0
2078 1 -4.6378423195135388e-07 1.2582184705703684e+01 1.8246304708117652e+01 1.5209278382574350e+01 0 0 0
2082 1 2.1032219836154375e-06 1.2558031871102322e+01 1.7455826805628302e+01 1.6557186095249374e+01 0 0 0
2083 1 -9.0387686029834084e-07 1.0072000110226936e+01 1.8202314289498851e+01 1.5125354521422029e+01 0 0 0
2086 1 -5.6903963015039827e-06 1.0123346528071279e+01 1.6015648301647275e+01 1.6251180981605046e+01 0 0 0
2087 1 1.2427027096470363e-05 1.0099523689358026e+01 1.7434478056338129e+01 1.6536704909385396e+01 0 0 0
2111 1 5.3343663190162237e-07 1.5100901439383611e+01 1.8271161368027112e+01 1.5165884650677002e+01 0 0 0
2114 1 -6.2659438377280817e-06 1.5121204368832615e+01 1.5947155959332070e+01 1.6330768038810064e+01 0 0 0
2115 1 7.2997714069418657e-06 1.5061054086808404e+01 1.7474271197072490e+01 1.6610208519655430e+01 0 0 0
2117 1 -2.3747610569279681e-06 1.2619544272062827e+01 1.5945546817670637e+01 1.6234126026756314e+01 0 0 0
1464 1 3.4581751147892448e-07 1.6352213833426472e+01 1.8627471707721355e+01 1.0009750915943219e+01 0 0 0
1520 1 -2.8082923481674051e-06 2.1452319152162033e+01 1.8603250867802789e+01 1.0018311915725644e+01 0 0 0
1521 1 -5.0413613084474760e-06 1.8879696756015818e+01 1.8619051523910212e+01 9.9784673665423043e+00 0 0 0
1528 1 3.9361392980255987e-08 1.8940822992478324e+01 1.6348599198986086e+01 1.1116345118911713e+01 0 0 0
1529 1 -2.2189729813952539e-06 1.6353097426481131e+01 1.6303113799080997e+01 1.1100584556399955e+01 0 0 0
1530 1 -6.1558518429550350e-06 1.7641530192535086e+01 1.4422387789140343e+01 1.0002791169077577e+01 0 0 0
1532 1 1.3131412903247209e-06 1.6398939511029369e+01 1.4734017891650984e+01 1.0844324524191087e+01 0 0 0
1536 1 4.8670440321734654e-06 1.6406125580542017e+01 1.4029158065489218e+01 1.2139151867000603e+01 0 0 0
1583 1 -2.8100412610021534e-06 2.1391569497761903e+01 1.6308670557882259e+01 1.1081279664782581e+01 0 0 0
1585 1 4.8910371553085034e-06 2.1410604500961956e+01 1.4804756322482522e+01 1.0865727675055110e+01 0 0 0
1586 1 1.2665307109096099e-06 1.8920483463858147e+01 1.4792305761806816e+01 1.0819083154010347e+01 0 0 0
1588 1 -2.3900734030754571e-06 2.0153205616067204e+01 1.4431910265544312e+01 1.0026331261064545e+01 0 0 0
1589 1 -1.9623291101405301e-06 2.1368743533503025e+01 1.4059492731935814e+01 1.2253421528967410e+01 0 0 0
1590 1 2.2616918879148707e-06 1.8920067765183273e+01 1.4077527816304757e+01 1.2193138633308944e+01 0 0 0
1877 1 -2.2151872704855944e-06 2.0172847787018252e+01 1.8276247937106842e+01 1.2164028941980940e+01 0 0 0
1879 1 5.6249143799533473e-06 1.8918973760152820e+01 1.8640703572847393e+01 1.2964455552328465e+01 0 0 0
1880 1 -3.1155684647405238e-07 1.6406949658618636e+01 1.8624910968939488e+01 1.3042528767863505e+01 0 0 0
1881 1 -2.0169970390476675e-06 1.7551161200203030e+01 1.6706736136596604e+01 1.1945652191840461e+01 0 0 0
1882 1 1.0132236637197074e-06 1.7615473651659844e+01 1.8251507175599027e+01 1.2150940900206564e+01 0 0 0
1883 1 -4.4367513997447910e-06 1.8936224654906788e+01 1.7900530349233517e+01 1.4369570339250117e+01 0 0 0
1884 1 -2.7112056161248395e-06 1.6432844562396472e+01 1.7880506477042339e+01 1.4407951443619057e+01 0 0 0
1885 1 1.2583864811774685e-06 1.7598228407762893e+01 1.5977576302541980e+01 1.3229769304254020e+01 0 0 0
1887 1 -5.3598090219841002e-06 1.6426023073958905e+01 1.6368098355251135e+01 1.4101342018381954e+01 0 0 0
1891 1 9.2798445243258686e-06 1.6419240753044004e+01 1.5601432837639754e+01 1.5450888300483671e+01 0 0 0
1893 1 -1.2243026758494789e-06 1.5104959175372070e+01 1.3687854302408736e+01 1.4320819733940994e+01 0 0 0
1920 1 2.4727222345832339e-06 2.1395616084748216e+01 1.8670612190792074e+01 1.2957040648887409e+01 0 0 0
1921 1 3.4393159362672411e-06 2.1412308430783941e+01 1.7894124580019504e+01 1.4305493658293983e+01 0 0 0
1922 1 5.0209543118998512e-07 2.0143811220868603e+01 1.6779724362610480e+01 1.1962090345989992e+01 0 0 0
1923 1 -4.0808367986112933e-06 2.1399837539621934e+01 1.6369643641995012e+01 1.4029933138274648e+01 0 0 0
1924 1 -5.1859512312663154e-06 1.8929504306197817e+01 1.6341627603719630e+01 1.4011186611927556e+01 0 0 0
1925 1 -2.6753512450969585e-06 2.0136831815716274e+01 1.4390340281478590e+01 1.2997920978600732e+01 0 0 0
1926 1 2.5176384305643104e-06 2.0148795142116310e+01 1.5985821431932214e+01 1.3242834465549420e+01 0 0 0
1927 1 2.6401603620449018e-06 2.1411342718117904e+01 1.5594638229255683e+01 1.5376713714162983e+01 0 0 0
1928 1 5.4114398045028567e-06 1.8907347363208956e+01 1.5584646578554578e+01 1.5326691964171216e+01 0 0 0
1929 1 -1.9843204055839200e-06 2.0186859491541032e+01 1.3700790761429959e+01 1.4381688829709432e+01 0 0 0
1930 1 -3.2193486994178257e-06 1.7591412124278285e+01 1.4474597843151100e+01 1.2986700397659977e+01 0 0 0
1931 1 -5.8104311554044471e-06 1.8907931961211723e+01 1.4086857918997156e+01 1.5164107786885879e+01 0 0 0
1932 1 -5.3144319275999888e-06 1.6409899542460938e+01 1.4105888058217863e+01 1.5159650055785452e+01 0 0 0
1934 1 4.5462332653724476e-06 1.7658398319323666e+01 1.3715407723288463e+01 1.4340554743505384e+01 0 0 0
1935 1 6.5530977285175399e-06 1.8870853267447988e+01 1.3276040411843940e+01 1.6590549786807522e+01 0 0 0
1936 1 -2.1025929859482875e-06 1.6431869041867674e+01 1.3349389298759661e+01 1.6512986041359181e+01 0 0 0
1956 1 5.8680099149392212e-06 2.1458125993898491e+01 1.4085804706268389e+01 1.5141729345950043e+01 0 0 0
1957 1 -1.0532671525350739e-05 2.1469421116957903e+01 1.3281895764111697e+01 1.6601826713008723e+01 0 0 0
2106 1 5.1361737618389134e-08 1.7705581439320390e+01 1.8264096221951021e+01 1.5210232936241450e+01 0 0 0
2110 1 -6.0819726186032339e-06 1.7635649045339829e+01 1.7536333644833888e+01 1.6602383386344350e+01 0 0 0
2123 1 -6.5757257601616605e-07 2.0173881313238425e+01 1.8321786814747480e+01 1.5140233086521599e+01 0 0 0
2126 1 1.6769304080392849e-06 2.0146396810582548e+01 1.5953862427271458e+01 1.6207172720291684e+01 0 0 0
2127 1 3.4243600596105132e-06 2.0202671755962047e+01 1.7508963838545572e+01 1.6546682856850921e+01 0 0 0
2129 1 -3.5745770475389377e-06 1.7661168858425249e+01 1.6007656238213691e+01 1.6233755889422344e+01 0 0 0
1205 1 -2.4497133652554225e-06 2.5051914355794844e+00 1.1186328984035043e-02 1.1889048675051328e+01 0 0 0
1209 1 7.8027916006507836e-07 8.7636316652908094e-03 2.5053371270470990e+01 1.1902339272463388e+01 0 -1 0
1255 1 -1.5004349058660376e-06 7.5621224160883393e+00 1.1929437415520994e-02 1.1866764747763860e+01 0 0 0
1259 1 9.5547612116959557e-07 5.0736052192872574e+00 4.4703590698418338e-03 1.1930767127264415e+01 0 0 0
1703 1 -5.0365149657254680e-07 1.2417642946646898e+00 2.4729687492604747e+01 1.1086233608517746e+01 0 0 0
1704 1 -8.3360289551090356e-07 2.2685304734709280e+01 2.2824256040434804e+01 1.0022412954656787e+01 -1 0 0
1706 1 -3.0905048278049018e-07 6.2862721929921737e+00 2.4723427840280554e+01 1.1056148776799619e+01 0 0 0
1707 1 -8.8394424668651111e-07 3.8119960487330684e+00 2.4715541078965700e+01 1.1070488766420022e+01 0 0 0
1708 1 -4.0686519671817983e-06 5.0803847203251822e+00 2.2815596808442528e+01 1.0003351216174073e+01 0 0 0
1710 1 8.2469815809858427e-07 3.7522981264896842e+00 2.3235992736425139e+01 1.0835588475884901e+01 0 0 0
1711 1 -5.1104565894943356e-06 1.2485717196794088e+00 2.3192168452363042e+01 1.0803974855735399e+01 0 0 0
1713 1 1.3959942519214053e-06 2.5406397317545610e+00 2.2776754838248539e+01 1.0013785366573602e+01 0 0 0
1714 1 -2.7381514122816535e-06 3.8310361768663772e+00 2.2481061702345762e+01 1.2184194251986872e+01 0 0 0
1715 1 6.2994783284259552e-07 1.2652538106639362e+00 2.2416015597940202e+01 1.2139168511653398e+01 0 0 0
1716 1 -2.7994098789974510e-06 2.5208956884804761e+00 2.0571756246082934e+01 1.1135259245257133e+01 0 0 0
1718 1 2.0644446864155812e-06 1.2690307185296110e+00 2.0950941863531849e+01 1.1936886463495624e+01 0 0 0
1719 1 4.9493554234636042e-06 2.5241454076102413e-02 1.8992432798075725e+01 1.0782458152827029e+01 0 0 0
1720 1 1.4114895889084522e-06 4.6083598543266990e-02 2.0544481926547846e+01 1.1085913135219117e+01 0 0 0
1721 1 -3.1995667359862487e-06 1.2308472136200808e+00 2.0151701597507607e+01 1.3283805311482855e+01 0 0 0
1729 1 2.0031284909948022e-06 6.3427289405753040e+00 2.3177623534084990e+01 1.0809178197635502e+01 0 0 0
1731 1 -3.6295909031702084e-06 7.5611544391183392e+00 2.2860883405011123e+01 1.0007393746412161e+01 0 0 0
1733 1 -3.5729179019438779e-07 6.3238808252077563e+00 2.2442004716415966e+01 1.2199864849681031e+01 0 0 0
1736 1 -2.8142313417178161e-06 6.2988559965291691e+00 2.0903069053449951e+01 1.1924677432756789e+01 0 0 0
1737 1 6.6766143679016021e-06 3.8671573866658662e+00 2.0949485835507016e+01 1.1924565081212657e+01 0 0 0
1738 1 5.3362660793987115e-06 5.0195930737885801e+00 1.8975404776713020e+01 1.0778505760750816e+01 0 0 0
1739 1 -1.9202592642282429e-06 5.0810403255614123e+00 2.0472701935050484e+01 1.1093131231633192e+01 0 0 0
1740 1 -6.4396452135042300e-06 6.3285584294129267e+00 2.0157299811462835e+01 1.3305801002049446e+01 0 0 0
1741 1 -8.0282770073217946e-06 3.8349596791049572e+00 2.0179810018946771e+01 1.3260618707876656e+01 0 0 0
1743 1 2.3986486534736562e-06 2.5180856250907317e+00 1.9064503782095397e+01 1.0871638129567989e+01 0 0 0
1981 1 2.3116680452279775e-06 2.8748949066078704e-02 2.4297632825524264e+01 1.3212483771186170e+01 0 0 0
1982 1 2.4060750526982358e-06 5.0570213272300473e+00 2.4325740451424469e+01 1.3200913571408817e+01 0 0 0
1983 1 -1.3197317223866899e-06 3.7617813027572158e+00 2.4686035123597399e+01 1.4124532514135707e+01 0 0 0
1984 1 1.8255215562167894e-06 1.2879785192937174e+00 2.4743431798126121e+01 1.4108852414015612e+01 0 0 0
1985 1 -2.0994822657430172e-06 2.5134560380835271e+00 2.2784137395354261e+01 1.2996149176634381e+01 0 0 0
1986 1 3.4329979709593352e-06 2.4632803835742463e+00 2.4310942124023715e+01 1.3292806522333459e+01 0 0 0
1987 1 -1.8497749748794791e-06 3.7676029719248625e+00 2.3934686542735506e+01 1.5429730650969056e+01 0 0 0
1988 1 1.6303166519724656e-06 1.2451488312686891e+00 2.3963622817280065e+01 1.5448817733022651e+01 0 0 0
1989 1 -2.6758793599227177e-06 2.4952652795724810e+00 2.2040182648893310e+01 1.4337263378490569e+01 0 0 0
1990 1 -6.5514389236071868e-07 2.2650418104435236e+01 2.2814414463317654e+01 1.2937097593116899e+01 -1 0 0
1991 1 -7.0634025249020302e-06 1.2704757442348429e+00 2.2434259260793759e+01 1.5139835583525105e+01 0 0 0
1992 1 4.3010616499639509e-06 2.2645674385160167e+01 2.0582372114090749e+01 1.4010684840441170e+01 -1 0 0
1993 1 7.3152883486635984e-06 2.2675253047945702e+01 2.2037457358384824e+01 1.4288387361711310e+01 -1 0 0
1994 1 6.5915061632824007e-07 1.2330394647220762e+00 2.1689742174912514e+01 1.6568739568058636e+01 0 0 0
1995 1 -2.2026640368938926e-06 2.2635464693832819e+01 1.9808274683507129e+01 1.5444061454598623e+01 -1 0 0
1998 1 -2.0641905061869526e-06 6.3266970766371911e+00 2.4721605767147814e+01 1.4084682375075364e+01 0 0 0
1999 1 4.4615286318355825e-06 7.5626514882707117e+00 2.2816987103202671e+01 1.2965184368591668e+01 0 0 0
2000 1 -1.6051805363078410e-07 7.5758169396569697e+00 2.4351870582448235e+01 1.3247167243957522e+01 0 0 0
2002 1 6.1081857689610843e-08 6.3318484568697428e+00 2.3957709309440865e+01 1.5422476524776535e+01 0 0 0
2004 1 1.3943836814827551e-06 4.9998518223990311e+00 2.2832671883330672e+01 1.2991520583369478e+01 0 0 0
2005 1 6.9289166363120610e-07 6.2782410324058642e+00 2.2412119037645613e+01 1.5177937770905400e+01 0 0 0
2006 1 7.5002964711063852e-06 3.8116901695051153e+00 2.2470774725147020e+01 1.5129669737105695e+01 0 0 0
2007 1 3.5525738138151839e-06 5.0213758161808020e+00 2.0501862751379601e+01 1.4099311444468894e+01 0 0 0
2008 1 -3.2825662790408747e-06 5.0702295576649092e+00 2.2090060302955809e+01 1.4366630471842747e+01 0 0 0
2009 1 2.1352745530154914e-06 6.3822122854395733e+00 2.1570076560364480e+01 1.6591193223114502e+01 0 0 0
2010 1 -1.3720388871502618e-06 3.8154233759122342e+00 2.1694207362119830e+01 1.6519271619205124e+01 0 0 0
2011 1 -1.3397501913568202e-06 5.0513695946370687e+00 1.9704156762787417e+01 1.5482110336824690e+01 0 0 0
2012 1 5.7453614130716918e-06 2.5325401005192130e+00 2.0507906837175170e+01 1.4068573263079003e+01 0 0 0
2013 1 9.2854825975896355e-06 3.7578439716541920e+00 2.0105128295747260e+01 1.6297756033338420e+01 0 0 0
2014 1 -2.7343796450753777e-06 1.2587531807841514e+00 2.0112426802907937e+01 1.6276473252758748e+01 0 0 0
2016 1 -7.3349399107590898e-06 2.4915425006501151e+00 1.9747905892087044e+01 1.5425035929890234e+01 0 0 0
2043 1 -2.7209010370821316e-06 6.3109695295320591e+00 2.0087066729814225e+01 1.6267190509639164e+01 0 0 0
2045 1 5.4621021936667856e-06 7.5614508996446972e+00 1.9754645683519794e+01 1.5397867769789281e+01 0 0 0
2134 1 2.7310302985089183e-06 2.5270054940142583e+00 2.4333759833985511e+01 1.6213456747431113e+01 0 0 0
2136 1 -7.9746243678035088e-06 5.0338590526008420e-02 2.4301494473448585e+01 1.6296769884053408e+01 0 0 0
2139 1 -6.2596256755525647e-06 7.6049240868660499e+00 2.4323346168792785e+01 1.6286868237849031e+01 0 0 0
2141 1 -6.8119080264815154e-07 5.0507359824854356e+00 2.4389424476895691e+01 1.6310759883173599e+01 0 0 0
1289 1 2.6686349852578833e-06 1.2643980951396331e+01 2.6975193374106254e-02 1.1874208816823465e+01 0 0 0
1293 1 -2.3253973800392748e-06 1.0081138385537834e+01 4.8796395885446486e-03 1.1842084054479256e+01 0 0 0
1724 1 2.5100955959556938e-06 1.1376700698105688e+01 2.4742941684748459e+01 1.1053230235097606e+01 0 0 0
1725 1 -2.7334712067221495e-06 8.8409509837204734e+00 2.4749555675681780e+01 1.1048018493833100e+01 0 0 0
1726 1 -5.6284088169011253e-06 1.0099255950708168e+01 2.2826109313805553e+01 1.0018197035765951e+01 0 0 0
1728 1 -3.8184868137080008e-07 8.8699371245150544e+00 2.3218187910070807e+01 1.0835927935140742e+01 0 0 0
1732 1 -2.7569217678868622e-06 8.8126677596468195e+00 2.2436972870966049e+01 1.2188448344035995e+01 0 0 0
1734 1 -2.1491099811389744e-06 7.5854544812131390e+00 2.0520873169903552e+01 1.1131105350782008e+01 0 0 0
1759 1 -3.5253297132949081e-06 1.3936506174764865e+01 2.4673483930559623e+01 1.1089249048744495e+01 0 0 0
1760 1 -8.9255145094023135e-07 1.5070103746216743e+01 2.2772300295025964e+01 9.9992848890409860e+00 0 0 0
1762 1 -2.6712586629644016e-06 1.3889300508065842e+01 2.3216245573045665e+01 1.0838908380098912e+01 0 0 0
1763 1 6.0418566263096775e-06 1.1323745788697400e+01 2.3204206958220986e+01 1.0845390943478304e+01 0 0 0
1765 1 -1.0428135529444496e-06 1.2615096053881111e+01 2.2794540049407566e+01 1.0009791108579707e+01 0 0 0
1766 1 3.0035069943775026e-06 1.3890386728759298e+01 2.2450233559894759e+01 1.2165372435781794e+01 0 0 0
1767 1 -1.2720876847382094e-06 1.1389898516609119e+01 2.2492402194264656e+01 1.2187516581877057e+01 0 0 0
1768 1 5.9328005396988290e-06 1.2564925905952123e+01 2.0557481428212476e+01 1.1125960999260068e+01 0 0 0
1770 1 -2.9538529030217880e-06 1.1331928549850300e+01 2.0935100839118668e+01 1.1932147658798444e+01 0 0 0
1771 1 5.7790929379693966e-06 8.8245873061816891e+00 2.0960148926371122e+01 1.1954055302554188e+01 0 0 0
1772 1 9.8836426463525428e-07 1.0058944031672082e+01 1.9023702343351655e+01 1.0832873327443622e+01 0 0 0
1773 1 -1.5411394160319037e-06 1.0069548515046906e+01 2.0568137309450744e+01 1.1147101610629401e+01 0 0 0
1774 1 -6.5218769372841083e-06 1.1389372287270779e+01 2.0157297911337366e+01 1.3241221901667638e+01 0 0 0
1775 1 -7.2153434786640032e-06 8.8377684698345611e+00 2.0146340992424555e+01 1.3232728691348521e+01 0 0 0
1777 1 -3.0092759482460547e-06 7.5130511807835463e+00 1.9004598962722625e+01 1.0817227995673884e+01 0 0 0
1821 1 -1.7405342032360778e-06 1.3833949745212649e+01 2.0918568264214898e+01 1.1898542625432849e+01 0 0 0
1823 1 1.0636653817577859e-06 1.5159310543366423e+01 2.0523665751682522e+01 1.1072522063985563e+01 0 0 0
1825 1 9.4100658623248644e-07 1.3855873365388790e+01 2.0122327886468124e+01 1.3231453837005052e+01 0 0 0
1827 1 -4.9696097169112354e-06 1.2560486499836896e+01 1.9015198898029976e+01 1.0843511024858344e+01 0 0 0
1996 1 -1.0944904539616204e-07 1.0100585872138792e+01 2.4377502439354267e+01 1.3211984414122256e+01 0 0 0
1997 1 3.5002419770347666e-06 8.8435838728376464e+00 2.4773248859142761e+01 1.4032726286535491e+01 0 0 0
2001 1 -1.8839947954897099e-06 8.8611017125792255e+00 2.3995082330120646e+01 1.5344823280642574e+01 0 0 0
2003 1 6.7482157058875059e-08 7.5883210187937644e+00 2.2101310026923088e+01 1.4404704870794555e+01 0 0 0
2025 1 1.4634081942443024e-06 1.5151306311524165e+01 2.4267213782944804e+01 1.3235069218120270e+01 0 0 0
2026 1 -3.8103775404995836e-07 1.3905587048807172e+01 2.4698237828981565e+01 1.4135415788765908e+01 0 0 0
2027 1 2.7946527673243179e-06 1.1353239439479502e+01 2.4751553909341180e+01 1.4019781104082494e+01 0 0 0
2028 1 -1.6057830039385498e-06 1.2599801209546596e+01 2.2875774660310597e+01 1.2954768327821466e+01 0 0 0
2029 1 1.3101652593700183e-08 1.2643491378614128e+01 2.4344055156380012e+01 1.3215555634479752e+01 0 0 0
2030 1 -2.4401668878149440e-07 1.3886751105133655e+01 2.3942272663164228e+01 1.5449425640367926e+01 0 0 0
2031 1 -1.3622269648570868e-06 1.1320453853396357e+01 2.3991612530433290e+01 1.5387088948055778e+01 0 0 0
2032 1 -6.4185623926866140e-06 1.2608117059546363e+01 2.2133644486796452e+01 1.4340290931797279e+01 0 0 0
2033 1 1.6370044842637918e-06 1.0104879233442256e+01 2.2827601101255755e+01 1.3086807220336690e+01 0 0 0
2034 1 7.4669557248963122e-06 1.1357982431237110e+01 2.2439861092063438e+01 1.5160935903956927e+01 0 0 0
2035 1 -2.5467656769098707e-07 8.8249341354935407e+00 2.2486305401595899e+01 1.5136796284831071e+01 0 0 0
2036 1 1.1893534572203375e-05 1.0099162948788909e+01 2.0501246851544632e+01 1.4089910875972260e+01 0 0 0
2037 1 -6.0801101426613610e-06 1.0083943861234550e+01 2.2033092131254840e+01 1.4351786646912897e+01 0 0 0
2038 1 -6.2097470814498152e-06 1.1337830313577870e+01 2.1668692140596800e+01 1.6603532257685348e+01 0 0 0
2039 1 4.5159381492708342e-06 8.8709313097168696e+00 2.1648409957762805e+01 1.6653623052335217e+01 0 0 0
2040 1 -4.9344925483759238e-06 1.0079778019152792e+01 1.9718591178949215e+01 1.5426617169662663e+01 0 0 0
2041 1 2.1374297142747937e-06 7.5531868510305014e+00 2.0524034808673303e+01 1.4092847894870351e+01 0 0 0
2042 1 -9.1953850028843241e-06 8.8906763821136021e+00 2.0159981823702690e+01 1.6261894650290269e+01 0 0 0
2067 1 -7.5968238142874197e-07 1.5173073008839161e+01 2.2846624137527890e+01 1.2987744904329718e+01 0 0 0
2069 1 1.1116952286857872e-06 1.3833594227466923e+01 2.2465650782800068e+01 1.5130687722835347e+01 0 0 0
2071 1 -3.7575029364571768e-06 1.5080427735933073e+01 2.2062015171373599e+01 1.4320645198184078e+01 0 0 0
2073 1 -4.1717532922185345e-06 1.3865322362433684e+01 2.1734780047881333e+01 1.6724690953083638e+01 0 0 0
2074 1 -4.6098970607236444e-06 1.5139828264253682e+01 1.9749569804541611e+01 1.5360806232553106e+01 0 0 0
2075 1 2.5679394349782296e-06 1.2602788385176689e+01 2.0556984123154926e+01 1.4067476050086452e+01 0 0 0
2076 1 2.1721754021136016e-06 1.3876885068212099e+01 2.0162239819655191e+01 1.6316073643990730e+01 0 0 0
2077 1 1.0253017264298655e-05 1.1330897613796267e+01 2.0140931796546969e+01 1.6317783739595800e+01 0 0 0
2079 1 -3.3274890523503739e-06 1.2682955003156545e+01 1.9840374981571266e+01 1.5401769936587762e+01 0 0 0
2145 1 7.1844032365243867e-06 1.2571797633580756e+01 2.4316899526863274e+01 1.6244017667260103e+01 0 0 0
2147 1 6.2708940174297430e-07 1.0122972243972914e+01 2.4359589620804030e+01 1.6266454734700378e+01 0 0 0
2153 1 -2.1925929248601206e-06 1.5165421044734043e+01 2.4330672614020347e+01 1.6248454545355923e+01 0 0 0
1307 1 3.3766254067356401e-06 1.7664408550397027e+01 2.5072791638128525e+01 1.1913717096217940e+01 0 -1 0
1311 1 1.9666431385019940e-06 1.5161615686744037e+01 2.5029518097044864e+01 1.1873657899649938e+01 0 -1 0
1314 1 5.6712640187139208e-06 2.0201591787758748e+01 6.4808233495185164e-02 1.1915985200051725e+01 0 0 0
1758 1 -1.7335462345704030e-06 1.6368615597161767e+01 2.4700553290096071e+01 1.1051513147265306e+01 0 0 0
1808 1 -3.6509375954487718e-06 2.1415371826834622e+01 2.4714390884979974e+01 1.1091321628969471e+01 0 0 0
1809 1 -2.5744012600833847e-06 1.8946984998420874e+01 2.4770585101167821e+01 1.1104509016689711e+01 0 0 0
1810 1 -7.4045238959219072e-07 2.0158805081125283e+01 2.2853939225859534e+01 9.9969961788171915e+00 0 0 0
1812 1 2.8767164057239709e-06 1.8944894886679567e+01 2.3260319327163220e+01 1.0845003042104789e+01 0 0 0
1813 1 2.6767717385471152e-06 1.6351023530304023e+01 2.3144729396461386e+01 1.0752239755420129e+01 0 0 0
1815 1 -3.5264956327379485e-06 1.7631496770707884e+01 2.2834833503414082e+01 1.0014793056981288e+01 0 0 0
1816 1 -2.6329965079737433e-06 1.8914141719126171e+01 2.2465305058239622e+01 1.2140799725776828e+01 0 0 0
1817 1 -6.1694096061507285e-08 1.6398341741373599e+01 2.2473218094678568e+01 1.2161830961604965e+01 0 0 0
1818 1 -2.8527172253954563e-06 1.7676228261186754e+01 2.0541924646402460e+01 1.1040841513848724e+01 0 0 0
1820 1 7.5222531457421666e-07 1.6425137414790008e+01 2.0995107242647908e+01 1.1891286057232506e+01 0 0 0
1822 1 -2.0392739228760283e-06 1.5101702607006017e+01 1.8981890807603598e+01 1.0862708126539616e+01 0 0 0
1824 1 -2.1311858645507836e-06 1.6438114974409469e+01 2.0158725204773098e+01 1.3236359999257223e+01 0 0 0
1868 1 1.6391045462427142e-06 2.1423191190653981e+01 2.3197216654519742e+01 1.0764595404909743e+01 0 0 0
1869 1 2.0517283817035948e-06 2.1414697589653436e+01 2.2417010924026833e+01 1.2169367304106244e+01 0 0 0
1871 1 -2.5339663599790556e-06 2.1417631575286769e+01 2.0952154433906333e+01 1.1831765113704693e+01 0 0 0
1872 1 6.2692500164067742e-06 1.8902549204050842e+01 2.0943568335555458e+01 1.1855104565741627e+01 0 0 0
1873 1 -1.4048352089316978e-06 2.0123989042997227e+01 1.8968288442809190e+01 1.0816643815975828e+01 0 0 0
1874 1 -4.3041520650791932e-07 2.0147309703520666e+01 2.0520649444668589e+01 1.1007588335611846e+01 0 0 0
1875 1 -4.0919614965288400e-06 2.1380659651431738e+01 2.0142882694646126e+01 1.3227505887577470e+01 0 0 0
1876 1 2.3895518837535345e-06 1.8887879060493390e+01 2.0170016696051235e+01 1.3219185381231604e+01 0 0 0
1878 1 -1.3345244960261827e-06 1.7552750312549531e+01 1.8969169371332775e+01 1.0836115322660859e+01 0 0 0
2059 1 -1.4341297066680768e-06 2.0202868471977773e+01 2.4263175683979753e+01 1.3302146449608040e+01 0 0 0
2060 1 1.9192902180422773e-08 1.8920310317560503e+01 2.4685880029383661e+01 1.4107785444345240e+01 0 0 0
2061 1 1.6823369439969796e-07 1.6394122993000881e+01 2.4724065468675700e+01 1.4061534797898604e+01 0 0 0
2062 1 -4.8773305263992836e-07 1.7675843918121291e+01 2.2822713401092816e+01 1.3005866487653105e+01 0 0 0
2063 1 -2.9170208057560025e-06 1.7692189846051527e+01 2.4341829866934848e+01 1.3292746064971375e+01 0 0 0
2064 1 1.1733092277755037e-05 1.8950380627804133e+01 2.3935949048665911e+01 1.5477586689869254e+01 0 0 0
2065 1 3.3302193642803716e-06 1.6382577175230594e+01 2.3976872991658361e+01 1.5400733233017769e+01 0 0 0
2066 1 -6.5628792782801425e-06 1.7661892629434043e+01 2.2058519672922248e+01 1.4345747018174828e+01 0 0 0
2068 1 -1.0981869287185562e-06 1.6398227396683893e+01 2.2469810218415347e+01 1.5099740247411193e+01 0 0 0
2070 1 1.6401254329853171e-06 1.5115065533080193e+01 2.0485049959999625e+01 1.4051276971121904e+01 0 0 0
2072 1 -3.5204653403622041e-06 1.6315770904805614e+01 2.1714454958296621e+01 1.6528424557783335e+01 0 0 0
2093 1 -7.7791173637296284e-06 2.1449773394244112e+01 2.4662678077313295e+01 1.4073953858611834e+01 0 0 0
2094 1 6.0408133913364989e-06 2.1465887608290810e+01 2.3919226105283531e+01 1.5383456896953534e+01 0 0 0
2095 1 2.6418009940428436e-06 2.0149924086177236e+01 2.2782423345615054e+01 1.3001460371242025e+01 0 0 0
2096 1 -1.8585964194489566e-06 2.1417334267478815e+01 2.2393807876986202e+01 1.5139916561264119e+01 0 0 0
2097 1 4.3192497307524586e-07 1.8905830874872326e+01 2.2450993714685371e+01 1.5187659028929575e+01 0 0 0
2098 1 -2.8118200293229076e-06 2.0134370274811687e+01 2.0515009947496925e+01 1.4083806812493936e+01 0 0 0
2099 1 -2.6302604587674182e-06 2.0156709737286093e+01 2.2081553838948498e+01 1.4353640941588186e+01 0 0 0
2100 1 5.8433099146119523e-06 2.1418583798329141e+01 2.1613755356466495e+01 1.6528092411122909e+01 0 0 0
2101 1 -7.3350166204335206e-06 1.8917549788847694e+01 2.1645412043978283e+01 1.6581764923620927e+01 0 0 0
2102 1 -4.6963949100775831e-06 2.0198256627828552e+01 1.9806029583343239e+01 1.5419730942428446e+01 0 0 0
2103 1 5.5984747422031176e-06 1.7639144308143063e+01 2.0551942658711361e+01 1.4137307219090735e+01 0 0 0
2104 1 1.3932637621430383e-05 1.8959284935976189e+01 2.0187830754689664e+01 1.6236858344315689e+01 0 0 0
2105 1 7.2463022187695063e-06 1.6380823306224229e+01 2.0120766691009639e+01 1.6252733711059268e+01 0 0 0
2107 1 -5.8529584244159047e-06 1.7630187229922736e+01 1.9754377241110507e+01 1.5393527401045638e+01 0 0 0
2121 1 7.0986036507582399e-08 2.1450254596103132e+01 2.0126939085628486e+01 1.6296161646874328e+01 0 0 0
2151 1 4.8054614232992027e-07 1.7680974523783060e+01 2.4314511673659329e+01 1.6228550002259322e+01 0 0 0
2157 1 -1.6759292671937094e-05 2.0165216884333706e+01 2.4342767011930782e+01 1.6298443497346387e+01 0 0 0
1576 1 1.7860442480691777e-06 3.7543537051321931e+00 2.6307438232273213e+00 1.7410178770404869e+01 0 0 0
1577 1 4.8039403045793455e-06 1.2994008194018725e+00 2.5786157719177849e+00 1.7496177749540959e+01 0 0 0
1580 1 -4.5667099555539888e-06 1.3001798047790514e+00 1.2727413097045543e+00 1.7290393106772179e+01 0 0 0
1630 1 -2.4104067613700468e-06 6.2722007839663556e+00 2.8090662010517633e+00 1.7500279104532137e+01 0 0 0
1633 1 8.5694163081595481e-07 6.3493817459384498e+00 1.4367204346626532e+00 1.7291133575781991e+01 0 0 0
1634 1 4.4025220031297325e-06 3.8927942838893608e+00 1.3044168724104610e+00 1.7215690042980825e+01 0 0 0
1866 1 -8.6487725106023409e-06 2.1994920345147183e-02 5.4265615728167775e+00 1.7243181583851737e+01 0 0 0
1917 1 -4.9843004658196316e-06 5.1316132976822493e+00 5.3650668659292062e+00 1.7255727988564121e+01 0 0 0
1919 1 -9.5180799759464071e-06 2.5688992079189190e+00 5.4644792874275421e+00 1.7272959970944665e+01 0 0 0
1629 1 -3.3342041686960903e-07 8.9543365095033316e+00 2.5946879107919552e+00 1.7515276791825670e+01 0 0 0
1667 1 -9.6738348696174402e-08 1.3936608217936794e+01 2.5600687159566458e+00 1.7441390843882342e+01 0 0 0
1668 1 -3.1479387165369522e-06 1.1384510913061023e+01 2.6175259393661512e+00 1.7381508539625926e+01 0 0 0
1671 1 1.9456262279854127e-06 1.1386221118339074e+01 1.2600897080091900e+00 1.7197510667314791e+01 0 0 0
1672 1 -1.6109129515586578e-06 8.9054776803716234e+00 1.2907781496226685e+00 1.7161686953591705e+01 0 0 0
1694 1 1.0375753263075294e-06 1.3950441980497027e+01 1.1814937170570510e+00 1.7223553720805675e+01 0 0 0
1953 1 8.9638091633032598e-06 1.0076841752340506e+01 5.3524452535104148e+00 1.7170940600763540e+01 0 0 0
1955 1 1.1330285760706002e-05 7.6129780688876085e+00 5.4192205756993976e+00 1.7179927841467773e+01 0 0 0
1975 1 2.3436436865964693e-06 1.2620632794660041e+01 5.4327016703910553e+00 1.7238434569647904e+01 0 0 0
1689 1 -5.4321101787743877e-07 1.8866775013774209e+01 2.6033240175242476e+00 1.7512762018186127e+01 0 0 0
1690 1 -9.2533422634447326e-06 1.6385740268392830e+01 2.6488182641221631e+00 1.7441336412023819e+01 0 0 0
1693 1 3.7901241532572500e-06 1.6445446362845114e+01 1.2896285348305065e+00 1.7372416827668179e+01 0 0 0
1697 1 5.2907890395523713e-07 2.1464418165785204e+01 2.5768508867455475e+00 1.7451366355062117e+01 0 0 0
1699 1 -9.9922993674677493e-06 2.1474227719442631e+01 1.2568698513263179e+00 1.7276526057879479e+01 0 0 0
1700 1 -9.0959217156608607e-06 1.8958716043162006e+01 1.2729662327932973e+00 1.7362145127791099e+01 0 0 0
1973 1 2.0696140648646943e-06 1.5121474673164528e+01 5.4662123876735871e+00 1.7240573357500647e+01 0 0 0
1978 1 3.8373965480597299e-06 2.0113834293207439e+01 5.4024894443083920e+00 1.7257084106024617e+01 0 0 0
1980 1 1.0225913920664460e-05 1.7659707448736466e+01 5.4860708561294453e+00 1.7312239983844119e+01 0 0 0
1805 1 -3.4868307167324923e-06 1.3110587865931878e+00 1.0950471698991702e+01 1.7452582985703586e+01 0 0 0
1856 1 7.4540733033975413e-07 6.2754379692969753e+00 1.0938507280140769e+01 1.7380322209888963e+01 0 0 0
1857 1 6.2779343637347273e-06 3.8214348948784704e+00 1.0984202277891136e+01 1.7410050210736177e+01 0 0 0
1860 1 -1.3266784423625398e-05 3.8256184995236238e+00 9.6297948065887518e+00 1.7244763439117200e+01 0 0 0
1861 1 -6.7666558814441158e-06 1.2793050064822404e+00 9.6076278943075248e+00 1.7172274642581026e+01 0 0 0
1864 1 7.4427420012817419e-06 2.5769795193494223e+00 6.7697265982724435e+00 1.7467702778870695e+01 0 0 0
1867 1 2.3782537103692211e-07 2.6886751804506715e-02 6.7463772616960176e+00 1.7543490092814764e+01 0 0 0
1912 1 1.1574694154148389e-06 6.2921847904091512e+00 9.6681845751059363e+00 1.7221698898591942e+01 0 0 0
1918 1 8.4402890347991503e-06 5.0998806000463883e+00 6.7034631302871102e+00 1.7407474782546110e+01 0 0 0
1907 1 1.1588919350125106e-06 1.1325042038720289e+01 1.0934292560203437e+01 1.7390426355326721e+01 0 0 0
1908 1 5.2576039726097268e-07 8.8595307030785779e+00 1.0994686802605440e+01 1.7444359829825405e+01 0 0 0
1911 1 -2.8064431320284507e-06 8.8476730812943174e+00 9.6488299089647889e+00 1.7359625880642188e+01 0 0 0
1915 1 -2.1703808665310734e-06 7.6393510474955946e+00 6.7876235663474054e+00 1.7466552684401943e+01 0 0 0
1944 1 -9.0817808773124662e-06 1.3783280730646799e+01 1.0873670410814013e+01 1.7424842664988411e+01 0 0 0
1947 1 -1.7452453091197912e-06 1.3836034379895064e+01 9.5383083129910133e+00 1.7194387617540396e+01 0 0 0
1948 1 3.0173855810838484e-06 1.1268468895141069e+01 9.4966270134591806e+00 1.7259745419181186e+01 0 0 0
1951 1 3.3210024485256115e-06 1.2603646453021121e+01 6.7960488842257671e+00 1.7389939345276680e+01 0 0 0
1954 1 -4.6665499373629336e-06 1.0127806983588831e+01 6.6824592601153956e+00 1.7323755775227777e+01 0 0 0
1974 1 -1.9132059242768909e-06 1.5048812287765504e+01 6.7962160968766074e+00 1.7491971363822167e+01 0 0 0
1943 1 -8.5458160224717417e-07 1.6412623754854597e+01 1.0975590092351224e+01 1.7375830611938344e+01 0 0 0
1963 1 -7.3273196829187508e-07 2.1413791999829499e+01 1.0965314177225968e+01 1.7450559431886063e+01 0 0 0
1964 1 9.1606723830789728e-07 1.8910167132943776e+01 1.0973381185891997e+01 1.7406227481985031e+01 0 0 0
1967 1 -6.1495679121972797e-07 1.8926163664552146e+01 9.6293735396895901e+00 1.7157069066960428e+01 0 0 0
1968 1 6.0709547613694670e-06 1.6441425420116452e+01 9.6410557311892333e+00 1.7240958668014439e+01 0 0 0
1971 1 -9.3899082151940751e-06 1.7635180068557673e+01 6.8356822559267503e+00 1.7403696277130006e+01 0 0 0
1976 1 -8.4810506002915807e-07 2.1450618651229668e+01 9.6078901247581836e+00 1.7298307125195485e+01 0 0 0
1979 1 2.2357726213439326e-06 2.0133899691910518e+01 6.7562315841920135e+00 1.7369794060770339e+01 0 0 0
2021 1 1.0259626285456802e-06 1.2327213479017629e+00 1.8002369409420478e+01 1.7287674328083053e+01 0 0 0
2024 1 8.6950957350631002e-07 2.2663829529215487e+01 1.5090512023804724e+01 1.7423012934215244e+01 -1 0 0
2050 1 -4.6164155347552728e-07 6.3323256174092890e+00 1.7962570841161245e+01 1.7251344352857259e+01 0 0 0
2051 1 1.2541024835948357e-06 3.7857047307738889e+00 1.7983019485627459e+01 1.7274746732639819e+01 0 0 0
2054 1 -4.6967964023686160e-06 4.9553460654585777e+00 1.5313141219850086e+01 1.7416997711674419e+01 0 0 0
2056 1 -1.0756576973851532e-07 2.5122937017243383e+00 1.3857782316477772e+01 1.7265486048760142e+01 0 0 0
2057 1 -6.4653770340126999e-06 2.5112022638678604e+00 1.5170672130974623e+01 1.7543313192099369e+01 0 0 0
2058 1 9.0708804014713774e-06 2.2664664729039920e+01 1.3749637746518797e+01 1.7239609638710157e+01 -1 0 0
2090 1 6.8974377742502688e-06 7.5274576524042027e+00 1.3800286992218949e+01 1.7284964881384923e+01 0 0 0
2092 1 1.8419563495468088e-05 5.0299728822476917e+00 1.3937696728406884e+01 1.7314745039989081e+01 0 0 0
2084 1 -5.3123885349812083e-06 1.1279875838231526e+01 1.7930698828049810e+01 1.7176964720341456e+01 0 0 0
2085 1 -1.0748824712241435e-05 8.8521679464631138e+00 1.7933350964060022e+01 1.7215468404331535e+01 0 0 0
2088 1 2.7067057690624970e-06 1.0182341755511471e+01 1.5169897003495992e+01 1.7402190610746796e+01 0 0 0
2091 1 -4.9813904568706723e-06 7.4838408295423786e+00 1.5136497269818323e+01 1.7401689366247030e+01 0 0 0
2113 1 -1.1344086183252977e-06 1.3834418748841752e+01 1.7985784168466392e+01 1.7323323344448035e+01 0 0 0
2118 1 4.3318067808603397e-07 1.2629671883717020e+01 1.3812600088206890e+01 1.7272010361731965e+01 0 0 0
2119 1 -1.5961020555431148e-06 1.2591005292534341e+01 1.5198569584580866e+01 1.7470503562826718e+01 0 0 0
2120 1 5.5185755888677733e-06 1.0085538970345047e+01 1.3793420725913602e+01 1.7186776297344053e+01 0 0 0
2112 1 4.9767533190613075e-06 1.6327858828098439e+01 1.8001103560016062e+01 1.7239899098686685e+01 0 0 0
2116 1 -1.4883566565018193e-06 1.5137591022589110e+01 1.5156162005268737e+01 1.7502700729485603e+01 0 0 0
2124 1 -4.7953609116125328e-06 2.1417504756726313e+01 1.8026243003794882e+01 1.7225373902418944e+01 0 0 0
2125 1 5.5084758208060872e-06 1.8906672813535017e+01 1.7965274827097005e+01 1.7287934986407826e+01 0 0 0
2128 1 -5.9250319107696022e-06 2.0133472132674086e+01 1.5185592109439021e+01 1.7383143070203982e+01 0 0 0
2130 1 2.6857856830609656e-06 1.7625459351548638e+01 1.3903813555240284e+01 1.7300538497457364e+01 0 0 0
2131 1 -1.8167819345640124e-06 1.7659511533693586e+01 1.5276849301130873e+01 1.7456089087802852e+01 0 0 0
2132 1 -1.6668782791787809e-06 1.5123593239131722e+01 1.3798423215295518e+01 1.7288175405436274e+01 0 0 0
2133 1 1.1828729810065932e-07 2.0167422830798934e+01 1.3859347152243405e+01 1.7222612756771383e+01 0 0 0
2017 1 -3.7874872775376665e-06 3.7133895337497731e+00 1.9329441592405804e+01 1.7479305365458817e+01 0 0 0
2018 1 -1.9904706673108842e-06 1.2499244093895359e+00 1.9358557884488391e+01 1.7529844903881777e+01 0 0 0
2047 1 5.6549917204762152e-06 6.4110597007597434e+00 1.9276572410008537e+01 1.7437070208172337e+01 0 0 0
2135 1 1.4347682501983290e-06 2.5056974928235540e+00 2.3522860761112796e+01 1.7386333230988086e+01 0 0 0
2137 1 -4.5706994615824383e-06 2.2655318065330519e+01 2.2150898032893036e+01 1.7242529178993639e+01 -1 0 0
2138 1 7.0056153140322903e-06 2.2638864684890024e+01 2.3559122178658452e+01 1.7504893277970012e+01 -1 0 0
2142 1 -4.8390212761324762e-06 5.1172559691790216e+00 2.2126306100774375e+01 1.7249788692559434e+01 0 0 0
2143 1 1.0734973980183885e-06 5.0892288758334132e+00 2.3492981490366425e+01 1.7439409585897998e+01 0 0 0
2144 1 2.3413383588037046e-06 2.5386662853896187e+00 2.2186765971267501e+01 1.7237944950256850e+01 0 0 0
2046 1 2.9414934369137987e-06 8.7916535802637163e+00 1.9308525863887628e+01 1.7401545183725759e+01 0 0 0
2080 1 -1.6345421751341763e-06 1.3801245498234209e+01 1.9362772967512331e+01 1.7488746890992807e+01 0 0 0
2081 1 -2.2460908041379703e-06 1.1362809715562824e+01 1.9285206243821069e+01 1.7463889663080430e+01 0 0 0
2140 1 7.7751708067420846e-06 7.6397114301045672e+00 2.3495984663161288e+01 1.7401662852950992e+01 0 0 0
2146 1 -9.0455940930236067e-06 1.2576722073471306e+01 2.3468854275744533e+01 1.7441962119244504e+01 0 0 0
2148 1 -3.7472303582737976e-06 1.0085416154712412e+01 2.2163144748944386e+01 1.7253775707795761e+01 0 0 0
2149 1 2.3825121462364343e-06 1.0106158457121341e+01 2.3537377666963543e+01 1.7421285040003415e+01 0 0 0
2150 1 -8.6924991432880786e-06 7.6356333606339568e+00 2.2165719345419387e+01 1.7280537839847277e+01 0 0 0
2155 1 -9.0555289316377442e-07 1.5205649214333489e+01 2.3555338495642427e+01 1.7501892347343418e+01 0 0 0
2156 1 4.5448016467980689e-06 1.2556710819350480e+01 2.2158659559989228e+01 1.7294949656447539e+01 0 0 0
2108 1 -6.4360781638578087e-06 1.8949509525937980e+01 1.9319270295127417e+01 1.7439728829502361e+01 0 0 0
2109 1 -8.2431071583014605e-06 1.6350150885345055e+01 1.9347645731489532e+01 1.7469248217072550e+01 0 0 0
2122 1 6.6461363074875389e-07 2.1395150511677009e+01 1.9362828763193157e+01 1.7475737860158109e+01 0 0 0
2152 1 -6.4845075067671783e-06 1.7578866011251083e+01 2.3479540598248587e+01 1.7315739880090963e+01 0 0 0
2154 1 9.0014082798355065e-06 1.5165526578422211e+01 2.2221112860807050e+01 1.7270929166156982e+01 0 0 0
2158 1 -2.0502543668733019e-06 2.0133605884997088e+01 2.2102423494755243e+01 1.7292419744017224e+01 0 0 0
2159 1 2.0149993472314268e-06 2.0180608087044629e+01 2.3444345262071202e+01 1.7400622864464392e+01 0 0 0
2160 1 7.4004687934377554e-06 1.7612868797377146e+01 2.2159966758902147e+01 1.7179775566950497e+01 0 0 0

Velocities

1 0.0000000000000000e+00 0.0000000000000000e+00 0.0000000000000000e+00
2 0.0000000000000000e+00 0.0000000000000000e+00 0.0000000000000000e+00
3 0.0000000000000000e+00 0.0000000000000000e+00 0.0000000000000000e+00
4 0.0000000000000000e+00 0.0000000000000000e+00 0.0000000000000000e+00
7 0.0000000000000000e+00 0.0000000000000000e+00 0.0000000000000000e+00
8 0.0000000000000000e+00 0.0000000000000000e+00 0.0000000000000000e+00
9 0.0000000000000000e+00 0.0000000000000000e+00 0.0000000000000000e+00
10 0.0000000000000000e+00 0.0000000000000000e+00 0.0000000000000000e+00
11 0.0000000000000000e+00 0.0000000000000000e+00 0.0000000000000000e+00
13 0.0000000000000000e+00 0.0000000000000000e+00 0.0000000000000000e+00
14 0.0000000000000000e+00 0.0000000000000000e+00 0.0000000000000000e+00
24 0.0000000000000000e+00 0.0000000000000000e+00 0.0000000000000000e+00
58 0.0000000000000000e+00 0.0000000000000000e+00 0.0000000000000000e+00
72 0.0000000000000000e+00 0.0000000000000000e+00 0.0000000000000000e+00
76 0.0000000000000000e+00 0.0000000000000000e+00 0.0000000000000000e+00
77 0.0000000000000000e+00 0.0000000000000000e+00 0.0000000000000000e+00
78 -6.3818874359226861e-03 -2.8956841161226801e-04 2.3678911647621874e-03
79 -2.9517653441878617e-03 3.3663691553967692e-04 3.6474254408964198e-03
80 0.0000000000000000e+00 0.0000000000000000e+00 0.0000000000000000e+00
81 0.0000000000000000e+00 0.0000000000000000e+00 0.0000000000000000e+00
82 -7.4874205389098671e-03 -2.3793474723082706e-03 -3.2357663920278006e-03
83 0.0000000000000000e+00 0.0000000000000000e+00 0.0000000000000000e+00
84 0.0000000000000000e+00 0.0000000000000000e+00 0.0000000000000000e+00
85 -4.1715912487443035e-03 2.2702768861414778e-03 2.0701372237313877e-03
86 1.0188981851818584e-03 3.4492718170246370e-03 -4.7659321367534589e-03
104 0.0000000000000000e+00 0.0000000000000000e+00 0.0000000000000000e+00
107 -4.7638496702175253e-03 6.0725368738813804e-03 -6.6863366374165746e-03
108 0.0000000000000000e+00 0.0000000000000000e+00 0.0000000000000000e+00
109 0.0000000000000000e+00 0.0000000000000000e+00 0.0000000000000000e+00
110 7.4633303702592753e-03 -6.8838756092548083e-03 3.3147974178245037e-03
111 2.3110386212546854e-03 -9.6821204375895781e-03 -5.4315356766676042e-03
112 0.0000000000000000e+00 0.0000000000000000e+00 0.0000000000000000e+00
113 0.0000000000000000e+00 0.0000000000000000e+00 0.0000000000000000e+00
114 -6.2079585269509037e-04 1.0827479838030117e-03 1.8438852579181948e-03
115 3.1007969210831694e-04 1.1089811401569657e-03 2.9922740576409645e-03
116 -1.0333755898813862e-02 1.1329997400715384e-02 1.0166678607100898e-02
117 0.0000000000000000e+00 0.0000000000000000e+00 0.0000000000000000e+00
118 5.4890049043778361e-03 -2.8304373005234065e-04 2.4692255821133669e-03
119 -1.6644227780630595e-03 7.0041154941228806e-03 6.5233790126452990e-03
121 7.1294934836224491e-03 3.0611324418966346e-03 1.1481257969740614e-02
122 3.4678931198103965e-03 -1.0559233816491804e-03 -3.0874748783002184e-03
123 1.4144467233064930e-03 -3.1421945906699544e-03 -3.2999318654004998e-03
157 6.3960416816532563e-03 -6.8078850538939029e-03 4.4065767736822699e-03
161 -1.8910383808004051e-03 -6.4201818575112587e-03 -7.4781797791908578e-04
319 3.9697476618678791e-03 -4.9214526864626695e-03 -1.1932052449863948e-03
323 -2.2697144762258152e-03 1.0842313830206739e-02 -8.1703995709531546e-03
324 5.2971845421579001e-03 1.0159495136849146e-02 -3.3945384445727461e-03
325 -7.0712616264164965e-03 5.6911776275461083e-03 -3.2613154829112014e-03
326 2.6024400791721733e-03 -4.2097095717494931e-03 1.5391381979613611e-03
327 -3.0375026751440519e-03 1.2466504534569187e-04 -1.1948763610139784e-03
370 -3.3504134588850693e-03 -5.0460526285570576e-03 -5.1163735341174547e-03
374 5.8489366156484462e-03 1.2020765800393390e-02 1.8828591939089583e-03
375 5.6012558025740440e-03 3.7707277978448698e-03 -1.8642476399863232e-04
376 9.4539279540904811e-03 -2.5426839959878986e-04 -5.9330756741544427e-03
377 -5.0848837365975929e-03 1.1319568749703593e-02 -6.7025398053072631e-03
378 -1.7078244356001440e-03 6.8027654275234850e-03 -1.6017385125880594e-03
379 -4.0002641711929174e-04 1.8717840527831030e-03 -2.1899783271844156e-04
383 -1.8916530372488404e-03 -1.1435275245624116e-02 -5.2295259318744540e-03
386 1.1710647508519106e-02 -2.5126800115311504e-03 -5.8874790279876219e-03
391 -4.8824339576184693e-04 2.9980307897523244e-03 -1.0243081690084366e-03
440 -8.8442231415599547e-03 -4.4245882097871296e-03 -8.1090121176120421e-03
445 -3.2349835538331359e-03 2.0114903936747641e-03 -2.2148231445487062e-03
6 0.0000000000000000e+00 0.0000000000000000e+00 0.0000000000000000e+00
16 0.0000000000000000e+00 0.0000000000000000e+00 0.0000000000000000e+00
17 0.0000000000000000e+00 0.0000000000000000e+00 0.0000000000000000e+00
18 0.0000000000000000e+00 0.0000000000000000e+00 0.0000000000000000e+00
19 0.0000000000000000e+00 0.0000000000000000e+00 0.0000000000000000e+00
20 0.0000000000000000e+00 0.0000000000000000e+00 0.0000000000000000e+00
21 0.0000000000000000e+00 0.0000000000000000e+00 0.0000000000000000e+00
23 0.0000000000000000e+00 0.0000000000000000e+00 0.0000000000000000e+00
29 0.0000000000000000e+00 0.0000000000000000e+00 0.0000000000000000e+00
31 0.0000000000000000e+00 0.0000000000000000e+00 0.0000000000000000e+00
33 0.0000000000000000e+00 0.0000000000000000e+00 0.0000000000000000e+00
34 0.0000000000000000e+00 0.0000000000000000e+00 0.0000000000000000e+00
100 0.0000000000000000e+00 0.0000000000000000e+00 0.0000000000000000e+00
105 0.0000000000000000e+00 0.0000000000000000e+00 0.0000000000000000e+00
106 4.4001720080557817e-03 -4.9466218501344151e-03 2.4367066782602274e-03
142 0.0000000000000000e+00 0.0000000000000000e+00 0.0000000000000000e+00
143 0.0000000000000000e+00 0.0000000000000000e+00 0.0000000000000000e+00
144 -5.2644106678603501e-03 5.7695875351089819e-03 -6.2547163499622731e-04
145 3.8215175356335006e-03 -2.6041281501798905e-03 -2.6363827512726557e-03
146 0.0000000000000000e+00 0.0000000000000000e+00 0.0000000000000000e+00
147 0.0000000000000000e+00 0.0000000000000000e+00 0.0000000000000000e+00
148 -1.1180798320133530e-02 4.9208431895828072e-03 3.9587336857643263e-03
149 3.2600434975548860e-03 2.2175858608693834e-03 -1.0983081748500378e-02
150 0.0000000000000000e+00 0.0000000000000000e+00 0.0000000000000000e+00
151 0.0000000000000000e+00 0.0000000000000000e+00 0.0000000000000000e+00
152 -2.6116752031709145e-03 -1.4672725189224405e-03 -7.1431087683111643e-03
153 2.9712359919212578e-03 1.5442316649134536e-03 6.8357539035123925e-03
154 -2.7169243344011000e-03 -5.3483007567885835e-03 5.8993068521858063e-03
155 0.0000000000000000e+00 0.0000000000000000e+00 0.0000000000000000e+00
156 2.0587124577928473e-03 -6.6435296560407413e-03 2.3189082199603791e-03
159 1.0620867222084684e-03 -6.8898535984299736e-03 2.6305051091332337e-03
160 -4.4503156261608487e-03 4.9348555221675030e-04 -1.2112992472092343e-03
182 -2.9046937387654263e-03 -8.1858493717982348e-03 -7.9854472893841700e-04
184 0.0000000000000000e+00 0.0000000000000000e+00 0.0000000000000000e+00
186 2.5418619824900067e-03 -7.7042658865832956e-03 -4.5070408903426029e-03
187 -2.7621660416323455e-03 -1.5564610290196353e-03 5.9763954176742058e-03
188 0.0000000000000000e+00 0.0000000000000000e+00 0.0000000000000000e+00
189 -5.8602255279059249e-03 3.4448152131296783e-03 -1.9879056632227006e-03
190 4.7793214888438781e-03 2.7578434868845143e-03 -6.3037427762877418e-03
192 3.6803853363891995e-03 5.1677921989092285e-03 -1.0413832737144624e-03
193 -7.7076296251263532e-03 -5.9899061470045549e-03 -8.1031162666563520e-03
194 -2.3960557864596726e-04 7.9289543983447966e-04 -1.3517339812092997e-03
424 -4.5148601546234754e-03 -4.4915558225644492e-03 -5.3890312276761061e-03
428 -4.1784442159112211e-03 6.3616437324855624e-04 -3.8948750816765335e-04
429 -2.5128338555675720e-03 3.0460134965883266e-03 4.6319026963875225e-03
430 -1.9269132290354210e-03 4.9623964507560609e-04 -3.5215362145402311e-03
431 -2.1635722202508179e-03 -4.4778429621929504e-03 -6.1039784344958884e-03
432 3.2190050419985748e-03 8.4223822267554308e-04 -6.4265231841723785e-04
433 -1.0019418634328406e-02 -3.9499710447870005e-03 5.6692145525681506e-03
437 -4.8350148308022166e-04 6.8088183506500460e-04 -1.6028411531880315e-03
471 -4.8138803682933826e-04 4.7963533650744209e-03 -2.8017863159156388e-03
473 -5.9375266243653722e-03 -6.3374446363752496e-03 1.4724362566581842e-03
477 -2.5097643275968974e-03 -7.3509178629919377e-03 -1.8713945799163621e-03
480 -4.7301174133295733e-04 -3.8088437996600189e-03 -1.4277486629350042e-03
485 2.2228940329051951e-03 -6.7456769547095735e-04 1.0522051382326874e-02
509 -4.3673925092502855e-03 6.9721186657012663e-04 -3.3455284800448250e-03
26 0.0000000000000000e+00 0.0000000000000000e+00 0.0000000000000000e+00
27 0.0000000000000000e+00 0.0000000000000000e+00 0.0000000000000000e+00
28 0.0000000000000000e+00 0.0000000000000000e+00 0.0000000000000000e+00
30 0.0000000000000000e+00 0.0000000000000000e+00 0.0000000000000000e+00
36 0.0000000000000000e+00 0.0000000000000000e+00 0.0000000000000000e+00
37 0.0000000000000000e+00 0.0000000000000000e+00 0.0000000000000000e+00
38 0.0000000000000000e+00 0.0000000000000000e+00 0.0000000000000000e+00
39 0.0000000000000000e+00 0.0000000000000000e+00 0.0000000000000000e+00
40 0.0000000000000000e+00 0.0000000000000000e+00 0.0000000000000000e+00
42 0.0000000000000000e+00 0.0000000000000000e+00 0.0000000000000000e+00
43 0.0000000000000000e+00 0.0000000000000000e+00 0.0000000000000000e+00
45 0.0000000000000000e+00 0.0000000000000000e+00 0.0000000000000000e+00
138 0.0000000000000000e+00 0.0000000000000000e+00 0.0000000000000000e+00
171 0.0000000000000000e+00 0.0000000000000000e+00 0.0000000000000000e+00
175 0.0000000000000000e+00 0.0000000000000000e+00 0.0000000000000000e+00
176 0.0000000000000000e+00 0.0000000000000000e+00 0.0000000000000000e+00
177 -6.1235813016382373e-03 -6.4476013874865978e-04 1.2130898609263270e-04
178 -6.3848196023877594e-03 4.0255181455561024e-03 2.6908862682855903e-03
179 0.0000000000000000e+00 0.0000000000000000e+00 0.0000000000000000e+00
180 0.0000000000000000e+00 0.0000000000000000e+00 0.0000000000000000e+00
181 1.4420506204727245e-03 -3.6783084647216365e-03 -6.7925723740753568e-03
183 0.0000000000000000e+00 0.0000000000000000e+00 0.0000000000000000e+00
185 3.7748991985174819e-03 4.0969432190284868e-03 -2.5640915687460291e-03
197 5.0544111378068007e-03 -7.5486700424112728e-03 -9.7993441078995892e-04
198 0.0000000000000000e+00 0.0000000000000000e+00 0.0000000000000000e+00
199 -6.7331698048153626e-03 -6.5538768691619648e-03 2.0154050751569263e-03
200 -9.0250409655236157e-03 -8.4957687306111626e-03 5.0955973207619269e-03
201 0.0000000000000000e+00 0.0000000000000000e+00 0.0000000000000000e+00
202 0.0000000000000000e+00 0.0000000000000000e+00 0.0000000000000000e+00
203 -1.2460938048479534e-02 -9.0298415775272763e-03 -5.3861818600401791e-03
204 8.9869333377518325e-03 -2.5145903854738275e-03 6.1239007425986170e-03
205 3.0450767087217595e-03 -5.8583416663458149e-03 -6.5184130825390310e-03
206 0.0000000000000000e+00 0.0000000000000000e+00 0.0000000000000000e+00
207 -4.8532152394407564e-03 -4.0576922152197221e-03 1.0906508892302014e-02
208 -1.7913144540173257e-03 2.5615831927798313e-03 8.2440635182036964e-03
210 4.3880071152926671e-03 -7.3638071936952968e-03 -6.9783981048448216e-04
211 1.8770820198420041e-04 9.3062034063991234e-03 3.5072609606068257e-03
212 1.8755244882360663e-04 6.1915741919479246e-03 3.3982414152951661e-03
214 -2.6967411906341950e-03 3.8842195694705020e-03 -9.7699800141384883e-03
215 4.6786464598432241e-03 8.3116488570854751e-03 8.0762333091567926e-03
464 5.0382235675679636e-03 4.7529478932783629e-04 1.7758369921670942e-03
468 -1.9470487213316301e-03 -3.5723437270806973e-03 8.8906233045537644e-03
469 -6.9220721988136379e-03 -2.6277437332847134e-03 -8.6943742152097506e-03
470 -6.6560263973095184e-03 2.2839924619603825e-05 -3.8030174725767847e-03
472 -1.2316635066150727e-02 -2.1130012924753575e-03 2.5111014913427586e-04
493 4.7664818661393472e-03 -2.8798573543976197e-03 4.5082896625781741e-03
494 9.5465294195655221e-04 3.0961947282452384e-03 3.0106297163527422e-03
495 2.4638987932322449e-04 -4.0335660847807004e-03 -1.1999377833825747e-02
496 -8.8272464093179411e-03 5.3199913099246507e-03 4.9072417675488352e-04
497 -8.2959129665793468e-03 1.5759264939379986e-03 5.3511276277283565e-05
501 7.9876458595361211e-04 1.8368107085553228e-03 -5.0770845843419428e-03
504 3.5125938680991757e-04 -9.5715151806865357e-04 1.0884851343516014e-03
517 7.0865690634305482e-03 3.8945620421615497e-03 -7.7384427638694216e-03
46 0.0000000000000000e+00 0.0000000000000000e+00 0.0000000000000000e+00
47 0.0000000000000000e+00 0.0000000000000000e+00 0.0000000000000000e+00
48 0.0000000000000000e+00 0.0000000000000000e+00 0.0000000000000000e+00
49 0.0000000000000000e+00 0.0000000000000000e+00 0.0000000000000000e+00
50 0.0000000000000000e+00 0.0000000000000000e+00 0.0000000000000000e+00
51 0.0000000000000000e+00 0.0000000000000000e+00 0.0000000000000000e+00
52 0.0000000000000000e+00 0.0000000000000000e+00 0.0000000000000000e+00
53 0.0000000000000000e+00 0.0000000000000000e+00 0.0000000000000000e+00
54 0.0000000000000000e+00 0.0000000000000000e+00 0.0000000000000000e+00
55 0.0000000000000000e+00 0.0000000000000000e+00 0.0000000000000000e+00
56 0.0000000000000000e+00 0.0000000000000000e+00 0.0000000000000000e+00
57 0.0000000000000000e+00 0.0000000000000000e+00 0.0000000000000000e+00
62 0.0000000000000000e+00 0.0000000000000000e+00 0.0000000000000000e+00
64 0.0000000000000000e+00 0.0000000000000000e+00 0.0000000000000000e+00
65 0.0000000000000000e+00 0.0000000000000000e+00 0.0000000000000000e+00
66 0.0000000000000000e+00 0.0000000000000000e+00 0.0000000000000000e+00
67 0.0000000000000000e+00 0.0000000000000000e+00 0.0000000000000000e+00
68 0.0000000000000000e+00 0.0000000000000000e+00 0.0000000000000000e+00
69 0.0000000000000000e+00 0.0000000000000000e+00 0.0000000000000000e+00
70 0.0000000000000000e+00 0.0000000000000000e+00 0.0000000000000000e+00
71 0.0000000000000000e+00 0.0000000000000000e+00 0.0000000000000000e+00
73 0.0000000000000000e+00 0.0000000000000000e+00 0.0000000000000000e+00
74 0.0000000000000000e+00 0.0000000000000000e+00 0.0000000000000000e+00
75 0.0000000000000000e+00 0.0000000000000000e+00 0.0000000000000000e+00
101 0.0000000000000000e+00 0.0000000000000000e+00 0.0000000000000000e+00
103 0.0000000000000000e+00 0.0000000000000000e+00 0.0000000000000000e+00
241 0.0000000000000000e+00 0.0000000000000000e+00 0.0000000000000000e+00
263 0.0000000000000000e+00 0.0000000000000000e+00 0.0000000000000000e+00
265 -1.0039068244055310e-03 -4.6973940250103494e-03 -7.4361226427384006e-03
266 -4.7989781907551033e-03 -2.1644104125367701e-04 9.8646016715831335e-03
267 0.0000000000000000e+00 0.0000000000000000e+00 0.0000000000000000e+00
268 0.0000000000000000e+00 0.0000000000000000e+00 0.0000000000000000e+00
269 6.2836915088045780e-04 2.1699457442527770e-03 2.2277988579263329e-03
270 9.7375408443730073e-05 -2.8506527614830706e-03 2.0113660050831914e-03
271 -4.2940314707089850e-03 -4.8389936434524059e-04 2.6232666424017871e-03
272 0.0000000000000000e+00 0.0000000000000000e+00 0.0000000000000000e+00
273 -2.0492323172215184e-03 -1.0304245709942947e-03 -2.1151576939801298e-03
274 -4.4364334509608503e-04 9.8364946891179687e-03 5.9573913727846437e-03
275 -7.4893658577069545e-03 -3.7181725990282481e-03 2.1981635234953442e-03
276 -3.8371875192092695e-03 -9.5345105634728495e-03 7.9970962045180859e-05
277 -1.0374062196417040e-02 6.3697418000988439e-04 -6.2625143631364804e-03
304 0.0000000000000000e+00 0.0000000000000000e+00 0.0000000000000000e+00
306 4.3216160324902183e-03 -1.0260939540198494e-04 -1.5963291814181844e-03
307 -7.7040618653481522e-04 -8.9777662134843644e-04 -4.1056205297374947e-04
308 0.0000000000000000e+00 0.0000000000000000e+00 0.0000000000000000e+00
309 7.7319633438247713e-03 -1.9456012990501177e-03 -6.6736918950009577e-03
310 2.4174244716909475e-04 8.4273485620769972e-03 3.6004909917993697e-03
311 1.7539112038651040e-03 1.0151205884487089e-02 -4.3717161948871128e-03
312 1.8104220070440887e-03 -2.7675108307741760e-03 -4.6495500949032655e-03
313 -1.9572814206153745e-03 5.1339042841793796e-03 -8.5095609099815274e-04
314 -1.8171066483369538e-03 2.5902956903974621e-03 2.4186406908746775e-03
315 -1.1526532684915946e-03 1.1582758105714640e-03 -3.4156788415989070e-03
316 -1.0643628617712350e-03 -5.0735720425250624e-04 8.3054472554317080e-04
317 -3.4750881592666124e-03 6.6434250005287495e-03 2.5064182260609670e-04
318 8.9641604936586388e-03 -1.5807300788297342e-03 2.7816245740596734e-03
320 9.4409998441029510e-03 1.6664767558112106e-03 9.4166077336991210e-03
367 2.0103973330769953e-04 -5.4867645444251602e-03 -9.8974929977485148e-05
369 -1.3357280316463451e-03 1.4026254807839207e-03 5.4565235630283423e-03
617 -8.3645382059336082e-03 3.4734573130287610e-03 -4.3273237153373623e-05
622 1.8795309050146812e-03 8.4728646294541187e-04 6.4186592730416138e-03
624 -1.6183355747361607e-02 2.5656019566333093e-03 -7.2915879173507565e-04
672 5.1961778430931263e-03 7.0733773680171843e-04 -7.9424554288390716e-04
675 -5.3676310984876940e-04 -9.4105334769613493e-03 -2.5782916622189736e-03
680 7.8009045444295605e-03 5.7218955142468257e-05 1.5522921366720570e-03
736 -8.6903820363961400e-04 -2.3727804777783847e-03 -7.7232365655630422e-03
302 7.0798542880184303e-03 -7.4513343434375713e-03 -1.1855450002795039e-03
59 0.0000000000000000e+00 0.0000000000000000e+00 0.0000000000000000e+00
60 0.0000000000000000e+00 0.0000000000000000e+00 0.0000000000000000e+00
61 0.0000000000000000e+00 0.0000000000000000e+00 0.0000000000000000e+00
63 0.0000000000000000e+00 0.0000000000000000e+00 0.0000000000000000e+00
89 0.0000000000000000e+00 0.0000000000000000e+00 0.0000000000000000e+00
90 0.0000000000000000e+00 0.0000000000000000e+00 0.0000000000000000e+00
91 0.0000000000000000e+00 0.0000000000000000e+00 0.0000000000000000e+00
92 0.0000000000000000e+00 0.0000000000000000e+00 0.0000000000000000e+00
93 0.0000000000000000e+00 0.0000000000000000e+00 0.0000000000000000e+00
94 0.0000000000000000e+00 0.0000000000000000e+00 0.0000000000000000e+00
95 0.0000000000000000e+00 0.0000000000000000e+00 0.0000000000000000e+00
96 0.0000000000000000e+00 0.0000000000000000e+00 0.0000000000000000e+00
97 0.0000000000000000e+00 0.0000000000000000e+00 0.0000000000000000e+00
98 0.0000000000000000e+00 0.0000000000000000e+00 0.0000000000000000e+00
99 0.0000000000000000e+00 0.0000000000000000e+00 0.0000000000000000e+00
102 0.0000000000000000e+00 0.0000000000000000e+00 0.0000000000000000e+00
133 0.0000000000000000e+00 0.0000000000000000e+00 0.0000000000000000e+00
134 0.0000000000000000e+00 0.0000000000000000e+00 0.0000000000000000e+00
135 0.0000000000000000e+00 0.0000000000000000e+00 0.0000000000000000e+00
137 0.0000000000000000e+00 0.0000000000000000e+00 0.0000000000000000e+00
139 0.0000000000000000e+00 0.0000000000000000e+00 0.0000000000000000e+00
140 0.0000000000000000e+00 0.0000000000000000e+00 0.0000000000000000e+00
141 0.0000000000000000e+00 0.0000000000000000e+00 0.0000000000000000e+00
299 0.0000000000000000e+00 0.0000000000000000e+00 0.0000000000000000e+00
301 4.7799548640320384e-04 -2.6318277714000131e-03 9.4736173764228705e-03
303 0.0000000000000000e+00 0.0000000000000000e+00 0.0000000000000000e+00
305 6.4839044147909034e-03 6.0354653964624482e-03 -5.1617497614003848e-04
350 0.0000000000000000e+00 0.0000000000000000e+00 0.0000000000000000e+00
352 2.5302748815388401e-03 1.4699621199297137e-03 -4.5353151858829304e-03
353 -3.4000382807807422e-03 6.3241364681809065e-03 -8.8412010191688088e-03
354 0.0000000000000000e+00 0.0000000000000000e+00 0.0000000000000000e+00
355 0.0000000000000000e+00 0.0000000000000000e+00 0.0000000000000000e+00
356 3.6207856445168779e-03 1.8555983277441395e-03 2.8415893255279140e-04
357 -2.1753338242885834e-03 -3.4538177341425355e-03 2.5400507931467990e-03
358 -5.0558690576460816e-03 2.0523101935559222e-04 -6.2359283520665113e-03
359 0.0000000000000000e+00 0.0000000000000000e+00 0.0000000000000000e+00
360 3.5267367968348563e-03 -2.3906301145587669e-03 4.0923713745988303e-03
361 -1.1036879678505271e-02 3.8351363343400542e-03 2.3975088555341754e-05
362 8.5726863820752355e-03 -7.1420681708770535e-03 -5.6017191980234507e-03
363 6.3659670332478753e-04 -2.7639349070128897e-03 4.9897331596762563e-03
364 -2.1355382485558428e-03 6.0697747964395560e-04 5.4044610833548709e-03
365 -2.3425680627146674e-03 -8.5290350346836370e-04 6.7949929820083372e-03
366 1.5262508156507329e-02 2.5896273413432407e-03 5.8569922964435668e-03
368 1.9811980376389709e-03 -4.9921506298103218e-03 -2.5019959538430774e-03
371 8.1285757993461924e-03 1.9159130200454086e-04 3.6779347920945010e-03
413 0.0000000000000000e+00 0.0000000000000000e+00 0.0000000000000000e+00
415 3.9400775562283517e-04 -3.5622731657845509e-03 -5.6794816953828729e-03
416 4.3422599061640286e-03 -7.2876540746724490e-03 -1.3885958776840468e-03
417 -5.2213365998846940e-03 7.5518950046248416e-03 2.4935080191169465e-03
419 8.8000340787623751e-03 3.4055338114228105e-03 5.7456823040719258e-04
421 -4.4065957752552716e-03 -3.9828732271845668e-03 5.2570933108183615e-03
422 3.0064828360925420e-03 -4.2638501770102975e-03 -8.7061644543059997e-03
423 -2.4211737842969789e-03 2.0637466228409811e-04 1.7625792493595012e-03
425 -3.3794795800310136e-03 -1.5325427236109711e-03 -7.3066400080646085e-03
667 -4.8146843825439952e-03 -4.0142274384296229e-03 3.7145739291059017e-03
723 6.2697104725605605e-03 6.7167435517660841e-03 1.9784531370005184e-03
728 7.4346882493457923e-03 -9.7381891699567784e-04 6.3004476329246316e-04
731 1.4190972236118721e-03 -2.6362040942784328e-03 5.5847530472295940e-03
784 -9.2884477132166817e-04 -1.9307150316634947e-03 -3.8900413798494620e-04
787 -1.7681136528855162e-03 -3.7543213233749814e-03 -1.7850354842960333e-03
792 -1.7691120926639417e-04 -6.0425094024029223e-03 2.2660446591743176e-03
88 0.0000000000000000e+00 0.0000000000000000e+00 0.0000000000000000e+00
87 0.0000000000000000e+00 0.0000000000000000e+00 0.0000000000000000e+00
125 0.0000000000000000e+00 0.0000000000000000e+00 0.0000000000000000e+00
126 0.0000000000000000e+00 0.0000000000000000e+00 0.0000000000000000e+00
127 0.0000000000000000e+00 0.0000000000000000e+00 0.0000000000000000e+00
128 0.0000000000000000e+00 0.0000000000000000e+00 0.0000000000000000e+00
129 0.0000000000000000e+00 0.0000000000000000e+00 0.0000000000000000e+00
130 0.0000000000000000e+00 0.0000000000000000e+00 0.0000000000000000e+00
131 0.0000000000000000e+00 0.0000000000000000e+00 0.0000000000000000e+00
132 0.0000000000000000e+00 0.0000000000000000e+00 0.0000000000000000e+00
136 0.0000000000000000e+00 0.0000000000000000e+00 0.0000000000000000e+00
163 0.0000000000000000e+00 0.0000000000000000e+00 0.0000000000000000e+00
164 0.0000000000000000e+00 0.0000000000000000e+00 0.0000000000000000e+00
165 0.0000000000000000e+00 0.0000000000000000e+00 0.0000000000000000e+00
166 0.0000000000000000e+00 0.0000000000000000e+00 0.0000000000000000e+00
167 0.0000000000000000e+00 0.0000000000000000e+00 0.0000000000000000e+00
168 0.0000000000000000e+00 0.0000000000000000e+00 0.0000000000000000e+00
169 0.0000000000000000e+00 0.0000000000000000e+00 0.0000000000000000e+00
170 0.0000000000000000e+00 0.0000000000000000e+00 0.0000000000000000e+00
172 0.0000000000000000e+00 0.0000000000000000e+00 0.0000000000000000e+00
173 0.0000000000000000e+00 0.0000000000000000e+00 0.0000000000000000e+00
174 0.0000000000000000e+00 0.0000000000000000e+00 0.0000000000000000e+00
196 0.0000000000000000e+00 0.0000000000000000e+00 0.0000000000000000e+00
404 0.0000000000000000e+00 0.0000000000000000e+00 0.0000000000000000e+00
406 -1.9494106203550396e-03 -3.1679466559501740e-03 -4.0024431679808155e-03
408 0.0000000000000000e+00 0.0000000000000000e+00 0.0000000000000000e+00
409 0.0000000000000000e+00 0.0000000000000000e+00 0.0000000000000000e+00
410 7.7543975552103158e-03 -2.4277736514671609e-03 9.2533193124766343e-03
411 1.3898646977022894e-03 3.2406453049284808e-03 -7.6421988965017611e-03
412 1.1789536953038011e-02 -8.2051245582449618e-03 -4.3134560168305216e-03
414 4.3875258486778422e-03 3.6155940041833613e-03 5.7629079585298582e-03
418 2.3945825564328400e-04 -8.8069246909655487e-04 7.2249964285548774e-04
420 -1.0194522483851201e-03 -2.9315689977449711e-03 5.0936037090967843e-03
452 4.5485115889428839e-03 1.9490606058855514e-03 5.0485207321821759e-04
453 0.0000000000000000e+00 0.0000000000000000e+00 0.0000000000000000e+00
454 -3.8769558612311626e-04 1.5372553033522270e-03 -9.7275911885286550e-04
455 -4.0167525196778521e-03 6.9096158957694777e-03 -8.7239905070537842e-04
456 5.4509210090860193e-03 -2.8310874258656338e-04 -2.7180365099416116e-03
457 -8.6111238065311879e-05 -2.7641660904212792e-03 -5.9751056807637419e-03
458 6.8076100650257525e-03 3.5318115953431087e-03 7.3409553896314639e-03
459 -2.0303782933879621e-03 2.2784146045944443e-03 -2.6772361616530784e-03
460 -2.8565487808952785e-03 3.9526476489638602e-03 -5.0570045897121475e-03
461 -1.2535313436608846e-04 -2.8246262564462542e-03 -5.5361146919124561e-03
462 -2.1960939776112767e-03 -7.1374251215964761e-03 -2.1955761587251466e-03
463 6.0997218900172324e-03 -3.1739737214806152e-04 -1.9280169215342654e-03
465 5.9165826990755102e-03 -8.3710878645965273e-03 2.7198842272179568e-03
491 1.9575065907950972e-03 9.5246931626204352e-03 -3.1473399390903266e-03
779 2.6895894022267125e-03 -4.3242261230953573e-05 1.3487450788356055e-03
830 -1.5619263396886927e-03 6.5747342856700361e-04 -1.9285816616752783e-03
833 -1.0531374203412256e-03 7.0789636485923419e-03 -3.2789478399842063e-03
838 1.9373567799950381e-03 -7.4303004049358955e-03 3.9167088276965108e-03
407 4.5152911662004255e-04 5.5796062292994266e-03 -9.3305585793790444e-05
451 -3.4364287257391867e-03 7.7615784658613910e-03 4.5008548294018826e-03
220 0.0000000000000000e+00 0.0000000000000000e+00 0.0000000000000000e+00
221 0.0000000000000000e+00 0.0000000000000000e+00 0.0000000000000000e+00
226 0.0000000000000000e+00 0.0000000000000000e+00 0.0000000000000000e+00
227 0.0000000000000000e+00 0.0000000000000000e+00 0.0000000000000000e+00
228 0.0000000000000000e+00 0.0000000000000000e+00 0.0000000000000000e+00
229 0.0000000000000000e+00 0.0000000000000000e+00 0.0000000000000000e+00
230 0.0000000000000000e+00 0.0000000000000000e+00 0.0000000000000000e+00
231 0.0000000000000000e+00 0.0000000000000000e+00 0.0000000000000000e+00
232 0.0000000000000000e+00 0.0000000000000000e+00 0.0000000000000000e+00
233 0.0000000000000000e+00 0.0000000000000000e+00 0.0000000000000000e+00
234 0.0000000000000000e+00 0.0000000000000000e+00 0.0000000000000000e+00
235 0.0000000000000000e+00 0.0000000000000000e+00 0.0000000000000000e+00
236 0.0000000000000000e+00 0.0000000000000000e+00 0.0000000000000000e+00
237 0.0000000000000000e+00 0.0000000000000000e+00 0.0000000000000000e+00
238 0.0000000000000000e+00 0.0000000000000000e+00 0.0000000000000000e+00
239 0.0000000000000000e+00 0.0000000000000000e+00 0.0000000000000000e+00
240 1.5681356141906244e-03 -5.1314408049945191e-03 -1.5686129908974156e-03
250 0.0000000000000000e+00 0.0000000000000000e+00 0.0000000000000000e+00
251 0.0000000000000000e+00 0.0000000000000000e+00 0.0000000000000000e+00
252 0.0000000000000000e+00 0.0000000000000000e+00 0.0000000000000000e+00
254 0.0000000000000000e+00 0.0000000000000000e+00 0.0000000000000000e+00
256 0.0000000000000000e+00 0.0000000000000000e+00 0.0000000000000000e+00
257 0.0000000000000000e+00 0.0000000000000000e+00 0.0000000000000000e+00
258 0.0000000000000000e+00 0.0000000000000000e+00 0.0000000000000000e+00
259 0.0000000000000000e+00 0.0000000000000000e+00 0.0000000000000000e+00
260 0.0000000000000000e+00 0.0000000000000000e+00 0.0000000000000000e+00
261 -2.4121918569428410e-04 4.5642857563546252e-03 9.3034331014291149e-04
262 -3.0313236988777060e-03 8.6611500753077646e-03 -1.0833794038258738e-03
264 0.0000000000000000e+00 0.0000000000000000e+00 0.0000000000000000e+00
543 2.8856492237961149e-04 -5.8974000886428124e-03 -5.4065232942159423e-03
563 -2.3403654780973617e-03 5.9227415749820329e-03 6.6626650496123150e-03
565 -1.0591945518134844e-02 -1.0547511572772295e-03 -2.0010449108213224e-03
566 -3.5058123680587320e-03 -4.5020939247915762e-03 3.8473712520906435e-03
567 2.8191251162427372e-03 7.2709361679416376e-04 4.4257976655773350e-03
568 2.6296865932208917e-03 -3.6961827711210165e-04 1.0318061909548190e-02
569 3.7798618529469052e-03 -1.6123058160835018e-03 1.1594476880463946e-02
570 1.0591544809183374e-03 3.4943913599988687e-03 -3.2985733817067747e-03
571 6.3816163760579839e-04 -9.7748046471675502e-03 5.1542321113871520e-03
572 1.9560792398687445e-03 -1.2108732215654389e-03 -9.6082463373983978e-04
573 2.2776945774128518e-04 -3.8485555672571007e-03 -6.0464228247487945e-03
574 8.1596922107621088e-03 5.1980221988550237e-03 4.2631245797133364e-03
575 2.5078494179774490e-03 8.4141391169388676e-03 -1.1284317478741297e-02
577 9.9844402234284201e-04 9.4641924981410982e-04 -1.2788604898295625e-03
600 -6.6309799988214244e-04 1.2714685475192632e-03 3.3953434402837937e-03
601 -3.1524823033573742e-03 1.4148087801301521e-03 7.7063332509022346e-04
602 6.5789126452373073e-03 9.7687890918027689e-04 3.7198857218133179e-03
604 -7.9201488217323351e-03 1.8289796452160237e-03 -6.6602917154125613e-03
606 4.1908623876556698e-03 2.1322061203740841e-04 4.5527374946002829e-03
607 -1.9133814980383836e-03 -5.0736011334738566e-03 4.4422810732999704e-03
608 6.0166460802285040e-03 -2.7466991785308134e-03 -5.0836244898855526e-04
609 -9.0984647834383391e-04 -2.6154278717223506e-03 3.6462919249453849e-03
610 -3.8405516502180081e-03 -6.8362807174650311e-03 7.4972733575108686e-03
613 -3.4171479702532447e-03 -6.7881014394856522e-03 8.8391475907374454e-03
614 -4.3269548521095757e-03 1.4964904942591326e-03 -1.7895580500407332e-03
615 -7.8542081128769165e-04 -4.4061410974117633e-03 -1.3853012276280724e-03
616 6.1717873482593777e-03 -2.0682400942668580e-03 5.1702475927179990e-03
618 -3.4160480647056381e-03 -8.5529491537632511e-03 6.0897943496145673e-03
666 -3.1668572951063941e-03 7.4406737142121958e-04 6.1186378734566773e-03
668 -2.5411104725626883e-03 -3.9184263388076911e-03 1.9133287611603472e-03
953 -1.8420767274212736e-03 -4.2080142966719885e-04 1.1180361069435082e-04
958 1.1798603514853103e-03 -3.4646902642090070e-03 -2.3150409156961504e-03
983 -6.4201547051459555e-03 -1.5287087425278007e-03 -3.7714430208699535e-03
988 7.1905717583139388e-04 -7.7028957103130969e-03 -1.4369274418660457e-03
246 0.0000000000000000e+00 0.0000000000000000e+00 0.0000000000000000e+00
247 0.0000000000000000e+00 0.0000000000000000e+00 0.0000000000000000e+00
248 0.0000000000000000e+00 0.0000000000000000e+00 0.0000000000000000e+00
249 0.0000000000000000e+00 0.0000000000000000e+00 0.0000000000000000e+00
253 0.0000000000000000e+00 0.0000000000000000e+00 0.0000000000000000e+00
255 0.0000000000000000e+00 0.0000000000000000e+00 0.0000000000000000e+00
283 0.0000000000000000e+00 0.0000000000000000e+00 0.0000000000000000e+00
284 0.0000000000000000e+00 0.0000000000000000e+00 0.0000000000000000e+00
285 0.0000000000000000e+00 0.0000000000000000e+00 0.0000000000000000e+00
286 0.0000000000000000e+00 0.0000000000000000e+00 0.0000000000000000e+00
287 0.0000000000000000e+00 0.0000000000000000e+00 0.0000000000000000e+00
288 0.0000000000000000e+00 0.0000000000000000e+00 0.0000000000000000e+00
289 0.0000000000000000e+00 0.0000000000000000e+00 0.0000000000000000e+00
290 0.0000000000000000e+00 0.0000000000000000e+00 0.0000000000000000e+00
291 0.0000000000000000e+00 0.0000000000000000e+00 0.0000000000000000e+00
292 0.0000000000000000e+00 0.0000000000000000e+00 0.0000000000000000e+00
293 0.0000000000000000e+00 0.0000000000000000e+00 0.0000000000000000e+00
294 0.0000000000000000e+00 0.0000000000000000e+00 0.0000000000000000e+00
295 0.0000000000000000e+00 0.0000000000000000e+00 0.0000000000000000e+00
296 0.0000000000000000e+00 0.0000000000000000e+00 0.0000000000000000e+00
297 3.3117846430559370e-03 1.4364569114744318e-03 -1.6441871353651580e-03
298 -4.7910642386892984e-04 2.2685763539404399e-03 -4.5576450341622065e-04
300 0.0000000000000000e+00 0.0000000000000000e+00 0.0000000000000000e+00
343 0.0000000000000000e+00 0.0000000000000000e+00 0.0000000000000000e+00
345 0.0000000000000000e+00 0.0000000000000000e+00 0.0000000000000000e+00
347 0.0000000000000000e+00 0.0000000000000000e+00 0.0000000000000000e+00
349 -3.6931381113499921e-03 1.0547162859571815e-02 -5.8190361564691975e-03
351 0.0000000000000000e+00 0.0000000000000000e+00 0.0000000000000000e+00
597 2.8108217855875232e-03 2.5203319378792658e-03 3.8266427091618429e-03
599 4.2710863119882272e-03 1.0069842443932481e-03 -6.0168475728879928e-04
603 -3.7208633776810098e-03 -1.5323221109756660e-03 -2.6048307104050302e-03
605 -5.1788340285632119e-03 6.4280932511277117e-04 7.4301141351405774e-03
647 2.2782139543961527e-03 6.0057332952306699e-03 -2.3540502319390677e-03
649 -2.0572819455879697e-03 -1.3524013755383459e-03 -3.4382826753666987e-03
650 2.6428652181706412e-03 2.9574265973516816e-03 2.5690175679093192e-04
651 -3.3822794970248290e-03 -9.2477139130030857e-03 5.7908792949158260e-04
652 1.3312733654250633e-03 -1.4454081128070250e-03 -1.2132306530893817e-02
653 5.1970099857644881e-03 7.0061369902481713e-03 2.9502656274957816e-03
654 -1.4887829186700143e-02 1.7633573617149519e-03 -1.6502846069285011e-04
655 -4.3065916151310661e-03 -1.4563830362361188e-03 -2.4041279033109155e-03
656 7.2604566197065953e-03 -1.0237165343337344e-02 -1.5319428071962877e-05
657 -5.1262347541451278e-03 -3.0273915530937967e-04 3.0924790654388466e-03
658 -1.0825739759188026e-02 2.6031169210085593e-03 1.9510490653903204e-03
659 -3.5223398989549058e-04 4.4118564769358732e-03 -7.4255572339401651e-03
660 -3.9426587237885048e-03 2.9630287961807124e-03 -5.7523535991919920e-03
663 -8.3166779944550025e-03 3.2128438184863348e-05 -7.7002880014826434e-03
664 5.2067534590443309e-04 3.8491244801715739e-04 -6.1002782173932195e-04
665 1.2693608466902526e-02 -2.0975825696220585e-03 4.2916370698075712e-03
712 -4.9620409319874256e-03 1.1973962507767688e-03 3.1036074657617568e-03
714 -1.2181239267955220e-03 1.7304199131850532e-03 -3.2656281451331594e-03
716 7.1995268846279160e-04 -6.8926572031896309e-03 2.9659400563209161e-03
719 -4.4695434929939298e-03 9.1589539844304756e-03 -3.9737278056127048e-03
720 5.2723093531054964e-03 -4.1666217365387863e-03 3.0033728498601677e-03
721 7.4958106097876244e-03 7.9482681865433768e-04 -1.2986703543835171e-03
722 3.0350022445799337e-04 -7.7011303670591587e-03 1.8740842965783904e-03
724 -4.4971828452485332e-03 -3.9330037323749975e-03 -8.3449774702156561e-04
1029 -2.1936553465253675e-03 7.4291500037860291e-05 5.3867371001166068e-03
1034 6.3050264861766554e-03 -4.7782200994755004e-03 4.0838479092697002e-03
1090 -1.4875718930296733e-04 -1.1206175216219820e-02 4.9460869761279213e-03
282 0.0000000000000000e+00 0.0000000000000000e+00 0.0000000000000000e+00
333 0.0000000000000000e+00 0.0000000000000000e+00 0.0000000000000000e+00
334 0.0000000000000000e+00 0.0000000000000000e+00 0.0000000000000000e+00
335 0.0000000000000000e+00 0.0000000000000000e+00 0.0000000000000000e+00
336 0.0000000000000000e+00 0.0000000000000000e+00 0.0000000000000000e+00
337 0.0000000000000000e+00 0.0000000000000000e+00 0.0000000000000000e+00
338 0.0000000000000000e+00 0.0000000000000000e+00 0.0000000000000000e+00
339 0.0000000000000000e+00 0.0000000000000000e+00 0.0000000000000000e+00
340 0.0000000000000000e+00 0.0000000000000000e+00 0.0000000000000000e+00
341 0.0000000000000000e+00 0.0000000000000000e+00 0.0000000000000000e+00
342 0.0000000000000000e+00 0.0000000000000000e+00 0.0000000000000000e+00
344 0.0000000000000000e+00 0.0000000000000000e+00 0.0000000000000000e+00
346 0.0000000000000000e+00 0.0000000000000000e+00 0.0000000000000000e+00
348 5.1830881429669158e-03 -2.8001510652856366e-03 8.6856542573377632e-04
395 0.0000000000000000e+00 0.0000000000000000e+00 0.0000000000000000e+00
396 0.0000000000000000e+00 0.0000000000000000e+00 0.0000000000000000e+00
397 0.0000000000000000e+00 0.0000000000000000e+00 0.0000000000000000e+00
398 0.0000000000000000e+00 0.0000000000000000e+00 0.0000000000000000e+00
399 0.0000000000000000e+00 0.0000000000000000e+00 0.0000000000000000e+00
400 0.0000000000000000e+00 0.0000000000000000e+00 0.0000000000000000e+00
401 0.0000000000000000e+00 0.0000000000000000e+00 0.0000000000000000e+00
402 1.9980485773038043e-03 1.4438194517293660e-03 3.2608923482476560e-03
403 1.2369950919944184e-02 4.6996178403749533e-03 7.5475035689688639e-03
405 0.0000000000000000e+00 0.0000000000000000e+00 0.0000000000000000e+00
703 -3.2280461291620036e-03 -3.6784060897728558e-03 -4.0539388288719589e-03
705 5.4284372326944194e-04 2.5400857598534329e-03 -1.5192526689367337e-03
706 -2.0260108855133549e-03 -7.1502902792604012e-04 -3.6347397429207133e-03
707 -5.8630110274614693e-03 -5.2546826484701180e-04 4.8567608021042147e-04
708 1.4778693514646232e-03 -3.1056854563537418e-04 -3.5068364659529062e-03
709 -1.3781675695192723e-03 -9.7347294378099108e-03 1.1326620516786214e-03
710 3.0438819375082568e-03 6.1073215553355642e-04 7.0502967883034132e-03
711 3.7228934206283986e-03 2.7154919578202552e-04 -9.9535768848308514e-03
713 9.1359870324661193e-04 5.8811537313869199e-03 4.3598155052175479e-03
715 -1.2711002990087848e-03 2.7478867781054292e-03 -5.3121215185677542e-03
766 2.7490586801905683e-03 2.1233919178631220e-03 -2.5214090644278186e-03
767 -4.2187831025246062e-03 3.1678801427913179e-03 -2.9148813846504133e-03
768 5.7232960999633606e-03 7.3401467151618860e-03 3.3086725261946290e-03
769 1.6703265322180569e-02 -4.1832156541431456e-03 4.5732872483077005e-03
770 -2.8269329648768445e-03 3.4583597947686357e-03 -1.8934836843701179e-03
771 2.9446410774504007e-03 -2.2653053033284691e-03 9.4549846316817655e-03
772 -3.4494903696464106e-03 -9.8345328277329516e-03 -1.5264767641788870e-03
775 1.3929199005243893e-03 9.0373576508798463e-04 -1.8710704752073089e-03
776 8.2600965344100611e-03 -1.5375712659419446e-03 -1.1375686020672375e-03
777 2.4379725217997623e-03 -6.3592765006088127e-03 3.7269056985487509e-03
778 6.8979043093158297e-03 1.4560604334581248e-03 4.1687738906026244e-03
780 1.7504736138833352e-03 2.0997821697929264e-03 -1.3955790166791456e-03
828 -3.9642766708042641e-04 -1.9421429720353439e-03 -9.1791841890188283e-03
1085 1.6665851574246350e-04 -3.1720438912945562e-03 1.1887061439428759e-03
1146 -2.1812709173902188e-04 2.0588200402523152e-03 -6.5284942061727101e-03
5 0.0000000000000000e+00 0.0000000000000000e+00 0.0000000000000000e+00
12 0.0000000000000000e+00 0.0000000000000000e+00 0.0000000000000000e+00
15 0.0000000000000000e+00 0.0000000000000000e+00 0.0000000000000000e+00
120 -1.1242914165526509e-04 5.3120091090930292e-03 -4.5057137746275424e-03
124 -8.6174195176145288e-03 -8.5044685439784815e-03 4.0339867624620569e-03
158 -4.4910765954650451e-04 -3.3554348226080958e-03 -8.2326031778308714e-03
162 3.1005340380653142e-03 -1.3043929101974768e-03 -1.4555212521510290e-03
217 0.0000000000000000e+00 0.0000000000000000e+00 0.0000000000000000e+00
218 0.0000000000000000e+00 0.0000000000000000e+00 0.0000000000000000e+00
219 0.0000000000000000e+00 0.0000000000000000e+00 0.0000000000000000e+00
223 0.0000000000000000e+00 0.0000000000000000e+00 0.0000000000000000e+00
224 0.0000000000000000e+00 0.0000000000000000e+00 0.0000000000000000e+00
225 0.0000000000000000e+00 0.0000000000000000e+00 0.0000000000000000e+00
523 0.0000000000000000e+00 0.0000000000000000e+00 0.0000000000000000e+00
524 0.0000000000000000e+00 0.0000000000000000e+00 0.0000000000000000e+00
525 0.0000000000000000e+00 0.0000000000000000e+00 0.0000000000000000e+00
526 0.0000000000000000e+00 0.0000000000000000e+00 0.0000000000000000e+00
527 0.0000000000000000e+00 0.0000000000000000e+00 0.0000000000000000e+00
528 0.0000000000000000e+00 0.0000000000000000e+00 0.0000000000000000e+00
529 0.0000000000000000e+00 0.0000000000000000e+00 0.0000000000000000e+00
530 0.0000000000000000e+00 0.0000000000000000e+00 0.0000000000000000e+00
531 0.0000000000000000e+00 0.0000000000000000e+00 0.0000000000000000e+00
532 0.0000000000000000e+00 0.0000000000000000e+00 0.0000000000000000e+00
533 0.0000000000000000e+00 0.0000000000000000e+00 0.0000000000000000e+00
534 0.0000000000000000e+00 0.0000000000000000e+00 0.0000000000000000e+00
535 1.9753231247486174e-03 1.5901509369759556e-03 -1.6891728143540259e-03
536 5.5900789900085431e-03 2.9158686963573998e-04 3.3931106515698323e-03
537 0.0000000000000000e+00 0.0000000000000000e+00 0.0000000000000000e+00
538 0.0000000000000000e+00 0.0000000000000000e+00 0.0000000000000000e+00
539 7.4420782232205978e-03 4.5354329476194090e-03 -2.4123520789754889e-03
540 0.0000000000000000e+00 0.0000000000000000e+00 0.0000000000000000e+00
541 0.0000000000000000e+00 0.0000000000000000e+00 0.0000000000000000e+00
542 -3.8035005287079225e-03 2.5585270262729722e-03 -2.6083201327767861e-04
548 0.0000000000000000e+00 0.0000000000000000e+00 0.0000000000000000e+00
550 0.0000000000000000e+00 0.0000000000000000e+00 0.0000000000000000e+00
552 0.0000000000000000e+00 0.0000000000000000e+00 0.0000000000000000e+00
554 6.3768763308305870e-03 6.0401089242351717e-03 -9.4741588316770103e-04
556 0.0000000000000000e+00 0.0000000000000000e+00 0.0000000000000000e+00
557 7.5327357698381130e-03 -7.2034371149271781e-03 8.4634551171801371e-03
558 -5.0431761624526719e-03 5.1845265165135776e-03 -1.4654232834099426e-03
559 0.0000000000000000e+00 0.0000000000000000e+00 0.0000000000000000e+00
560 0.0000000000000000e+00 0.0000000000000000e+00 0.0000000000000000e+00
561 1.2778468535301835e-02 2.4891419970499854e-03 5.0223591871181332e-03
562 -6.8385945430470881e-03 1.4663863638525755e-03 5.7166392539916002e-03
564 0.0000000000000000e+00 0.0000000000000000e+00 0.0000000000000000e+00
598 0.0000000000000000e+00 0.0000000000000000e+00 0.0000000000000000e+00
919 3.7086444439264643e-03 5.3313254803912654e-03 9.7076444866141319e-04
920 8.3086877537384852e-03 2.0227345789478401e-04 3.2044516501473184e-03
921 8.7195811827292253e-04 -5.1780609731716916e-03 -3.5673557317274047e-03
922 -2.1706433702040231e-03 -6.5079718006322857e-03 5.7039850746878409e-03
923 8.8314289195001623e-03 -5.1339248038633966e-03 2.4329846407319384e-03
924 -1.0604505551372179e-02 3.6916425995800126e-03 8.7899534627633707e-03
927 -1.0995230125264979e-03 2.7889406063049565e-03 -2.7547582973096105e-03
928 -1.4384263003491883e-03 5.9303155357854254e-04 -5.7517302114865369e-04
929 -8.7076417381953624e-04 9.3130853976359507e-03 -5.1326051387873012e-03
930 -6.1434069412795583e-03 -5.5032813090399651e-04 -5.8165157643914811e-03
931 1.0250372947791027e-03 1.4810087233290425e-03 2.6665246790002249e-05
936 1.8785896593705863e-03 -1.4318993721573858e-04 1.3737729026579822e-02
938 2.7940064579549469e-03 -1.2362495786947152e-03 1.7946814893154439e-03
942 5.5664423376051162e-03 8.1751040761353605e-04 -3.3540938296928962e-03
943 8.8133261960174382e-03 -6.8305576231823583e-03 -2.6095467382562560e-03
944 2.6633556916518400e-03 1.0452957254280790e-02 -1.6753246862465313e-03
945 5.3610582145541636e-03 1.5645585298538864e-02 -4.0689756608335613e-03
946 4.3350318815124095e-03 9.0511011252802070e-03 1.7523650690722387e-03
950 -3.9014393841902755e-03 -6.2710557180652949e-03 1.3514565800220113e-04
980 -2.8656375452247055e-03 7.2325541835023622e-03 2.7570689708752787e-03
22 0.0000000000000000e+00 0.0000000000000000e+00 0.0000000000000000e+00
25 0.0000000000000000e+00 0.0000000000000000e+00 0.0000000000000000e+00
32 0.0000000000000000e+00 0.0000000000000000e+00 0.0000000000000000e+00
35 0.0000000000000000e+00 0.0000000000000000e+00 0.0000000000000000e+00
191 -3.6108829926733018e-03 -4.1246099134736132e-03 2.5197738237088393e-03
195 9.2359891374339618e-03 -1.3893754040882427e-03 2.4551538905620588e-03
213 -3.0152050665676489e-03 2.9082494615055967e-03 -2.0487993293157075e-03
222 0.0000000000000000e+00 0.0000000000000000e+00 0.0000000000000000e+00
242 0.0000000000000000e+00 0.0000000000000000e+00 0.0000000000000000e+00
243 0.0000000000000000e+00 0.0000000000000000e+00 0.0000000000000000e+00
244 0.0000000000000000e+00 0.0000000000000000e+00 0.0000000000000000e+00
245 0.0000000000000000e+00 0.0000000000000000e+00 0.0000000000000000e+00
281 0.0000000000000000e+00 0.0000000000000000e+00 0.0000000000000000e+00
544 0.0000000000000000e+00 0.0000000000000000e+00 0.0000000000000000e+00
545 0.0000000000000000e+00 0.0000000000000000e+00 0.0000000000000000e+00
546 0.0000000000000000e+00 0.0000000000000000e+00 0.0000000000000000e+00
547 0.0000000000000000e+00 0.0000000000000000e+00 0.0000000000000000e+00
549 0.0000000000000000e+00 0.0000000000000000e+00 0.0000000000000000e+00
551 0.0000000000000000e+00 0.0000000000000000e+00 0.0000000000000000e+00
553 1.7952938372941879e-03 4.2889941711624297e-03 5.0840462087384996e-03
555 0.0000000000000000e+00 0.0000000000000000e+00 0.0000000000000000e+00
578 0.0000000000000000e+00 0.0000000000000000e+00 0.0000000000000000e+00
580 0.0000000000000000e+00 0.0000000000000000e+00 0.0000000000000000e+00
581 0.0000000000000000e+00 0.0000000000000000e+00 0.0000000000000000e+00
582 0.0000000000000000e+00 0.0000000000000000e+00 0.0000000000000000e+00
583 0.0000000000000000e+00 0.0000000000000000e+00 0.0000000000000000e+00
584 0.0000000000000000e+00 0.0000000000000000e+00 0.0000000000000000e+00
585 0.0000000000000000e+00 0.0000000000000000e+00 0.0000000000000000e+00
586 0.0000000000000000e+00 0.0000000000000000e+00 0.0000000000000000e+00
587 1.7554959354548006e-03 -1.8057561282710229e-03 2.2710458696455675e-03
588 -7.7852832499135903e-03 3.0017453721988417e-03 -1.0766092919325721e-02
589 0.0000000000000000e+00 0.0000000000000000e+00 0.0000000000000000e+00
590 0.0000000000000000e+00 0.0000000000000000e+00 0.0000000000000000e+00
591 6.4692667300812303e-03 2.7322361785048942e-04 5.2368586941741475e-03
592 -6.3945481192314102e-03 -5.2444705192531875e-03 -3.9320541591954103e-03
593 0.0000000000000000e+00 0.0000000000000000e+00 0.0000000000000000e+00
594 0.0000000000000000e+00 0.0000000000000000e+00 0.0000000000000000e+00
595 3.2595801817693125e-03 9.2454167189563331e-03 3.3247739713972734e-03
596 2.1078404785390909e-03 1.9813649679829163e-03 -9.1329461487103195e-04
642 -2.9854910065002511e-03 2.8709622762177517e-03 -1.5912924878541664e-03
643 0.0000000000000000e+00 0.0000000000000000e+00 0.0000000000000000e+00
646 -8.4471728538552098e-03 -3.2325966049294667e-03 3.5294524717579736e-03
648 0.0000000000000000e+00 0.0000000000000000e+00 0.0000000000000000e+00
934 -5.8341674384768368e-03 -2.9675619291568188e-03 1.4788027988887089e-03
935 8.5139355061955861e-04 -1.7096858917169662e-03 2.5626794906478604e-03
937 -3.5455912466239529e-03 5.0982598096090950e-03 2.5003504522050279e-03
941 -8.8610863264692412e-03 5.8797104956377294e-03 3.1406302622956090e-03
964 2.0909931193474167e-03 -1.9406022688076027e-03 2.0386605854758252e-03
965 6.1505279175053356e-04 2.6592787974425462e-03 3.1466221958420027e-04
966 7.0900172452179732e-03 -5.1614264100904210e-03 4.4314268359061442e-03
967 -5.2748794761923394e-04 -1.4112517037413450e-03 -4.9795072807485557e-03
968 1.0049383325552365e-02 -1.1214360335463462e-03 -4.7756609418869739e-03
971 6.4049668071950198e-03 -3.0354935409271310e-03 7.2450066644395828e-04
972 -6.1287820660749504e-03 4.0439648310814074e-03 -3.4453890308015840e-03
973 -3.1703413959662994e-03 -1.9541372726057122e-03 -6.3408518473186933e-03
974 -1.2164086706626682e-03 4.7067855959741275e-03 2.1551933254456463e-03
975 -4.7056430867270585e-03 4.1685793722384314e-03 -1.4806718054620803e-03
976 -9.1310348073433776e-03 3.5547751451487177e-03 7.7579361441950847e-03
1020 6.5237887785204000e-03 -7.0705009507963162e-03 1.0730412392812962e-03
1021 2.1706698965430261e-03 -6.9668504174254069e-04 -2.3563138524059220e-03
1026 -3.6350645469807831e-03 -3.0925454838428151e-03 1.9773954302702013e-03
41 0.0000000000000000e+00 0.0000000000000000e+00 0.0000000000000000e+00
44 0.0000000000000000e+00 0.0000000000000000e+00 0.0000000000000000e+00
209 -7.0150120074171287e-03 4.8371615735496492e-03 -5.8706381698574589e-03
216 6.4132697513909816e-03 -9.4068088133972237e-03 4.4092924912763820e-03
278 0.0000000000000000e+00 0.0000000000000000e+00 0.0000000000000000e+00
279 0.0000000000000000e+00 0.0000000000000000e+00 0.0000000000000000e+00
280 0.0000000000000000e+00 0.0000000000000000e+00 0.0000000000000000e+00
330 0.0000000000000000e+00 0.0000000000000000e+00 0.0000000000000000e+00
331 0.0000000000000000e+00 0.0000000000000000e+00 0.0000000000000000e+00
332 0.0000000000000000e+00 0.0000000000000000e+00 0.0000000000000000e+00
579 0.0000000000000000e+00 0.0000000000000000e+00 0.0000000000000000e+00
628 0.0000000000000000e+00 0.0000000000000000e+00 0.0000000000000000e+00
629 0.0000000000000000e+00 0.0000000000000000e+00 0.0000000000000000e+00
630 0.0000000000000000e+00 0.0000000000000000e+00 0.0000000000000000e+00
631 0.0000000000000000e+00 0.0000000000000000e+00 0.0000000000000000e+00
632 0.0000000000000000e+00 0.0000000000000000e+00 0.0000000000000000e+00
633 0.0000000000000000e+00 0.0000000000000000e+00 0.0000000000000000e+00
634 0.0000000000000000e+00 0.0000000000000000e+00 0.0000000000000000e+00
635 0.0000000000000000e+00 0.0000000000000000e+00 0.0000000000000000e+00
636 0.0000000000000000e+00 0.0000000000000000e+00 0.0000000000000000e+00
637 -1.9184225046113604e-03 -1.3523333259085640e-02 5.7607550387396237e-03
638 3.4475127504733933e-03 2.1042658020435936e-03 -6.9485175000016152e-03
639 0.0000000000000000e+00 0.0000000000000000e+00 0.0000000000000000e+00
640 0.0000000000000000e+00 0.0000000000000000e+00 0.0000000000000000e+00
641 -1.0385229950050652e-02 3.4304700911002638e-03 5.9396555904575746e-03
644 0.0000000000000000e+00 0.0000000000000000e+00 0.0000000000000000e+00
645 8.3892178241336171e-04 -5.3891678052116589e-03 -3.9438709757117565e-03
694 0.0000000000000000e+00 0.0000000000000000e+00 0.0000000000000000e+00
695 -2.4014312207315289e-03 -5.4058864321137826e-03 4.5956527621811632e-03
696 0.0000000000000000e+00 0.0000000000000000e+00 0.0000000000000000e+00
697 -6.3849342601267614e-03 3.9689563504094472e-03 1.6048561595075330e-03
698 2.4666228039575190e-03 8.8536035365671580e-05 4.2835860682742246e-03
699 0.0000000000000000e+00 0.0000000000000000e+00 0.0000000000000000e+00
700 0.0000000000000000e+00 0.0000000000000000e+00 0.0000000000000000e+00
701 8.8642853613095322e-03 -4.2966144675927968e-03 -2.5236095560867058e-03
702 -6.8252551809846402e-03 7.7841963396864658e-03 3.1501152017688419e-03
704 0.0000000000000000e+00 0.0000000000000000e+00 0.0000000000000000e+00
1010 -6.7580928258825267e-03 5.7811679690672165e-04 7.3072855379069891e-03
1011 -4.3707917076673544e-04 -8.7469112387564675e-04 -1.1306049773580597e-02
1012 4.3588820865371851e-03 -4.6217194078155936e-03 -1.4294234167360285e-03
1013 5.7480580665595334e-03 6.0220891007332208e-03 1.7992868883726675e-03
1014 1.1246154019892244e-02 4.4678651666664598e-03 4.0097118635689039e-03
1017 -3.3984243037299775e-03 -8.5456463751786037e-04 -3.1735687668578861e-03
1018 -5.3006107152699100e-03 5.0801664943474966e-03 -5.1067167950279799e-03
1019 1.6908588955275031e-04 -7.9424798360033747e-03 -2.8968965713223314e-03
1022 1.4621773855152608e-03 -1.3879724075416506e-02 -3.8900168037476176e-03
1072 -1.5714187471218462e-03 -4.6228019355220844e-03 1.1114465958672393e-04
1074 8.3606966987583835e-03 -5.8268088203897598e-03 1.4893783425368749e-03
1075 4.6267466826818105e-03 1.7478606287325558e-03 -9.5222343737951572e-03
1076 -4.4628371255045745e-03 -4.0790438483758965e-03 -1.3241344617290632e-03
1077 6.4820661778879941e-03 -2.8751174215639764e-03 2.6055179664203803e-03
1078 -3.4940089608038538e-03 -8.8124420015936560e-03 -7.8328161446402905e-03
1082 6.4517765099102019e-03 -4.6378021217469761e-03 -3.6345397070142979e-04
328 -4.9588670648836053e-05 -9.2679612564831402e-03 4.0160160307601885e-03
329 -2.7627922103216919e-03 4.3029190410692458e-03 -2.6202033292105397e-03
380 2.9648717052431035e-03 3.7550889137222998e-03 -2.3670586660502718e-03
381 7.0798767767944401e-03 1.4057486715206068e-03 8.2734000338590512e-03
382 2.3829235297683883e-03 8.5959930066062760e-03 7.5000891959115801e-03
384 6.4894053008861148e-03 -6.1173194727385197e-03 2.7134749754066283e-03
385 7.8051139515588584e-03 7.4122728486590030e-04 -5.6241726312352726e-03
387 1.1423375011238281e-02 -6.7347678160659041e-03 -1.9371460308159863e-03
388 -7.4354471277967111e-03 -6.4912342733932224e-03 -3.4524281081983721e-03
389 3.1556854447089299e-03 -8.3312546291490434e-03 6.3307710655933535e-03
390 3.1841604801665321e-03 1.2129155228688417e-03 1.3941125395701697e-03
392 2.1952680317992479e-03 -9.9088440832293123e-03 -6.8226876866202303e-03
393 6.2566672218063836e-03 -3.1478499410458206e-03 7.9278620646957131e-03
394 -7.1766723035869284e-03 1.9814323066978303e-03 6.3180874695813911e-03
439 -1.8636819840980414e-03 6.1094730837212040e-04 -9.0511931741974992e-03
443 -3.8468011532026723e-03 7.5254127004837877e-03 -5.9364492909747815e-03
446 -1.8778709009703843e-03 8.9466699249497598e-04 -4.6992739536533284e-04
447 3.2285794904318159e-03 -6.4935956228843860e-03 9.5844970524573310e-03
448 -4.5289625027467246e-03 -4.2102716426984810e-03 1.1831083253512762e-02
449 -1.4086784587667272e-02 -2.0612883373425359e-03 -3.9046766591184306e-03
450 3.1977847862666698e-03 -2.8936700898304379e-03 1.1720995326371005e-02
690 -3.0263668043480105e-03 -6.7648607289226190e-04 4.3619489146829084e-03
693 -1.9825380411779615e-03 7.4299508538584070e-03 -2.1918820373968860e-04
747 4.8247918197096363e-03 -5.6926137003181498e-03 2.5668607036150445e-03
751 5.4112233555881637e-03 -2.4848433402886484e-03 -2.6943719669912268e-03
752 -4.8724083021307527e-03 -2.5765432908582335e-03 3.0245086449900778e-03
753 2.1151442332757006e-03 7.2672697432637099e-03 -1.0009089386511990e-02
754 -2.5952529490323897e-03 -7.3264279962934531e-03 -4.3327756269235700e-03
755 -5.3309136852846871e-03 -6.7495622136581109e-03 -8.3754343161623803e-03
756 -3.2387262877346485e-03 2.8790285039770639e-04 4.8389332689538116e-03
757 8.8740462833422583e-05 -8.8563556589386314e-05 5.0166628426789326e-03
758 2.7327432931716572e-03 -1.7874053322669897e-03 -2.5887429667217649e-03
759 3.3374781680882948e-05 -1.0499738340219862e-02 -2.1839157942560449e-04
760 3.1818085883060284e-03 -6.3584201888899124e-03 -3.7575957279676010e-03
761 -3.4558695823164679e-03 -8.1827811696163349e-03 7.1983198130495703e-03
762 -4.9116331126981142e-03 -8.7377777148723145e-03 5.5545593825407627e-03
763 3.6993800850211359e-03 -8.1857214880134161e-03 5.5264175062962060e-03
765 4.9828166781834635e-03 4.0445312691292865e-05 6.6483430993314104e-03
810 4.8266017333321795e-03 4.3837239332317202e-03 -2.8414139657760096e-03
811 -6.1728422574627070e-03 3.9183219559728510e-03 -5.9289657516854175e-03
814 9.9148899581758486e-04 -4.5479591364321224e-03 5.0428251879272058e-03
816 4.3699558701672881e-03 -4.6116381892803123e-03 1.4704602888043210e-04
817 7.6226112342791079e-03 1.0745473676476111e-02 1.3886555821892126e-02
818 7.1692838209341187e-03 -1.1722899475507564e-03 8.1808293151918918e-04
819 6.0715173628347035e-03 -3.1087819225187479e-04 5.6728356630143615e-03
820 -2.7075879892452925e-03 -7.5633062015276788e-03 3.5061798633448981e-03
823 -3.1290150301519788e-03 -5.4865975099328713e-03 -1.4996880551208015e-03
824 2.0960511453386674e-04 -6.2014165591125722e-04 -1.0847914404031472e-03
825 -4.1472111087283089e-03 5.8796110713603715e-03 -1.0941383950669540e-02
826 2.2563682677102250e-03 5.2365453453701895e-03 -4.6156666292517081e-03
827 3.7284789045012542e-03 5.6768710015217593e-03 2.8132830819136063e-03
872 -6.9910438716913959e-03 1.1254014658861029e-04 -4.0211215613835350e-03
873 -1.6870435085616770e-03 3.2883837109838753e-03 -7.6859284535543831e-03
1133 -4.5007628112390587e-03 -6.0132771047895122e-03 8.0435398065405138e-03
1138 8.1411109403642830e-03 -1.4133104525241120e-03 -3.2526614592733941e-03
1189 -3.3984391817839721e-03 3.4372464537217717e-03 6.0372651932677343e-03
1194 7.6582053658054211e-04 -3.5787704695868319e-03 -3.6453180109860257e-03
434 1.4767511410872656e-02 -6.7181777305361338e-03 -1.0601793134688456e-03
435 5.9884390266810763e-04 -4.9221047336481813e-03 -8.4863164864885932e-04
436 -8.9448018011505769e-03 6.5853274900531536e-03 9.3439842642883823e-04
438 4.8153452340399042e-03 3.7011821786096244e-03 3.9991951477806554e-03
441 2.3118292981213736e-03 -5.8287036513759473e-03 -3.1844683141678655e-03
442 2.1435083669418074e-03 2.4241197245630898e-03 3.5888121980146548e-03
444 7.0528119783108490e-03 2.0572916224409908e-03 -1.8017571553789545e-03
475 -1.1078343020455618e-03 -2.0405824350863927e-04 -1.2084506371277209e-04
476 -1.1683698821780240e-02 2.6593683408193312e-03 5.6667163923429964e-04
478 4.3724477899293309e-03 -6.9006456860147742e-04 -5.8599539107968071e-03
479 -1.1174370455195861e-03 -2.4680932637000694e-03 4.5604368214630304e-04
481 3.6584777720703476e-03 4.9100274983445379e-04 -1.1182646328460840e-03
482 5.8775096591368965e-03 3.0664267126255793e-03 -1.0153182798870396e-03
483 3.5066225181196344e-04 -3.9663750459642657e-03 6.2091753529715295e-03
484 -6.8091772055796041e-03 4.0632876343339721e-03 7.5866237777370456e-03
486 4.2376918892082191e-04 -1.6913857860053126e-03 5.0239804887332188e-03
487 -1.0176679991679304e-02 -1.2852342819769671e-03 -7.1554061824214516e-04
488 -8.6328002492107540e-03 5.1058348739640349e-03 1.3583081239032505e-04
489 -3.6587614999150225e-03 2.8692748762934759e-03 2.9073646079212545e-03
490 4.2147712215131333e-03 -1.0012396217065456e-04 3.5646840469133420e-03
511 -2.4853972574594976e-03 2.4861034348483465e-03 -4.1574798900769882e-04
512 -1.5339169507033166e-03 5.0897538619504743e-03 -3.3736882917568306e-03
514 3.7148735505463173e-03 6.0589572723747298e-03 -3.1739655766365765e-03
803 -1.2561666316927735e-02 -7.6331183442108989e-03 -2.8653916668680045e-03
807 -9.8160825403521357e-04 4.2163376317318228e-03 3.2358673901577142e-03
808 5.1117345788886746e-03 3.9574107269894069e-04 -5.3505816535334887e-03
809 -2.1377382515501580e-03 -3.6029326273872152e-03 1.9944185674943835e-03
812 2.1942339669246301e-03 -3.5597095236292666e-03 -3.2346278783729719e-03
813 5.0484000643318530e-03 2.1016235333060937e-03 7.3598812363524216e-04
815 6.9837951087202525e-03 -1.1969940860577573e-02 7.7654361933852511e-04
853 -1.4805896572820392e-03 -8.7718314883235352e-03 -1.4869966585406608e-03
854 -7.8499865738671133e-04 4.4913250148897578e-03 9.6661589349238217e-04
855 9.7490973467149206e-03 1.6682202559839994e-03 2.5630284558193508e-03
856 -1.3624915780599809e-03 3.3338237749986534e-03 2.4780981201867475e-03
857 -4.1026304458026399e-03 8.8162620748949566e-03 -4.2878836529086590e-04
858 -4.6959014096470139e-03 -5.8046850441819476e-03 -1.8912187398171961e-03
859 6.5134459634096165e-03 6.7672341378712869e-03 5.9548877881968418e-03
860 2.0317321609657959e-03 5.1955302368287583e-03 2.7785727192904981e-04
861 4.8725761329100848e-03 -2.9804143522246715e-03 8.3988226578181127e-03
862 4.0211042074371492e-03 -1.0385460534086335e-02 3.6027124097252336e-04
863 1.9828045530549730e-04 9.1882003262707583e-04 8.5014698211485565e-03
864 -3.3727246722644660e-03 2.3978744440980088e-04 6.7364118064774450e-03
865 6.1282933787653909e-04 -3.6297150848291731e-03 -2.8748479143696159e-03
866 -9.0706425782076692e-05 6.2535478389154492e-03 -3.8844220039016795e-03
869 6.5817267479914478e-04 -5.8025925962383942e-03 3.7736657894465730e-03
870 -3.5928696079663390e-03 -1.3603963604830974e-03 -2.2444230372387687e-03
871 -9.6640601451374545e-03 3.6030226054287423e-03 4.6280648329958396e-04
892 -1.0537744359623905e-03 -2.8172820053820801e-03 2.4937940352397917e-03
894 5.5513336684129954e-03 -2.8091831518486953e-03 -2.2878261788904890e-03
896 2.8187841343879179e-03 -4.1040645206580637e-03 1.1481942911324707e-02
899 1.7902648370087023e-03 -6.6799356137661140e-03 3.0055069233220380e-03
900 7.3854411252246305e-03 -2.0169905502955437e-03 -3.7638255705620578e-03
901 6.2119924565667735e-03 5.0918244025088821e-03 -5.0683566602023897e-03
902 4.2608302949902798e-03 7.3751200120264039e-03 5.6676219072590798e-03
903 7.3288702175545203e-04 5.5246157163762804e-03 3.5726093485272795e-03
1239 3.1860537172007449e-03 -2.2346545479846095e-03 5.3719792366747482e-03
1244 -1.5675951558677880e-03 -5.1226219014653129e-03 8.3023366614007454e-03
1278 1.8923321543502592e-03 -3.1346878128287866e-03 1.5882942082707779e-02
474 -6.6428027074666718e-03 1.6072797495196931e-03 6.1214901924131480e-04
498 -7.5410268475488542e-03 3.9418281907270345e-03 4.7240701197344085e-03
499 -9.2086369725569613e-03 -2.3926073064476448e-03 3.9812580893017254e-03
500 -7.7899259402711670e-03 3.0495719456694460e-03 -2.2270733392933989e-03
502 -2.2826191424511716e-03 2.2004735943280023e-03 3.8263600845619655e-03
503 5.7908132089189157e-03 -4.9951424921116207e-03 -4.5404680863176880e-03
505 6.1436681295661578e-03 -3.8579773041955002e-03 -2.5017794846526448e-03
506 -3.7048243789047355e-03 2.0992308367056097e-04 7.0533858178139942e-03
507 1.9554557669188691e-04 -4.0895702779547918e-03 4.8594623537380303e-03
508 4.3389300914843344e-03 -1.0819711779198775e-03 1.0241025977297911e-03
510 -6.5398720528256175e-03 -2.8636298975807046e-03 -5.3122619238443010e-03
513 -1.8243854912157102e-03 -5.1970152380935389e-03 -3.1071110246934956e-03
515 -4.2615967121596337e-03 2.9399547014996976e-03 -5.8056847676994693e-03
516 -4.0844845934119170e-03 5.9918608913387518e-03 1.3292756617986105e-03
518 7.8410720181386704e-03 -3.7656735199127645e-03 1.8296695948124577e-03
519 -1.8245617463220473e-03 4.8429881517802285e-03 -4.8108848950582190e-03
520 -6.7159130889551735e-03 2.0679922498934994e-03 -1.8976356872890819e-03
521 4.1879986154877043e-03 -6.3640429050973403e-04 2.7318443598485201e-03
522 6.6382851631725439e-03 -7.1123482920946654e-03 -1.1167982798067123e-03
849 3.4355399798198733e-03 -1.5256767727252485e-03 1.2917346712193120e-02
879 -2.6427586766041657e-03 -6.0325258051472279e-03 -2.4184919467479873e-03
883 2.7603377567266007e-04 -1.6642443043080311e-03 4.4657954568904593e-03
884 -2.1208200767567900e-03 1.4432495591368687e-03 -2.0740161160723611e-03
885 -4.8995716024760379e-03 -8.6001851917862538e-04 1.0272117331926675e-03
886 -3.4236275425217328e-04 3.0975357763071694e-03 1.7461585064085755e-03
887 2.2380644408748667e-03 -5.2787917295884570e-03 4.4965664933279493e-03
888 -1.9030605946968879e-03 -1.3353386530409820e-04 7.9219564728124549e-03
889 -1.8978685389769016e-03 -1.1272506417944831e-02 -3.1609499940521931e-03
890 2.2416521013147771e-03 4.1722850133980166e-03 1.0147205326590757e-02
891 -2.9832608196621673e-03 -2.4401984876298954e-03 -2.1736828359327368e-03
893 3.0791674377689555e-03 1.1049446144685579e-03 3.1253633740807429e-03
895 -9.0918919726359019e-03 3.0106247904149036e-03 3.8879949499259474e-03
904 5.0914024818954160e-03 7.4573913187393466e-04 4.6248151091054655e-04
905 3.4070232891385043e-03 4.2771551851612261e-03 -5.9006843217413113e-03
906 8.3660846324426648e-04 5.8031395477564814e-03 3.3610016702836617e-03
907 -3.9961744890748743e-03 7.1367362287002006e-03 3.3935506210512182e-03
908 3.1651888266417396e-03 6.2897590069888529e-03 -1.6141141057311342e-03
909 -6.2032788305358645e-03 -4.2479724481470516e-04 7.4351884379745036e-03
910 2.0010335493931605e-03 -3.4022628975105764e-03 9.5086862757280850e-04
913 4.0679429529298606e-03 -7.8017325420614311e-04 -6.5169281519461954e-04
914 1.9942970424169449e-03 -1.4473882598494290e-04 -4.8643821071963338e-03
915 -3.1462569419502922e-04 9.9928140380159420e-03 1.9276494405459036e-04
916 -1.0183311773590682e-02 6.4007456055033768e-03 1.1321773764158913e-03
917 -6.2103786705877077e-03 -1.3935403582537428e-04 -3.9730797322922113e-03
918 3.8253718090106100e-03 -7.2494327063261218e-03 3.6255598264380877e-03
1273 -3.2261892049736422e-03 -8.3494624206728006e-03 5.9655919964147963e-03
1296 1.9756391136957143e-03 1.8953268166254191e-03 3.9289341970652550e-03
321 9.0438457725167511e-04 8.5770794037178417e-03 7.1436412175317158e-03
322 -1.0666784042963607e-03 3.7569561219172472e-03 1.0372411778173315e-02
373 5.0309442690899611e-03 4.5441636406511922e-03 -1.0727908285443134e-03
621 -4.5075279975131553e-03 1.6798935471167107e-03 -8.2412747251663435e-03
623 5.7773898411941143e-03 4.2901749322303197e-03 -8.4622505877512597e-04
625 1.9991132872122373e-03 1.8510468047502700e-03 4.0315943411159474e-03
626 3.1727785166589875e-03 -2.9759897943149247e-03 -2.8150221137981887e-03
627 1.8440687582388442e-03 3.0323868424109528e-03 -2.4954385392033285e-04
671 -3.4455703689020589e-03 3.1558193519803136e-03 5.2922876783088385e-03
673 -1.2382750524583209e-03 -2.3901789786564872e-04 3.1941090702706271e-03
674 -6.4940397795458481e-03 -2.2545722709356114e-03 7.8168431904281858e-03
676 1.5541704214962057e-03 -1.1994365933707708e-02 -2.0004719356128253e-03
677 5.5518690485066571e-03 1.3305691113022825e-03 -1.3963105002186278e-03
678 -8.9312320258223095e-04 -1.9637956043167472e-03 3.7441166064948752e-03
679 8.2110773260620721e-04 2.3945027391464446e-04 7.7190081037683831e-03
681 4.2753712253087569e-03 7.6695195408346293e-03 3.9314184889205281e-03
682 4.3426417629683983e-04 4.9212752818585657e-04 -1.8371752087303888e-03
683 -7.0608863753556361e-03 -3.2293651168028505e-03 -4.3355694122775394e-03
684 -1.5172446981033883e-03 -5.5403072307979436e-03 -1.2086388389909776e-02
685 -8.7618107852074564e-03 -3.7960567373600015e-03 1.4504412295781102e-03
686 1.3670625385735534e-03 -2.0309846955057624e-03 1.0183436739532562e-03
687 1.9750178662881093e-03 2.3906773777510448e-03 6.4958326188980300e-03
688 -7.0119727505024605e-03 5.7714937564591852e-03 -4.6631431538981267e-03
689 -5.4056926415661250e-03 5.0872245996918626e-03 -4.9770799995886477e-03
691 -4.9145140050315978e-04 3.3433354098238170e-03 -5.7442654225960650e-03
692 6.6377923708181392e-06 -1.1705911404723119e-03 2.9110057564967172e-03
738 6.6494329183813912e-03 -1.1582206656678821e-03 5.9410411392636052e-03
739 -7.4702878466378761e-03 4.6709220273423195e-03 1.2698898250366334e-03
742 -5.8162550238343757e-03 -4.9306154032565282e-03 -5.6749749024225830e-03
743 3.9185200832440800e-03 4.4709729454381629e-04 -6.5817987697979754e-04
744 -1.4583497298818065e-03 3.5174430587189679e-03 5.0312543924537693e-04
745 6.8994411473407595e-03 3.1859205304282669e-03 8.6699193261257962e-04
746 -2.5718985737948402e-03 -2.6650725588796857e-03 -3.2643842065977506e-03
748 -2.0319472807387652e-03 -1.7410274240774622e-03 -3.5890078867106063e-06
749 -4.4062665127345031e-03 -1.6347523880429447e-03 -8.5518667980119360e-04
750 -5.3090285339051973e-03 -4.2400984534000079e-03 8.1499081992608702e-04
1006 -2.5845296619200799e-03 -6.3302265593841358e-03 9.7790343777006978e-04
1008 4.2314655118122092e-03 2.0586197413126730e-03 1.1544529782927001e-03
1009 -5.8252693637567913e-03 5.3070878562453527e-03 -4.6994409740649842e-04
1053 2.8885148167298335e-03 -1.0087572539667960e-03 1.0497885624178719e-03
1055 -3.9332259394372149e-03 -5.0785987516797368e-03 2.6806670191948127e-03
1056 1.0531953994855001e-02 7.3361068308114294e-03 -1.0470764830897308e-03
1057 6.6920146890245454e-04 -5.7207189459543943e-03 6.5874135486968270e-03
1058 8.8054518157354624e-03 -4.3789215666476975e-03 -2.5458041986193367e-03
1059 4.2426245086986591e-03 -6.8557389420545577e-03 7.8421871916573346e-03
1060 2.7505113593808048e-03 -1.9589590727695314e-03 5.4165941553202517e-03
1061 -7.6574718597404291e-04 -1.5035725325946746e-03 -1.5849887624372161e-03
1062 -1.5724410239963925e-03 2.5836457911566902e-04 1.0490141670921711e-03
1065 3.2304904127398067e-03 -5.5057123098059321e-03 -4.2920930041253948e-03
1066 -8.3783303800558919e-04 2.6024353132920496e-03 -1.1919762501366895e-02
1067 -7.1205539601545556e-03 -1.2045842497927733e-02 -6.7775831628476041e-04
1068 2.6275901475568205e-03 -6.0525219096255380e-03 -1.5180558854994270e-03
1069 -1.5318673954720031e-03 3.8862204724961430e-03 1.1315125606399612e-02
1114 2.7147672464040729e-04 -4.1731930094111302e-03 3.6086583188844690e-03
1116 4.0822976825834268e-03 5.8495357439727258e-03 -3.4714578518825106e-03
1117 -2.3223079391675523e-03 -9.5757941101283182e-03 1.4672160946984560e-03
1121 -1.5981400830905926e-03 1.3543185634490769e-03 -1.3313127835737329e-03
1122 8.2820178994266799e-03 -1.6691937769194422e-03 -5.9548775016273967e-03
1123 1.6108692830924130e-03 5.1884367041773677e-03 3.5000693737215673e-03
1124 -6.0411140955097557e-03 3.4465356376505605e-03 -8.9412899281579984e-04
1125 -6.8859500912425049e-03 2.5225280563230621e-03 -4.1834956859712787e-03
1126 5.8648285165934415e-03 1.9124856313532295e-03 4.6375541368320304e-03
1130 -3.4905180905479565e-03 4.2517312021417295e-03 3.4177081986419486e-03
372 1.7065928699926279e-03 -5.1991143823857727e-03 7.6955395667699703e-04
426 1.3786396660511978e-03 9.0586960445589136e-03 6.0201659789648867e-03
427 -8.4644211239818645e-03 -2.9471944889699038e-03 -7.8114561120074255e-03
727 -2.6689797803339444e-04 5.2671194145094092e-03 -2.4505868952251980e-03
729 5.8490322261594164e-03 -1.1991010767621252e-04 -4.6776669764930787e-03
730 2.6379675705355435e-03 -2.2118829936128041e-03 -1.7403810126447657e-04
732 -4.7254808559493138e-03 -3.0224284232411016e-03 -1.5525231357378484e-03
733 -5.7016275363757380e-03 -4.8960071667330032e-03 2.1053423110344339e-03
734 -1.4117732740152674e-03 -3.8279844838942389e-03 8.0094600508432076e-03
735 -5.6532870266897744e-03 3.8560126473284879e-03 -1.3655979686289547e-03
737 -1.7398220251524594e-03 -8.1138823916552683e-03 -2.0041330064438324e-03
740 -7.3054347900961200e-03 -1.1268799547167191e-02 -4.7529958645776277e-03
741 -3.7615415077985911e-03 4.1506789915018560e-03 -7.6067871029444241e-03
786 -1.7838715096871150e-03 -2.9908220312198776e-03 4.3529784617522124e-03
788 -4.7825370921836226e-03 1.1771130601058982e-02 3.2721797783764471e-03
790 -2.1465536675515824e-03 -7.1807814891731438e-04 -5.7726647978492930e-03
793 -2.3062917835056833e-03 -3.5354570864011255e-03 -3.8130670925898614e-03
794 4.2316067104465910e-03 -6.3093688816781811e-03 8.4531374340866166e-04
795 -7.3902830533141483e-03 -9.5235716203251816e-03 4.3380645920657584e-03
796 7.5436699070328666e-03 -6.0854502404713295e-03 2.4322430156496484e-03
797 -3.7843210593604677e-03 1.1478337915302901e-02 -3.4539722585277531e-03
798 -4.8703121303291994e-04 -2.6483424245361208e-03 -7.8567376047203492e-03
799 -5.4708436217729755e-03 -3.8823530128863247e-03 -2.7478074963993415e-03
800 4.0779207768082432e-03 -8.3498174125686032e-03 -1.5825713629157424e-03
801 3.8333452775637846e-03 -3.5850531055125648e-03 -9.7622123709499818e-03
802 -3.6557878371099271e-03 -1.2993613682838136e-03 -1.0625880164188372e-03
804 4.1411175688364724e-03 -2.2626142592646796e-03 -7.4473185135031346e-03
805 3.0560347998592682e-03 3.8932949246983178e-03 4.8111240159277624e-04
806 3.0570317087510448e-03 -5.5503182908629007e-04 6.4202703534481861e-03
848 1.6901272156509320e-03 -8.5358856995086992e-03 2.1728845531239567e-03
850 -4.1004907949787235e-03 5.1865976896503701e-03 1.5179656781401867e-02
852 -5.1047237324516360e-03 5.5819746237803477e-03 -3.9427050173227608e-03
1109 -6.0805172236909136e-03 -6.0609570389470731e-05 2.0793485964615329e-03
1111 4.6593477201522541e-03 -6.0085743470826049e-04 -2.9639809632735119e-03
1112 9.7229583489579011e-03 9.2562553911432009e-03 -7.3985844940613289e-03
1113 3.8531727856547259e-03 4.8124164117051014e-03 -6.2661943190038961e-04
1115 1.1773805461526190e-03 4.1080917660261425e-04 3.8961717340765980e-03
1118 4.5285436712320217e-03 -6.3677865298054021e-03 7.5548170423034742e-03
1165 -2.4571160948157187e-03 -2.4444145344085372e-03 3.8251890648067677e-03
1168 1.2439109374552419e-02 -1.7553065184241273e-03 2.2963158899641733e-03
1170 -7.6236274659027712e-03 -7.4349563728488234e-03 1.4422699756034671e-03
1171 -2.8281284200428673e-03 -1.2144139574966943e-03 -9.9407901549709550e-04
1172 7.8338671210987320e-04 6.3957371828589713e-03 3.0375504212388806e-03
1173 3.3795814564461673e-03 8.4587521392116213e-03 -2.5934853515456840e-03
1174 1.0486696043352867e-02 -6.3136138541076484e-03 4.8033554079772939e-03
1177 -3.6983500901684223e-04 -2.4675198470287410e-03 3.8002799947422913e-03
1178 6.6075608161674350e-03 2.8828420575840686e-03 1.0181662974427290e-02
1179 -5.6969897979760025e-03 -5.5086988084812032e-03 1.6455119166399021e-03
1180 1.5745757553641687e-03 6.6080347006996923e-03 5.1860896170921112e-04
1181 -7.1288630672289265e-03 -4.8438635284709600e-03 -1.8503672825697023e-03
1182 5.0790798586068759e-03 3.0786658765680937e-03 5.9746394288082523e-03
1186 -5.5520221825980367e-03 -2.7806853488177873e-03 -7.6046829836421640e-04
1230 -3.5986523763219314e-03 2.5268539474974194e-03 -2.9569368581898545e-03
1232 7.7481973422965211e-03 -2.6054201139242678e-03 -6.5809484762862133e-03
1236 7.7176213196251770e-03 2.5973435379437532e-04 6.8013194133270611e-03
466 -1.0712609178699629e-03 -5.4789907289827045e-03 -5.3484093616264802e-04
467 8.3303649157678904e-04 -3.1232842279655375e-03 -1.0044253626969661e-02
492 7.5722272000228706e-03 -1.2191439971246252e-02 -1.0354059776418246e-03
783 -1.9233551731384615e-03 -3.0046437584800262e-03 1.0096834862375936e-04
785 -6.3325126700304914e-03 2.3110760449489044e-03 6.9140575467614178e-03
789 -8.1936120263788152e-03 8.5312248489378983e-04 -1.0331178414858193e-02
791 -2.9804559662990025e-03 -5.2229953229533243e-04 -1.0864905427372500e-02
831 3.1174224484504062e-04 4.7068234610669335e-03 3.8405576819405384e-03
832 -4.0808962173934354e-03 9.4990917292868855e-03 4.0845981579131175e-03
834 -1.1389138872864657e-03 1.6335565444137166e-03 -5.4506346861768265e-03
835 1.4077828440093431e-03 -8.5576043847024191e-03 -2.2924671922503388e-03
836 -9.4940043208207583e-04 -6.4893542691460372e-03 -1.8948525008057955e-03
837 1.2312325555264767e-02 2.2027186184316438e-03 2.5061090391464958e-03
839 7.0191141169808997e-03 -1.1479552174285231e-02 -8.0226603258632592e-03
840 -4.2250037382726867e-03 3.4527086473176019e-03 3.1735037256425155e-03
841 -7.2307037173331449e-03 2.9855058786831209e-03 1.4075585426686450e-03
842 1.1778322909227735e-03 -1.0640388005862473e-03 -2.8016929093948309e-03
843 -4.6012021204818766e-03 5.3521852975645301e-03 -1.2436270285891811e-04
844 -1.3895244610796872e-02 1.1762604105562812e-03 -6.9494678124496032e-03
845 -2.4281169874943692e-04 -9.1440582872729537e-03 9.5558397687965022e-03
846 7.4175923884192939e-03 1.6690758699604825e-03 6.9155008757658129e-03
847 2.6662319898274099e-03 -2.2012958225313163e-03 -2.4241284912241250e-03
851 9.8265383471127970e-04 -4.9155203231015529e-03 -4.2338231444072980e-03
874 -7.4092403768877084e-04 2.4762529373362143e-03 -2.7523365178761796e-03
875 -3.9374449749005431e-03 -4.8544581434632429e-03 -2.2581852804487864e-03
876 -1.2955203067809497e-03 2.3111266402384297e-03 8.4974677498967765e-04
877 1.1727180488823579e-02 -1.1952111802242301e-03 -3.1424466742762396e-03
878 -6.4250444929650876e-03 -5.4383600400021931e-03 1.7686102627984398e-03
880 -8.1797320576563332e-03 2.0968756965394171e-04 -1.6218140342360299e-03
881 -5.4756898880383110e-03 4.5376390473767705e-03 -5.7625803167333026e-03
882 5.3919889719484040e-03 -2.2492065817959592e-03 5.5591887083017285e-03
1167 -7.0050813030523895e-05 -3.7413104923470978e-03 2.5225584101244113e-03
1169 -2.8038718166783117e-03 2.5070175720349561e-03 2.0071864437320916e-03
1215 4.4160858037124440e-03 2.2615147147789167e-03 4.7065286783296925e-03
1217 1.7355350795295672e-03 3.4831736582672901e-03 4.3954753910247935e-03
1218 6.9010436682491018e-03 -9.4040662175051068e-03 2.1490974707650250e-03
1219 3.2438828638145689e-03 -9.5710780692432745e-03 -5.8049341155410163e-03
1220 -9.6231947877732527e-03 -2.4957330331327582e-03 5.7433832496441694e-03
1221 1.1233478446637704e-02 6.3981510477494393e-03 9.6762323512843886e-03
1222 -5.0141439896195640e-04 -1.9255231110731335e-03 1.1242447508338534e-04
1223 -1.1286170346422956e-02 1.5045189506388780e-03 4.0838607132755445e-03
1224 3.7011682441687320e-03 4.7472582945883640e-03 6.7135476033786884e-03
1227 -2.8214590711315617e-03 -5.0368382142380519e-03 9.8331525347273782e-03
1228 -1.5710465752802624e-03 -2.6462646801574891e-03 1.0298666543321792e-02
1229 -4.9539692111219271e-03 4.7315137171208528e-03 3.5693404419643638e-03
1231 -2.4670249120046757e-03 -7.4865749405295839e-04 5.5327636287159851e-03
1260 2.3420094509342257e-03 6.6022575671131969e-03 6.9133605908184058e-03
1262 5.0104078051301203e-03 -5.9252835423702155e-03 8.3799225701928267e-03
1263 -4.9400958763793417e-03 -4.0896805466154613e-03 -3.3474185095500797e-03
1264 1.0358755720613043e-03 -3.6827726464120445e-03 -1.4764737511117513e-02
1265 -4.6376895972967602e-03 -8.3492848406972273e-03 9.1637598568080139e-03
1266 -6.7709146091621420e-03 -4.2554784530284126e-03 2.4089559410157687e-03
1270 6.3858195904617551e-03 -1.0552753576678734e-02 2.8906496713132415e-03
576 1.9117344324195999e-03 -4.3792160586286124e-03 3.9358010416298255e-03
611 -4.1370339519962562e-03 1.5349632225987919e-03 3.5719034172844218e-03
612 -9.0840651119906968e-03 -3.1641379520573705e-03 3.8753465925132802e-03
619 1.4350128368396965e-03 -1.2865411704393535e-02 1.9660621935167983e-03
620 1.8157860547518066e-03 -3.7691294772291923e-03 4.8893848036281962e-03
670 1.8895449397877517e-03 6.3839066439332079e-03 3.4590353809529364e-03
957 3.1154736379298701e-03 -4.2332698491967221e-03 3.0440292985958579e-03
959 1.3910133915984028e-03 -1.5524229092419234e-03 7.7583209755117261e-04
960 -4.7907438742399644e-03 -6.3276186022613815e-03 -5.0575664880864657e-04
961 -3.1915154790117381e-03 -1.6322697860117735e-03 -7.1126328775319306e-03
962 -1.4819322013728112e-02 -1.6664662391994442e-03 -6.9609046522851620e-04
963 2.5719787407593286e-04 2.4288461931563469e-03 -1.3751526567645112e-03
989 -9.7264636413439427e-03 4.4861591776204400e-03 -3.4580348076863362e-03
990 5.7336694162215683e-04 -1.2253184978528262e-03 3.7334184093049841e-03
991 -7.0705904098835480e-03 -9.4088065064028004e-03 -2.1874421344338768e-04
992 -5.5610131500340278e-03 7.3570500915484836e-03 -1.9705911645912888e-03
993 1.8837267434544528e-03 -7.0278213347597885e-03 4.2143005082307256e-03
994 5.9058526411828408e-03 -8.8068005333304753e-03 -2.3222504701958112e-03
995 -2.4374027332983543e-03 -4.5441143040773476e-03 5.8221157558207355e-04
996 8.6552605218528766e-03 2.1680272502070212e-03 -3.9607259412198278e-03
997 -1.0152273081187053e-03 -1.6526207094401371e-03 -2.0211476688395094e-03
998 8.9728771780947878e-03 -4.9956364895389939e-03 3.7773453119600646e-03
999 5.5900168470576165e-03 -7.9282266926503329e-03 5.2592164639903285e-03
1000 -6.1179195804805910e-03 -2.6000188236718928e-03 -6.7306445150450327e-03
1001 3.8266899368845650e-03 -3.1152672965971541e-03 -1.4880725648330924e-03
1002 -2.1930769863953660e-04 -1.0185993272806799e-02 5.1588031956631229e-03
1003 -1.5269992018442848e-03 2.8804845029933319e-03 -7.1149162043122379e-03
1004 -3.6324766026965345e-03 -1.9746536795495454e-03 -1.8289269890921122e-04
1005 -7.0636753049633499e-03 7.0567240709856795e-03 -3.3440822081240444e-03
1007 -1.2160278163082703e-03 2.0084405379347612e-03 4.2058344110047219e-03
1044 -1.4519775966687453e-04 -7.4935725582016633e-03 -4.6443386111639420e-03
1046 1.0249793810230914e-03 5.9940952240775678e-03 3.8810451729008139e-05
1048 -1.2501177456280613e-02 6.9226595400221540e-04 3.1014961576795769e-04
1049 5.8661788922309685e-03 1.9730072726609200e-03 3.5100283655255192e-03
1050 -5.9008150077446402e-03 -4.6571324207338683e-03 -2.4387334014500726e-03
1051 1.2390403604863541e-02 -4.7609826777423193e-03 8.2969474231174168e-03
1052 2.3381827679498086e-03 1.6913083155025395e-04 5.2426636267646487e-03
1054 3.8175072022941193e-03 -5.2141474833279720e-03 -3.5873074343009295e-03
1343 -1.8692438544402265e-03 -2.9008193363606266e-03 -2.1225430896976437e-04
1346 5.3813040787316826e-03 -3.1322053860101688e-04 2.7026106280022993e-03
1368 5.0523551947576515e-03 -1.4430576747130257e-03 -1.4743856230518861e-03
1372 -3.7294629550159494e-03 -6.4768472669541352e-04 -5.1529057108723195e-03
1373 3.2022708045282805e-03 5.9178410030621742e-05 -1.0434726136160338e-03
1374 -1.7773092258258467e-03 -4.4631382275614499e-03 -4.7227112311379023e-03
1375 1.0857393641472619e-03 9.4029251951410313e-03 5.5135899187408969e-03
1376 -3.7323468813331884e-03 3.9711411771665766e-03 -1.2377692526674380e-02
1377 -3.6767749568010824e-04 1.3185139715627475e-03 1.8390936381924284e-03
1381 5.6912733534246153e-03 6.9448875947429546e-04 -2.7953288373020854e-03
1383 -1.3673854830565410e-03 -3.7739430230671871e-03 -1.5323907482146586e-03
1415 2.3640312576313142e-03 -5.3396167567553398e-04 3.6566630956770458e-03
1417 8.9819942314580726e-04 5.0941134406436031e-03 7.9174761310713552e-05
1421 -1.8415566513940195e-03 3.8555612658227345e-03 -1.0052578592252249e-03
1424 -1.2110430390972845e-02 -6.3531169733477989e-03 -7.0834450832176054e-03
1429 -8.8543272259914291e-03 3.5974491363585967e-03 -5.7933018056429792e-03
1483 3.4824505333060177e-05 2.6496655861547604e-03 -4.0824223225253949e-03
661 4.4053881256992666e-03 5.6194445472901484e-03 8.5743055343873989e-04
662 -8.7788738111958407e-04 1.7878653352199373e-03 5.3815047871833945e-03
669 -5.9489114922200027e-04 5.4658341017363174e-03 1.2959504631792506e-02
718 -1.1606044242780769e-02 -4.8126927310673442e-03 7.8808339073997286e-03
725 1.2414178069176975e-03 -4.1507311398907808e-03 1.2379257918703885e-03
726 9.9951257713049042e-03 -2.8489250281340315e-03 1.3264068858366585e-02
987 -3.7943613871939930e-03 7.4740213945844606e-03 -1.6583153118922079e-03
1033 7.9203640170497289e-03 1.5138395210161869e-03 6.5106395855508165e-03
1035 4.5474611072608626e-03 3.2810468310463538e-03 -6.4451267730458684e-03
1036 2.2679847053058001e-03 1.8434909358593205e-03 4.4379278258650122e-03
1037 1.0279065773337831e-03 -3.2557707563487200e-03 3.7341718271211499e-03
1038 1.5965317072954245e-03 -3.4858014007034810e-03 -3.1615233809130288e-03
1039 -7.1957024294700220e-03 -7.2143526660887840e-04 4.6456449737191556e-03
1040 -6.3460763200869096e-04 -1.3285676827469672e-02 4.5111146129620857e-03
1041 7.3252223417574168e-03 3.1124809598088465e-03 8.8375634505912515e-03
1042 -9.0679709128660465e-03 7.1680922095222512e-03 2.3411071199358649e-03
1043 -1.5577492129837877e-03 4.4164604475479818e-03 5.0745124129470088e-03
1045 -6.2161760641262507e-03 3.9784517487173149e-04 -8.1695521557247630e-03
1047 8.2078990087284826e-04 2.1423092891468343e-03 8.5909013276824747e-03
1092 -3.5152042595199164e-04 -2.3881596613833994e-03 -9.5848615597941746e-04
1094 4.2260330713089819e-03 -3.8270387696953145e-03 1.4866895383310120e-03
1096 -4.9358058383678757e-03 -2.5167197747287548e-03 -5.9266417601092592e-03
1097 4.4170327026332896e-03 4.8282996520506447e-03 3.7526711061597281e-03
1098 1.1672335898617494e-02 4.1925504664693035e-04 -9.5684709862217676e-04
1099 -5.0506819229713968e-03 1.9994618377259269e-03 -1.7257504595026318e-03
1100 7.0985773256549139e-04 -7.5072318361840218e-04 1.7703749345517859e-03
1101 -8.3879226270249622e-03 -5.4217060790732216e-04 4.1897751683824319e-03
1102 5.8103226722156756e-04 -5.8707761161013033e-03 1.1528725115689269e-03
1103 -1.3217378681479360e-03 -1.5682638595665109e-03 -4.9911305780235755e-04
1104 -4.8526396811733310e-03 -9.3960225396402106e-05 1.0420116363986456e-02
1105 -2.7681438842941750e-03 2.8842665519017434e-03 1.5489417803101104e-03
1106 2.5521770542475423e-03 -3.2894942459507272e-03 -1.0554667401744152e-03
1107 6.1712263706359301e-03 -8.4590876167195297e-04 4.1043827820823071e-03
1108 1.1238400310951531e-02 2.9570528228727950e-03 7.6013807936342890e-03
1110 2.0856098057778116e-03 -8.0667409813881333e-03 3.7081874566937978e-04
1162 6.2635241597858854e-03 6.9930995402367434e-03 -1.0274342523555028e-02
1164 -5.7415606100572648e-03 -1.2450336262177742e-02 4.2877533306206785e-03
1166 3.6180628894681550e-03 -3.0587586121418545e-03 7.6160793084879812e-03
1408 2.2750700944157874e-03 -3.5723271954598355e-03 5.4861583349828406e-03
1412 3.9578767231515195e-03 -2.0056927402140180e-03 1.4112065452435887e-03
1413 -3.5965483796224153e-03 1.8487486016999252e-03 3.8615657870005289e-03
1414 7.2902045219223029e-03 4.6184026028228053e-03 4.3193744073842678e-03
1416 7.7357935000696675e-03 1.9299091667468393e-03 5.2132666804862657e-03
1466 -1.0596287589657596e-03 -5.1980851159453608e-03 -1.7514327123350131e-03
1467 2.5773868628230852e-04 5.8439392883910517e-03 2.7986800641650305e-03
1468 -3.0815683128539964e-03 5.6786148242305538e-03 -1.4916285305967741e-04
1469 3.3243595050455070e-03 -5.2966258337675326e-03 3.7764076885151575e-03
1470 2.1451421992342641e-03 6.2794682109734374e-03 2.8969023481219616e-03
1471 -1.4131344975346659e-03 -1.3191542885861789e-03 2.7659046765675382e-05
1475 1.0974858250977905e-03 -3.5681937006558618e-03 1.1448725961361752e-02
1478 5.6252502141068226e-03 -8.6267981163996831e-03 -2.8850425877370491e-04
1531 2.5759012356127721e-03 -1.9899535665214713e-03 4.9148049621111798e-03
1534 5.2370010320863813e-04 -2.4651628227117645e-03 3.4976493984712090e-03
1539 -2.6237504670242966e-03 -1.1044897741335260e-02 -1.2453951595372270e-03
717 -5.7949777648387277e-03 -6.6662944891056689e-03 5.6836031869336766e-03
773 -4.2076664011283732e-03 7.6647478366658156e-04 5.9084053876228629e-03
774 -4.6332592021171822e-03 -3.3901376065184710e-03 5.3891173672186384e-04
781 9.0703962625413958e-04 -6.9088837465286690e-03 -8.9197136666741440e-04
782 6.2923635045675046e-03 -6.9155021069450965e-03 -8.1359381906100751e-03
829 5.6853006698329607e-03 -2.4183474579170467e-03 -5.9965361640177577e-04
1089 -1.5148856387067146e-03 5.1258046445853652e-04 1.4189598953974500e-03
1091 -2.4766944650330609e-03 4.5581529058348804e-03 -4.6471725360931497e-03
1093 -7.7839921319050129e-05 -4.7142482359546489e-03 3.3983872072860881e-03
1095 5.5411074985504006e-03 4.0535061091608003e-03 6.9020299347710822e-03
1147 -3.3518411048762763e-05 -1.3960390331710277e-02 -1.6782014011831883e-03
1148 -1.4838897009385936e-03 5.2191718119403300e-03 5.5937489522979150e-03
1149 -7.6385962413921416e-03 6.1307043261225238e-03 3.3009289861260244e-03
1150 9.2704140116408821e-03 3.2485816227622016e-05 1.7746681034839387e-03
1151 7.2313788989946627e-03 9.5791351611077234e-03 3.0430396820164642e-04
1152 5.7713308904341638e-03 -2.1500608663688895e-03 -2.6853067675144315e-03
1153 -3.4099777914029161e-03 -7.6442545206905840e-03 2.4862113155501931e-03
1154 5.2108743415761639e-03 -2.1519070748371597e-03 -2.9133486507681152e-03
1155 2.4190138412788329e-03 2.9196843922151043e-04 1.1208419515602268e-02
1156 -3.0300320912127476e-03 7.5204409983056384e-03 2.6531926125710459e-03
1157 7.9805313528810984e-03 8.1796269363035058e-03 -4.6055824174037214e-03
1158 -2.7915103708263341e-03 -1.9063302490293768e-04 6.6814986709116059e-03
1159 5.3087441172424499e-03 7.0387438829720636e-03 3.2420221037653091e-03
1160 -4.1813865947507708e-03 -9.4629935251138982e-04 -7.7672730740870029e-03
1161 -1.1163088692038054e-03 -2.7697449396426937e-03 7.5361292818536142e-03
1163 -2.0200123633677767e-04 -8.0549147961621482e-03 -3.5349731526193718e-03
1210 -8.2685884591881600e-03 -9.6889261984733574e-04 -4.6540041046519453e-04
1211 1.5132239309999534e-05 5.8379665668710111e-03 7.5542439366203876e-03
1212 -7.8897955648634319e-03 -1.4392393221244874e-03 3.1946708364079691e-03
1213 -3.6787933704112113e-03 2.9510764710818822e-03 6.7386023402288752e-04
1214 -4.4691294624759521e-03 1.1536064808078514e-02 -3.5857368905393423e-03
1216 -3.3417738683802775e-03 3.6825390644232678e-03 -4.2741139366942675e-04
1462 -5.0444698817947069e-03 2.8230738858464797e-03 3.9931175016108978e-03
1518 8.1425933558527223e-03 -3.7358620769344835e-03 8.5378833278023925e-03
1522 1.6162712126960015e-03 -5.8063545373723683e-04 1.0659100337268572e-03
1523 3.2662371112521260e-03 -2.6893324072773382e-03 -7.5344525873493890e-04
1524 -4.2552960148879897e-03 1.6374553002732877e-03 3.7351583136771989e-03
1525 -7.1038029148164366e-04 1.0612296832324595e-02 -1.2675042490232612e-02
1526 3.4051545940555704e-03 -2.4157213250981789e-03 -2.2274204447791236e-03
1527 -5.3438703720051306e-04 -3.4310325081803534e-03 6.2098597119683175e-03
1582 1.6319310373472200e-03 2.8210327193443274e-03 1.5257166230956355e-03
1584 -1.5472005723317249e-03 -9.6002211422852972e-03 -1.3456586453903668e-03
1587 -2.4880319699765812e-03 -1.2922951334961670e-02 6.9442566039388809e-03
1592 -2.0813086127354384e-03 -3.4133847244406804e-03 -2.0995905907985495e-03
925 -6.5485669651928567e-03 -7.2578495980943633e-03 -5.6486418929089686e-04
926 -6.2187304133315292e-03 -9.6349628295580390e-03 -4.5492366092849141e-03
932 9.4647596547259450e-03 -1.9275156172395727e-03 6.3147339076543192e-03
933 -2.0116936647089148e-03 -2.3675942015131037e-03 -6.1224867682064168e-03
940 -4.4628596537732747e-03 1.2935725693577413e-03 -5.2191045283315248e-03
947 3.3785661644384767e-03 1.4875573927347365e-03 -3.0005271069567241e-03
948 -2.8390319973387889e-03 -3.7995026161138758e-03 3.6609539732542534e-03
949 -3.9422869500331534e-03 6.5872664877151309e-03 -2.5488603047016680e-03
951 -5.9681496530651266e-04 -2.8322304237828554e-03 2.0438091064073479e-03
952 -3.3459867708273594e-03 5.3387854993680031e-03 -3.9807686982489725e-03
954 4.9440222728269782e-03 2.3121278526018294e-05 7.9730155551456065e-03
955 -1.4079586300340407e-03 4.0417342795957762e-03 8.9279754290532108e-03
956 -9.4984856524903659e-04 5.1147345267935082e-03 8.8104465750593816e-03
982 -6.3123583606194576e-03 -2.4823914570935813e-03 4.6159527535722883e-03
984 -4.3328143247891400e-03 -2.8445486400950604e-03 -3.2366984556358226e-03
986 4.4152181228947146e-03 4.2959516559629976e-03 4.1930518691450109e-03
1315 4.8511449897085512e-04 -4.7204388277396090e-03 -1.5096632575879263e-03
1316 6.3061885222228369e-03 -3.9857189078669961e-03 -4.4590372594228538e-03
1317 5.3686524082846771e-04 1.5708706243038955e-03 1.0109201226683174e-02
1318 -1.3751141704675333e-03 -7.7592697875812798e-03 -1.6974506306333644e-03
1319 -4.6569096722511539e-03 2.1360707791521099e-03 -6.9818253752321488e-03
1320 -3.8584430030296803e-03 -4.5634173040283617e-03 -3.2236834726200132e-03
1321 -1.1681274412081518e-03 2.1358088975136371e-03 5.2551172834154241e-03
1322 -2.2701799766426810e-03 5.3499422115309255e-03 8.3557320416717713e-03
1325 -9.6254773039139072e-04 -4.2054700322051225e-03 4.3186474026189791e-03
1326 -9.1969359921063813e-03 -2.3908098324182591e-03 -1.7139650579630474e-03
1327 9.2012877241879633e-04 1.1896420920312078e-04 4.2844918079829354e-03
1328 1.8704863470126909e-03 1.0868636519259238e-03 1.5193257391349661e-03
1329 -6.1949439726286133e-04 -1.3662099502559119e-03 6.2856542271968827e-03
1330 2.0371107737352559e-03 -4.7405881746550712e-03 -2.3728942825595963e-03
1331 1.9492261846922092e-04 -4.3368740261272142e-03 -3.8244893073789009e-03
1332 5.8766124665127015e-03 1.6189105463777463e-03 8.9783090407580116e-04
1333 -1.1917582494221375e-03 -3.6466925420876638e-03 -8.0889645493625265e-03
1334 -1.6878757028649493e-03 6.3466683146591197e-03 7.2094613336322324e-03
1335 -3.2212720561964996e-03 -2.1717093956478794e-03 2.1409174757786656e-03
1336 2.7825613964669741e-03 2.5907057966816256e-03 3.5527528775520442e-03
1337 -1.5685756387508081e-03 -9.3822235861793415e-03 6.6333608264560464e-03
1338 -5.1304764686878586e-03 -5.3721485062918168e-03 7.0070397977963911e-03
1339 -4.2357908338531546e-03 1.1399636505062857e-03 3.3350382445422122e-04
1340 -1.3273258552423037e-03 -6.3829791658614231e-03 -2.3855752606905100e-03
1341 -1.6347221913368417e-03 1.4851190745039011e-03 5.3517850819129855e-03
1342 3.2777231807950996e-03 -3.1116470223872331e-03 -6.8158507343635535e-03
1344 -2.3700941697663990e-03 3.1456271693610111e-03 -5.6705595727295846e-03
1357 6.4714484769676757e-05 1.8676471101606467e-03 -1.5673962022471279e-03
1359 -2.4685898018961851e-03 6.3938378156596157e-03 -7.7563543392734577e-04
1360 4.3926321546213440e-03 -1.2540257155201041e-03 -3.1130960554572848e-04
1361 7.6399754032457510e-04 3.0155067292907478e-03 6.2800610535881426e-03
1363 -4.4816214585779275e-04 -5.0592187911060607e-03 -1.3392864048753506e-02
1365 -3.9794520131963487e-04 4.2452681472553285e-04 -1.6039767686018397e-03
1366 3.1500565366381905e-03 3.0833487148022132e-03 1.8518027086208068e-03
1367 4.5033245029809654e-03 -1.2336257302887049e-03 -2.0346580651249410e-03
1369 5.5934028705016490e-03 5.1380458527641630e-03 4.4016354225000567e-03
1702 -1.5856131536019420e-03 3.8490296793724662e-03 2.7739272855225581e-03
1705 1.7501429981291649e-03 -5.0401090138551515e-03 -3.8536530519097043e-03
1709 -1.2428107546747734e-03 -6.2086189252144716e-04 1.3536570202328183e-03
1712 4.9693316533454034e-03 2.5897812423404578e-04 3.0437028336589770e-03
1717 -5.1912508046799977e-03 -7.6259317465214417e-03 5.8955000291327920e-04
1727 1.2283332732928704e-03 -2.3083502948498596e-03 3.1966774346375050e-03
1730 1.5240310189005666e-03 -7.5143256938914294e-04 -5.1535239036456125e-03
1735 -1.1824364642627247e-03 7.5386016519889704e-03 3.2897726935155592e-05
939 -5.9319589956230547e-03 3.9401599785728620e-03 -1.6583775880008023e-03
969 8.4905799626850218e-03 -3.9010065294308073e-04 9.0256652205822404e-03
970 4.9619701663523325e-03 5.2496357261473479e-03 -4.4959410016856159e-03
977 -4.5169298337267730e-04 1.2540341274804592e-02 2.2046927745793415e-03
978 4.8682787716466738e-03 -4.6353290063805208e-03 2.4905172622967102e-03
979 2.4034340954885878e-03 8.3738539472290891e-03 2.5662340975338813e-03
981 3.1347165730760762e-03 4.8353752797864556e-03 6.0211968468267332e-03
985 5.7084462222256882e-03 -3.6229787307176758e-04 7.9757196223891984e-03
1024 -8.7035961520757175e-03 3.1533625738699414e-03 -4.7294853108673937e-03
1025 8.0901846775507187e-04 8.9897139520111451e-03 1.3999290791696102e-03
1027 -2.9456119251539659e-03 -7.5126017102962340e-03 1.5478962675491989e-03
1028 -6.1717988189846622e-03 4.8276357670366601e-03 1.2659208600682122e-03
1030 -7.5637451051659848e-04 4.2822001285313169e-04 -2.5107046752747175e-03
1031 9.4277473130133975e-04 3.1736095387121044e-03 3.1420480563349568e-03
1032 -2.0275968394465270e-03 -6.8346226465732256e-04 -7.8226125748735529e-03
1323 7.9873837017352348e-03 3.2742472560217065e-03 -3.8559963744452331e-03
1324 4.6406384459646210e-03 8.2034373825754930e-03 1.3124987046477779e-03
1347 8.4548706134731817e-03 -5.9309897526163358e-03 -7.1199677550004550e-03
1348 -1.4903751682827579e-04 -6.1748445014794297e-04 -5.6995256980903282e-03
1349 -5.3433830111399602e-04 -2.7481953034500721e-04 -3.3782873308945173e-03
1350 -5.7788552772728577e-03 5.1491443709115728e-03 8.4092042367710802e-03
1351 5.2183084580990037e-03 2.4304598904509706e-03 8.8840605941906420e-03
1352 -7.9154157632972972e-03 -3.9673679739767341e-04 6.4148478881827665e-03
1353 5.7768838928018438e-03 -5.2219541936238145e-04 4.9858078760845739e-03
1354 4.2652146429651644e-03 4.3010880529829477e-03 -5.8678458641729095e-03
1355 3.2513274836361776e-03 2.8778849813429559e-03 -3.3947370519332920e-03
1356 -1.3670930821450353e-03 -3.7088641142096312e-04 -1.8271517935362386e-03
1358 -1.0586331800080356e-03 5.1172612121183712e-03 -1.1257081726457276e-03
1362 3.4213924776992132e-03 5.0677254341253784e-03 -8.9542193258574619e-03
1364 5.2240139500503184e-03 -1.0649160282121264e-03 2.1530499969187452e-03
1391 1.8463280025088733e-03 -2.2961964025314924e-03 7.0905665781846778e-04
1392 -2.5148498635126890e-04 1.2470575422849971e-03 3.7078013795108582e-03
1395 -5.3196735819180619e-03 3.6365837653920120e-03 -2.7623852467596739e-03
1396 -4.1655705784612827e-03 1.1274393289277096e-02 1.7025022669190468e-03
1397 -4.5149489936290510e-03 -1.4833573145719052e-03 -2.4232491349095932e-03
1398 -1.5469109687155217e-03 1.1026917599871252e-02 -3.0666144146620482e-03
1399 -1.1134031836839624e-03 8.2570133140210146e-03 -1.3355528068485121e-03
1400 2.9458138403687128e-03 -4.7209841169209583e-03 -9.6656913684558016e-05
1401 2.2803660933424460e-03 -2.4879107783222680e-03 7.3605330378114482e-03
1402 -7.4008735275639340e-03 3.5881363510485682e-04 -5.1356777917279861e-03
1403 -3.7797038142544292e-04 -4.7383932011684591e-03 1.2246375759012844e-02
1404 -6.3809225288522413e-03 -8.5362463464973334e-03 1.4780518737525070e-02
1405 -1.0338259181637071e-03 1.3386921460774833e-03 -3.4693724378304200e-03
1406 2.8560850187078937e-03 -6.5794216023770495e-03 -5.4640233740293554e-03
1407 -6.5932427635705514e-03 6.3220281725566570e-04 6.5962493076108806e-03
1409 -4.1466533346455354e-03 4.4560178321078718e-03 4.9326114335434981e-04
1459 -1.0495714350721403e-02 -7.1562933565224611e-03 -6.9312759653727511e-03
1461 -3.5170907721337308e-04 2.3740221339967355e-03 -5.7825470196668479e-03
1463 5.4344053788695475e-03 -6.5849223366032496e-03 6.7907995222647064e-03
1723 3.6208902791901570e-03 4.7327017911503793e-03 5.4619634955013988e-03
1757 -4.5160828640339827e-04 -6.2046448302612812e-03 -1.9528631082626942e-03
1761 -3.5176581899292220e-03 -3.2952002528608797e-03 -1.8440478357405390e-03
1764 1.1155928092082736e-03 3.4701767691722903e-03 -2.7088787300626562e-03
1769 -2.1928023353483162e-03 7.1838440048131065e-03 5.2787991995425342e-03
1819 -3.5466159489523478e-05 4.6683695002922845e-04 9.0309270101628536e-04
1015 2.1533071230966241e-04 -2.3134350044404454e-03 4.5854978293580172e-03
1016 4.5967607909948921e-03 1.0576213968071176e-02 -4.2460685822926321e-03
1023 2.1189798591965052e-03 2.3099069239228432e-03 -1.0621690625785285e-03
1073 -1.5465786779440514e-03 -7.7841980003502615e-03 3.3054795268854390e-03
1079 -3.5570515144661289e-03 2.3333359933443440e-03 -4.3159340033992050e-03
1080 -8.6591810694317158e-04 -1.0763916181324641e-02 8.0961991709451366e-03
1081 -3.2221770309610567e-03 -6.1032980253438887e-05 1.4206461758356426e-02
1083 -5.3426380200162771e-03 -3.0782155181243343e-03 8.0994042492736132e-03
1084 7.1049268114792190e-03 2.9022908464425832e-03 8.5594072513730957e-03
1086 1.9671552231712167e-03 -8.6973422680544019e-03 6.3520207394919693e-03
1087 2.5832319567996387e-03 2.4286738817449311e-03 3.2980012119082718e-03
1088 -2.4877111580500042e-03 -9.9506446397994251e-03 -1.6915076817596440e-03
1144 4.0005882034357667e-03 5.1624280395727237e-03 -8.0657278314192112e-03
1145 -8.6704861333009920e-04 6.0211079786763036e-04 9.4617303973776445e-03
1387 -5.1131537827944981e-03 -1.2314067361025866e-03 -3.0088270318038863e-04
1388 7.1409270360072545e-03 -5.1177028074363823e-04 3.2191987474873064e-03
1389 -5.7196009764087325e-03 3.3453820503937933e-03 -1.0614597934604729e-03
1390 1.5291969432996020e-02 3.8598664148999437e-04 1.9346920728404524e-03
1393 -1.1920963669520403e-03 -2.6656234953120229e-03 5.9182719638079407e-03
1394 4.7961827794353578e-03 9.6081915872941578e-05 -2.2500402137853297e-03
1443 4.4243655123907709e-03 1.5461609850052854e-03 -2.9710650992378082e-04
1444 -7.0492916190257899e-03 -8.3288823367606531e-04 -2.6714648317792845e-04
1445 -2.3800852328901041e-04 3.3651353453932075e-03 1.7970448214900481e-03
1446 -8.4249583400521615e-03 3.4165371095320129e-04 2.9487272343730140e-03
1447 3.8461363841575395e-03 -5.5438740050636438e-03 1.1246869408871404e-05
1448 -1.3251061998425357e-03 4.2343299404439478e-03 -1.4320593349759171e-02
1449 7.3938939506978496e-04 3.5423680792613902e-03 -3.5337418983485925e-03
1450 3.5575373180233658e-03 -9.2701622510875717e-04 -1.1697200144690819e-03
1451 6.0549268868641121e-03 -4.7952184643783044e-03 -8.8693601322927581e-03
1452 8.4985133518497673e-03 1.2085888828652726e-02 1.4098992839926613e-04
1453 -3.4780958267331638e-03 2.9256448373894627e-03 -3.8959471615486897e-03
1454 2.5118862033704625e-03 -3.3600285703618616e-03 -1.9561759006426556e-03
1455 -4.1484675532787232e-04 2.7401418675699463e-04 -1.3474319057977763e-02
1456 1.0974712878329836e-03 1.8768541252889447e-04 8.2446344165816587e-03
1457 -1.1762165958891036e-03 -4.1796151522783213e-03 5.3617836822815214e-03
1458 -8.5271033059002074e-03 6.5381615128102142e-03 3.9585439134379209e-03
1460 1.6397420223030808e-03 -5.7640162191995763e-03 -7.7885248015841877e-03
1513 4.9709664164338842e-04 2.1877926494897884e-03 -3.2590857754200508e-04
1514 8.7255479838737216e-04 -1.9548220809641197e-03 -7.5936062786653854e-04
1515 -2.1867627155242435e-04 -7.3709256985559661e-03 -7.2936517455832166e-03
1516 -3.8349537288059296e-03 4.6562022168544128e-03 -5.1538168397081315e-03
1517 3.2587428904862262e-03 -2.1261255285658109e-04 7.3076109147388751e-04
1519 -4.9898971067716287e-04 -8.7763020045077069e-04 -6.9460761057519296e-03
1807 -5.4461308778892313e-03 6.3963150414384547e-03 1.3354197959984965e-03
1811 -8.2548573150298017e-03 -4.0388833477711054e-03 1.2998997308875304e-03
1814 1.0093952409896122e-02 -3.6541467772423604e-03 3.9378805013915216e-03
1870 3.6822814596610839e-03 -1.3268761749340731e-03 -7.7547670668416608e-03
764 8.2888639111681570e-03 7.3839552221094543e-03 -5.4296631942477903e-04
821 2.7987529304872348e-03 -2.6994075301274979e-03 3.2329221813707050e-03
822 -6.9787344048339575e-03 -7.8155333514353265e-03 -2.8740066558846070e-04
1071 -2.2874488977751781e-03 -1.6005333802972951e-03 1.7869812349608409e-03
1129 -4.7680693010212572e-03 7.0445002562127771e-03 2.5834897952968163e-03
1134 1.9240940579051033e-03 -2.5735402628339833e-03 7.0559554784520376e-03
1135 -5.3153920019512729e-03 -1.6353611348714835e-02 4.7553507579831738e-03
1136 -6.1625513715313886e-03 -3.5892196464029896e-03 1.6868051786957816e-04
1137 -7.1758865349233546e-04 -1.8440268598806872e-03 -2.7472447448530972e-04
1139 3.3338553160616531e-03 -4.6886138912097816e-03 6.4660313815925940e-03
1140 7.9155773621971109e-03 -4.9974325355761576e-03 1.9220141298322273e-03
1141 -6.0492500105772526e-03 1.9216476462413418e-03 7.8592763172566256e-03
1142 -1.3681923678396846e-02 5.5219031270830167e-03 2.8829157062871427e-03
1143 3.1620591109169476e-03 -2.1177119174239411e-03 2.6739226695740637e-03
1192 5.4781841018750055e-04 5.9950579644209362e-03 6.5788441389565498e-03
1195 -1.2520495231562815e-02 -2.6783016095878998e-03 -3.2799627494813663e-03
1196 -5.1884578048417857e-03 -2.8096226806889469e-03 3.5423382277824135e-03
1197 4.1845805424381433e-03 5.1580307593908012e-03 -7.0963857849034757e-03
1198 -3.4069635140957445e-03 8.7636085955831410e-03 2.4651690263970550e-04
1199 -8.4017033752578490e-03 2.9535049832287667e-03 5.3888221621731019e-03
1200 -2.0049949573667301e-03 -3.6942342847562535e-03 3.8272495316850814e-03
1201 -7.0850636197872527e-03 -2.8770703847462178e-03 3.1332093668769373e-04
1202 -4.0094800080662397e-03 2.7699013071638039e-03 8.6435464154051168e-03
1203 -1.8549202298548870e-03 -5.2174717126046071e-04 8.9422583864401438e-04
1204 6.6349517628590292e-04 -5.0574234292194414e-03 4.9618452518667014e-03
1206 -2.2859051636167386e-03 -2.3302689686422229e-04 7.4342123991184604e-03
1207 2.7079628223879632e-03 1.7313381551646526e-03 -3.6174982826867163e-03
1208 -3.3199209126960811e-04 4.5636088702457611e-03 -2.2333898176556902e-03
1254 -7.4330354077458364e-03 7.1710897042066239e-03 -4.9772853257690269e-03
1256 2.8672820111779354e-03 1.0115077285728118e-02 -6.0197947416392545e-03
1258 3.1673636081180653e-03 2.6212863936635107e-03 7.2313307929498510e-03
1502 2.4144375407955340e-03 4.6251338964193728e-03 -1.5433076532564913e-03
1506 3.1808390902374642e-03 3.4736123577644154e-03 -4.6074923831283706e-04
1507 -8.7794847420040317e-03 2.5851136508116073e-03 -3.4230094913282778e-03
1508 -9.2079064129205017e-04 -3.5491802819452713e-03 3.4540823117093166e-03
1509 -6.2838814262241045e-03 -9.3532770759460196e-04 1.0589825296498486e-02
1510 -6.6779828575892052e-03 2.2098058927791102e-03 4.1694337429830737e-03
1511 3.8734855419260534e-03 2.5769363891653672e-03 4.5597316631485214e-03
1512 3.4074077124720801e-05 4.1968831987095195e-03 -8.8826142880043158e-04
1558 6.7908146164262643e-03 3.7945138549706410e-03 6.4019617807900319e-03
1563 -6.8847225058168353e-04 -3.9212075705344481e-03 -1.2422013230005653e-02
1564 -6.5355998993503932e-03 4.4751851362923971e-03 2.0028012007683696e-03
1565 -8.6927422645451669e-03 -3.7148223556544911e-03 4.9882063387091244e-03
1566 -1.2080176311117896e-03 9.0063040605951935e-03 -1.7995907790002619e-03
1567 9.4020684538393667e-03 -2.0555523331072245e-03 -6.0412192118635237e-03
1568 2.5204704108351917e-03 -3.4179113353342548e-03 -2.0269451644125444e-03
1569 1.1929686690819358e-02 -6.2493649272036492e-03 4.8007990006142783e-03
1570 -1.0834299807106811e-02 1.6251561794917838e-03 -6.8675415204579463e-03
1571 1.0846657684645653e-03 -8.2512767102674257e-04 6.1568334605222540e-04
1572 -1.2393565203384336e-03 7.7643400680682696e-03 -6.8225648862964569e-03
1573 -2.3582196077836324e-03 -1.2342496030464849e-02 -4.2964986398006996e-03
1574 3.8202024499171938e-03 -5.1646258833761135e-03 2.3199947883758630e-03
1575 7.9741744561374079e-03 7.1127201317009526e-03 4.2015997904144130e-03
1578 9.4968115664258287e-04 -4.1784653447497094e-04 5.2865397028792858e-03
1579 3.4655434561818642e-03 2.2721758779353026e-03 6.0207235155201808e-03
1581 -6.5497003719110361e-03 5.1357178647413184e-05 1.6579671535140593e-03
1626 -5.7677281364113759e-03 4.7855141672374949e-03 -3.8590345248448450e-03
1627 2.8707211208086795e-05 -9.0492510033213618e-03 4.5647705125648405e-03
1628 -3.8211337377980692e-03 -4.0680462544207445e-03 -4.3982295283075939e-03
1632 -1.1365483933565011e-02 5.7054404280200135e-03 1.3265872839488995e-02
1635 7.9553726009180866e-03 -5.6813631908761951e-03 -5.9951011601038200e-03
867 -1.0101921847832816e-03 -4.7271473441550449e-03 6.2227859729072370e-04
868 -7.5186634484899475e-04 6.7656572292077984e-04 9.5662892451949292e-04
898 -1.8057160706178379e-04 1.4321026068578678e-03 6.9090276023624350e-03
1185 -3.0051609704108699e-03 -1.8140747592573431e-03 3.5478202502390583e-03
1190 4.8291988707342163e-03 2.8630909975089981e-03 -3.1609817301837539e-03
1191 -4.0639733741898859e-03 -4.2596795356733070e-04 -1.7031237371778040e-03
1193 -4.0756576318728135e-03 1.0629806012025409e-02 2.9595379348707871e-03
1235 -4.1302875190917937e-03 8.0149586553005941e-03 -5.2912094463934698e-03
1240 2.8006186006265051e-03 -1.6932364730341026e-03 -2.0684690175753898e-03
1241 -2.5499099595077748e-03 -4.6832918358931958e-03 4.6967792488357349e-03
1242 -1.7255584734776242e-03 3.2924593153651907e-03 -3.7662645992416035e-03
1243 2.4398786312455440e-03 -2.8384207466282041e-03 1.0860454016694946e-02
1245 -2.7384690002213931e-03 3.5278296221997012e-03 1.5078605365325699e-03
1246 2.0440542063002143e-03 7.2147251856117622e-04 9.3196668165954142e-04
1247 2.3357278390219809e-03 -2.7240763095549778e-03 6.7072252402795738e-03
1248 1.3483537999827724e-03 2.6303796877953116e-03 -6.5660012167340492e-03
1249 -2.4143715295671651e-03 -1.0735818388812907e-04 9.6352618019951361e-03
1250 8.4143926641583391e-03 1.1709150455483167e-03 -9.2122021159579508e-03
1251 -4.1536245058580229e-03 -4.5001321333286706e-03 2.4463962182940794e-03
1252 4.2718428762344276e-03 -8.4259322606086828e-03 -8.8459765792289410e-04
1253 5.0715159559129646e-03 -5.5193396027827029e-03 4.6213414767077082e-03
1257 -9.7453851682586254e-04 1.3005966236049845e-03 -8.3402920710145267e-03
1280 -8.2641030842667586e-03 -3.1831819867693249e-03 -6.0811603896515206e-03
1282 3.3263212287700382e-03 2.0772876346430167e-03 5.2332125472184582e-03
1284 -7.0961516343566091e-03 8.1583444070580796e-03 4.2856222532307066e-03
1285 2.5336407430925738e-03 4.9970908947113857e-03 1.1331044431319162e-03
1286 6.7350162418057333e-03 9.6876295180019356e-05 4.0738137584876901e-03
1287 4.0001430486736895e-03 8.4741495414906616e-03 -2.5922337054497110e-03
1288 -5.5202942625661895e-03 7.6087354473276464e-03 -1.6834665864753630e-04
1290 7.5806672357501097e-03 1.5094392304806897e-03 -4.9761790084833640e-03
1291 4.6871369286773075e-03 2.6737512232982005e-03 -4.1080610319609582e-04
1292 7.2228517473364286e-03 -3.4850570760847450e-03 -2.4618909501304175e-03
1562 -5.0540499485687779e-03 4.6880547819385483e-03 1.3051989633034015e-03
1611 4.5995483085819553e-03 -2.0152822083935413e-03 7.7366659518369437e-03
1615 1.9566140797791587e-03 -5.2185723904468748e-03 -3.0930846071260043e-03
1616 -2.5207434446823389e-03 -3.5643206152717937e-03 -5.1204289651803742e-05
1617 -3.6676233707498679e-03 4.4253563747871762e-03 1.8242224712695368e-04
1618 -1.1534671795604061e-04 -5.2386384717175698e-03 9.6281098109600796e-03
1619 8.9177133352998528e-03 -4.4818881123901101e-03 6.3016161622193824e-03
1620 -8.9290992414850414e-03 7.1717613149582752e-03 8.0271562908593305e-04
1621 -1.8355377599609975e-03 2.3869798180541700e-03 -1.1992041190588701e-03
1622 -2.8085857201823120e-03 2.9913086366797487e-03 -1.0538575099138447e-02
1623 -4.9943819839245104e-03 1.2111243702864322e-03 8.8424812287225749e-03
1624 -8.9826033337041533e-03 9.0813082326214444e-03 -3.3356950420214784e-03
1625 -9.0145472739477511e-03 3.0840109874149505e-04 3.4931497221584997e-03
1631 7.5242000326822605e-03 -2.7085432041871614e-03 6.1955864622919947e-04
1654 -3.2840873263443125e-03 -8.7664354768030150e-03 7.2088422262767239e-03
1656 2.7846441879084186e-03 -6.6189343849630171e-03 6.0635710262008083e-03
1658 2.7036558810614075e-03 -2.4640506988822877e-03 -3.9016947030957984e-03
1660 4.2037112277116210e-03 -1.3324740665066899e-02 -2.3366155186344819e-03
1661 3.6769728140812114e-03 -1.8922486414197066e-03 8.2569493709319132e-03
1662 6.3692399218730619e-03 -2.2881682875208254e-03 8.6437391035625588e-03
1663 2.0809839797638939e-03 -5.5498949124657875e-03 6.2693585157305894e-04
1664 8.2456174756798085e-04 -2.6263321406450710e-03 1.0634437885657801e-02
1665 5.2231334700217052e-03 -5.0699201696541392e-03 -3.8424678019206592e-03
1666 6.9296327503931793e-04 6.5188043996443823e-03 7.2649943119793920e-05
1669 9.1284638396677031e-04 -7.7484827579961054e-04 -2.1888512871909948e-03
1670 1.4741310738592575e-03 5.6786941661874880e-03 2.1264055101691333e-04
1673 -2.0087407016367272e-03 -1.2624450663756960e-03 9.5377352008626654e-03
897 -7.1820043048070534e-03 2.3177972073728475e-03 7.1829529879293482e-04
911 4.8191435919518197e-03 1.8333229654221819e-03 -6.9606141768558342e-03
912 1.2327794925807573e-05 -4.8935007515614184e-03 -5.4617664151063615e-03
1269 3.3602604401276133e-04 3.8574520854145920e-03 2.0117716875618168e-03
1274 -2.5682141235292841e-03 1.0167732013541134e-03 3.2922633233461542e-03
1275 -3.7381372463245995e-03 -6.1577886308559592e-04 -5.7338110483134593e-03
1276 8.6250314158967546e-03 -2.0648948475844500e-03 6.8873980561183776e-03
1277 1.7759189880621675e-03 -1.5379152257654198e-02 5.4953312867597956e-03
1279 4.8597674392184135e-03 -6.7739527471342622e-03 -2.2895642815153865e-03
1281 -3.5027281327496065e-03 5.5177743111794325e-03 2.5981626093321201e-03
1283 6.8927434185355012e-03 4.6606077010123816e-03 -8.2055396402298843e-03
1295 3.5160372722571743e-03 -5.5588613963425176e-04 1.5258660750183887e-03
1297 -1.6541162523640875e-03 1.2927919604556705e-03 2.9122299911995902e-04
1298 -5.0861326638892961e-03 1.5333508906065850e-02 7.0608143931902446e-03
1299 -1.1238940846158034e-04 -5.0423651739621965e-04 -4.9890260272072138e-04
1300 -2.0716218845715458e-03 -2.7700643241788726e-03 -9.1416643080946790e-03
1301 -7.3788563545896177e-03 -1.6087789936364310e-04 7.2121233201503506e-03
1302 5.8390562902865713e-03 -1.4968489578671188e-03 -2.2888513269395858e-03
1303 2.6043938679360347e-03 1.3544115256037912e-02 -6.2943240112810200e-03
1304 1.7269288243019321e-04 -9.3892634175399420e-03 4.0633505880683591e-03
1305 -2.0040027107740134e-03 3.0877330785752397e-03 -6.7843494825792000e-04
1306 -6.4217084052521287e-03 -4.1805852888519837e-03 -5.8942953606372916e-03
1308 -5.1428779632571070e-05 3.2636498123883497e-03 3.8367193150176167e-03
1309 1.9624924958373284e-03 9.7843602452559516e-03 -3.9997094318885333e-03
1310 -1.6927935570805151e-03 -2.7214159488935141e-03 2.2700596358917477e-03
1312 4.9984218564008151e-03 3.6183690699801434e-03 1.3236772178252726e-02
1313 8.0463413777923567e-03 -7.8434433205100077e-03 7.6273091349960973e-03
1649 -3.3424127033232012e-03 -3.3997594143111887e-03 -2.8566903562952254e-03
1653 -6.2822912832745338e-03 -7.6489438017944313e-03 1.6198926876446441e-03
1655 -3.5569225428459085e-03 -5.3024389019297475e-03 8.3851426527759682e-04
1657 -7.5749534599644864e-03 7.8999121433572430e-03 6.8506942658789439e-03
1659 2.1056382819234611e-03 -1.5448038623096570e-03 7.3903618775304439e-03
1676 3.3416302493928089e-03 6.9217941395631022e-04 1.9794478643010789e-05
1677 -7.1478023157718693e-04 -2.3385119752884985e-03 8.9852312380930420e-04
1678 -2.4388433195366471e-03 -2.5250390499961177e-03 -6.1661648478022269e-03
1679 3.7409640044361952e-03 -8.7687860874707622e-03 1.6005942265510909e-04
1680 -1.0962615780978581e-03 1.1996684319838719e-02 -9.8103165770018061e-04
1681 6.4440218360008530e-03 -1.6472497186179097e-03 4.0978024521296647e-03
1682 4.4667485588416791e-03 -2.5423719441358085e-03 4.2441257630506155e-04
1683 6.1212623486487641e-04 5.2880134274195228e-03 1.7121733419102403e-03
1684 -2.4465728477550850e-03 -8.1606647455805970e-03 2.3521162866417204e-03
1685 3.9396934544537379e-03 1.2516685807405007e-03 -2.8278507385297272e-03
1686 1.2767080562915735e-03 -4.1732736761572502e-04 1.5324883100716179e-03
1687 -5.3407927432999403e-03 -7.4007289049051531e-03 -2.9944681515541825e-03
1688 -9.0736545528991106e-03 -6.3561655584403751e-03 2.8276111150399327e-03
1691 6.1622850004170535e-03 6.5573506150065596e-03 1.0967848603230421e-03
1692 1.7927971742319714e-03 1.4324772383209562e-03 4.1474055738596792e-03
1695 -8.7638832375926384e-03 4.9482345402240141e-03 7.2540174829266663e-04
1696 3.6853408510419084e-03 -3.0379135428966510e-03 3.5250169626979953e-03
1698 7.9550320772165950e-03 -3.3616116349360998e-03 9.7089996753458828e-03
1701 -2.2546517993176445e-03 -2.0031874343475844e-03 4.7459023328509141e-03
1063 2.4350126397270503e-03 3.7197332678446450e-04 -3.7506811828747749e-03
1064 3.7109153631661078e-03 -2.6941703736450247e-03 2.5594000740041972e-03
1070 4.8394595584460142e-03 -8.8104237032090599e-03 1.1502076917429516e-02
1120 -1.0630855670471634e-05 -3.9381853680896840e-03 1.2165165439599877e-03
1127 7.2821444034630355e-03 -7.0322523990011395e-03 -2.5038957956074266e-03
1128 -1.3212986603674125e-03 -5.8342178582763173e-03 -4.0883106565806002e-03
1131 1.3121997990240238e-03 1.1800113618991326e-02 1.0102112740763813e-02
1132 3.9353794626210414e-03 -7.8936315733934854e-03 5.2478539438759663e-04
1188 1.7374728543943050e-03 -9.4330972794593381e-04 -6.2646497795778482e-03
1386 7.4946618174282133e-03 4.2187801735349556e-03 -1.8875054645323436e-03
1428 7.5516861681991189e-03 4.5138516864219229e-03 2.4610639593343874e-03
1430 5.3029697219373314e-03 -7.1861543029432093e-04 -1.1600307365403561e-03
1431 1.1577363910421255e-03 2.2629511011108532e-03 -2.0166816799084392e-03
1432 3.6028819446960302e-03 -1.4144248621697549e-03 -6.0632342580858520e-04
1433 -9.0860358029304245e-03 2.3734844587864411e-03 5.8784535873109521e-03
1434 2.5804999256421727e-03 -4.7694296604681293e-03 -2.2386724386963524e-03
1435 7.8668816549257517e-03 1.1987011359609615e-02 4.7399728563566239e-03
1436 2.4597360813652762e-03 1.0947423425967915e-03 4.6666091964667278e-03
1437 -4.6386931258666332e-03 1.2835164920312224e-03 2.8910135297129645e-03
1438 -8.4816912372277318e-03 -2.7972971946011384e-03 -3.9876717694822053e-03
1439 1.2001376417623986e-03 7.1901186400271360e-03 7.0608165874507861e-03
1440 2.5040413837604403e-03 -9.9893773367018806e-03 -3.2356411774722687e-03
1441 2.4731841493229167e-03 6.9667490728070360e-03 7.1494411308230497e-03
1442 -2.4199312641925969e-04 1.7647162127542829e-03 4.8287496426096446e-03
1485 -4.0434716244094424e-03 -2.8463677170556590e-03 2.0512419435603172e-03
1486 -9.9619917892426551e-04 -5.4537821021832995e-04 2.7547295053378129e-03
1489 -1.4919665556424230e-02 -1.2082877666970237e-03 6.6834562968093965e-03
1490 4.6404502881383291e-03 1.4508540623620593e-02 4.2007764430182027e-03
1491 -1.6307361392581207e-03 4.6226084704576575e-03 -2.4938885035422319e-03
1492 3.7645027680887045e-03 2.1639058650014917e-03 9.8296331424742728e-03
1493 3.3479276633542180e-03 4.2651555915409530e-03 -2.9967737746085686e-03
1494 -7.5488743351196531e-03 2.0789684777120817e-03 6.0867308515993382e-03
1495 -1.2035881046708081e-03 4.0953640726799903e-03 1.3990289448125863e-03
1496 3.4197419257020760e-04 5.6010278230627826e-03 1.9732270597291692e-03
1497 -1.6324621178557463e-03 1.8379242897450857e-03 8.0943056968894016e-03
1498 -1.0640764099491247e-03 -2.8013505795595702e-03 5.1008474536859113e-04
1499 -4.2878486126079257e-03 1.1563744691435371e-03 1.2207037293515645e-03
1500 -2.0817083009497992e-03 -6.1430546180043771e-03 -1.4685695079873834e-03
1501 7.1000390251833214e-03 -1.0009147313380748e-03 5.5979481586144906e-03
1503 -3.6511659433826125e-03 -9.6812345146020749e-03 -2.4532193909888173e-03
1504 -1.1466533359761730e-03 5.3068895454919038e-03 -2.3455328122050745e-03
1505 8.6040535883324682e-03 -2.6435075957550523e-03 8.5786738424584626e-03
1557 -1.9899745826610191e-03 1.7380081235878911e-03 -1.2345288415863628e-03
1561 -1.0933305840094550e-02 -5.5423523722095405e-03 1.0350964469777237e-02
1796 3.0979977622156942e-04 -4.0114634094847628e-03 3.7293351026654888e-03
1800 -4.6723067478295546e-03 2.8329329281110214e-03 -4.5603286346913266e-04
1801 -3.2071395134534384e-04 7.5820618919133029e-03 -8.6149979461342171e-03
1802 1.2894679537951792e-03 -3.0156137009398360e-03 2.6651980319095884e-03
1803 2.1185028409664562e-03 -7.0236084125910618e-04 3.1384928778169737e-03
1804 -4.4019017617724374e-03 -1.7322759996904410e-03 -8.1495367391690144e-04
1806 -2.4234239995742511e-03 -4.1725562591728403e-03 -4.6270435799730687e-03
1846 -1.3060608996088927e-05 4.8458883719649064e-03 1.1435154763179117e-02
1850 3.1775084943371041e-03 2.6684422606487929e-04 2.7152175455433230e-03
1851 -4.9881219116305444e-03 -4.8864755913044667e-03 -1.6413821145344995e-05
1852 1.8081977366135728e-03 -5.3354174414445106e-03 4.7747820389075829e-03
1853 -1.2886267846639239e-02 -6.9883877720334654e-03 -1.8702110839075544e-03
1854 2.7331380351012927e-04 1.5155342574738027e-04 7.2844221727684887e-05
1855 -8.0270480501064571e-04 -1.0085490373340791e-02 8.5935034789326598e-03
1858 3.9107832222926861e-03 -4.8595037817384451e-03 2.9949451685743838e-03
1859 3.4982074103689399e-03 -5.4593257088515288e-03 2.7058156855925223e-03
1862 -3.9409278150749081e-03 1.3413979009977359e-03 1.0728831713688830e-03
1863 1.3257480554865564e-03 -6.5425516861987183e-03 8.9313123555205662e-04
1865 1.5213392794306158e-03 -7.5599601247277942e-04 -8.9467783050681832e-03
1913 -8.5376839595212323e-03 8.5780099623417056e-03 -5.9183000287422365e-03
1916 -8.5027736547919528e-04 -4.7734345501848491e-03 -7.3495749761213159e-03
1119 -1.8355285586237060e-03 -5.2945410256916335e-03 6.6094453735751468e-03
1175 -8.9109396523180794e-03 1.3606781607591699e-02 6.3864590973122127e-03
1176 -2.1806148495489785e-03 -5.9072236143354225e-03 3.5299432043718660e-03
1183 4.8874518534404541e-04 3.8112066962017665e-03 -5.2801284303588382e-03
1184 7.0173644759222598e-03 -7.4617266018162348e-04 -4.2114354354979410e-03
1187 -7.3658315791195404e-05 -4.7107755414621437e-03 3.5635900650975412e-03
1234 5.5211772657483595e-03 8.4581170735359389e-03 1.2089144607220436e-03
1237 3.4582588218217982e-03 7.6513057426128303e-03 6.5922863463735316e-03
1238 3.9162336937561496e-03 -4.7824859085106184e-04 1.1370567937902198e-02
1482 -1.1365867352216443e-02 2.1031695774221099e-03 -1.8790671681100264e-04
1484 -3.5752502695586036e-03 6.3640865758834474e-03 1.4433007128705714e-02
1487 7.2950038274571002e-04 -8.5898242656253926e-03 4.1755196249497646e-03
1488 -2.4617295256518347e-03 2.8921305951933301e-03 8.2915509266504664e-03
1540 2.2875288951325181e-03 8.4061809285789404e-03 2.2823685877447495e-03
1541 -2.9620185399967169e-03 -4.0738437206556488e-04 1.4484965939165510e-03
1542 -2.2922402584489993e-03 -8.1807341805535810e-03 -7.0170833430693415e-03
1543 8.0287766903318538e-03 1.1033693272338458e-03 -1.9923690334447460e-03
1544 5.1552363234202477e-03 -3.7940023655033523e-03 -5.0026278009067454e-03
1545 -8.1735327559615770e-04 -2.6495232446208145e-03 -2.8357494508307510e-03
1546 4.9283318229499037e-03 -1.2210032896004968e-03 -9.5934549909308092e-03
1547 -4.5120163169643266e-04 1.1749862336248563e-03 -9.5872545840034133e-03
1548 -2.6338791898380762e-03 -4.9885722104867677e-04 2.9590569877328138e-03
1549 -1.2314286633900366e-03 -4.1177691161569767e-03 -2.2877390083090644e-03
1550 -2.9325391581678075e-03 -2.9450796518257806e-03 5.7240625084088188e-03
1551 4.9226806349965315e-03 -6.1104566191625747e-03 2.6195617591584898e-03
1552 6.2058622430230352e-03 5.7039166996784860e-03 -8.2258201112746384e-04
1553 1.2652499456282729e-04 6.7368471547617510e-03 -5.6950970596140451e-03
1554 -5.3254347314221091e-03 1.4208423737291386e-03 2.1960558180150313e-03
1555 3.4346760687192310e-03 1.3332766502640221e-03 2.3913339073843311e-03
1556 3.8144656126163682e-03 -5.2708366066807812e-03 -3.1243852452766632e-04
1559 -1.5855090165427679e-03 5.9021272712631145e-03 -6.0725364030397655e-03
1560 -3.0421461949805481e-03 -1.0064695542793026e-02 -4.1106883040667608e-03
1602 3.5299672172413518e-03 -1.8844089425499389e-03 -1.2214837013293503e-03
1604 2.8037499479887521e-03 -3.6155974475859018e-03 5.5897028991552834e-03
1606 2.1509191886201350e-03 -5.9336047437838621e-03 1.3277298774821698e-02
1607 -1.8499166294801250e-03 -2.1332677606091940e-04 5.0873920460315506e-03
1608 9.3856025355275024e-03 -2.3010868644930565e-03 8.3579301137865891e-03
1609 -4.6992942262364321e-03 -1.9897082000095993e-03 8.4887508796773897e-03
1610 -8.5369491616715757e-03 -4.7207030152471539e-03 1.9670698956569086e-03
1612 -5.5503661235503255e-03 -3.8235052121356958e-03 -1.4130130918146097e-02
1613 2.0770341707720655e-03 -2.7535234667885725e-03 5.6240994379205666e-03
1614 1.5676865137627869e-03 1.9282992109487658e-04 5.5237633339917072e-04
1897 -3.8987728203381303e-03 3.4334704440886141e-03 4.8598705691233982e-03
1901 -3.4717210953969244e-03 6.5623864500862755e-03 -1.4413412344216991e-03
1902 -3.9073838537019515e-03 -2.9638971181428844e-03 6.7463154558970260e-03
1903 -6.9324941732293636e-04 -4.1384221528003239e-05 2.9459750627174913e-03
1904 3.2636913414582913e-03 -1.6018917305109623e-03 -3.8215215772301548e-03
1905 -6.5783567468833575e-04 -1.0334872742194438e-03 -9.6283536435189006e-03
1906 -1.5222649638360190e-03 3.7628518200593107e-04 8.6233752194210863e-03
1909 3.7833072683339563e-03 -1.0406034499592966e-02 -7.1342985195020994e-04
1910 8.0870690305987793e-03 2.4831696571157099e-03 3.3487285983584188e-03
1914 -5.0707102358632918e-04 -3.8923477010538855e-03 -8.3095328128690998e-03
1940 -4.9713371540563312e-03 8.3576210908578217e-04 -1.1663290518429735e-03
1942 -4.3716591571553594e-04 5.8814734538552868e-04 6.4402992885914849e-03
1945 2.4941199153996766e-03 5.2540694279395745e-03 5.0715307372534539e-03
1946 6.6120169550527011e-03 5.4422875326259742e-03 -2.3552083787034385e-03
1949 5.2971704860354206e-04 -4.1547838980705706e-03 -1.6820408297973171e-03
1950 3.1155402571790085e-03 -7.1355518061025766e-03 -1.0054752706357779e-03
1952 -4.6834302525379399e-03 -1.2237161760547354e-02 -1.4955987385115790e-03
1972 -1.4039679143606817e-03 4.9498958029758830e-03 -5.9701597140700540e-03
1225 3.2689672733280051e-04 -1.6605050006750996e-03 4.7529892686681719e-03
1226 -1.7362067841545650e-03 -2.3702383895324768e-03 1.7455793779236034e-03
1233 -6.5385219588230611e-03 -3.3200655608621944e-03 -9.5744769961930568e-05
1261 -3.9338588916930034e-03 2.8734844890648982e-04 5.6348688588576581e-03
1267 -3.9008781419139498e-04 -5.2664194161295514e-03 2.8787313201431813e-03
1268 -6.1705342569515946e-03 -4.8289200705249402e-04 -7.4135417826050173e-03
1271 -6.3032820327199122e-03 -3.4314232510044974e-03 -7.1414148529213726e-04
1272 1.9907129097400341e-03 -7.6971029226510074e-04 -5.4721380477726535e-03
1294 -7.4226031936960846e-04 1.4410517028761473e-03 5.5231799868745498e-04
1538 3.1593624700415939e-03 -1.1233060324810800e-03 3.2472128951650250e-04
1591 -2.2176588319154883e-03 -5.6913063532075441e-03 1.4116704044911431e-03
1593 3.1956279056340555e-03 5.5467754836414761e-03 -2.2525646268967752e-03
1594 2.3833639976550284e-03 -2.6950916413439815e-03 -2.0691519856554336e-03
1595 3.6491572905036304e-03 7.7214720250626733e-03 -5.2250551101149971e-03
1596 3.8550835742919166e-03 -4.5636640620668268e-03 -5.6273253570613649e-04
1597 -6.7427349814064980e-03 -9.9588063359677056e-03 -2.5676495423286529e-03
1598 -2.7317854869524775e-03 4.5873383704619942e-03 -3.9218574111820233e-03
1599 -1.5934741604848384e-03 1.8331100344608855e-03 -5.7501306512985729e-06
1600 6.8372222440070511e-03 1.3293056068800291e-03 2.6871283143664266e-03
1601 -4.8520998662141181e-03 2.3784579885226952e-03 2.1065592346348073e-03
1603 -5.3793535232899488e-04 3.9033867644613406e-03 -1.5582868635869935e-03
1605 2.4261059210090134e-03 -6.3192227345937385e-03 -5.9686986633346031e-03
1636 -1.0733953188530431e-03 -2.9792228281057273e-03 -1.6340885641578248e-04
1637 -6.5832915823580140e-03 -4.0025487384100413e-03 -1.4804904171632734e-03
1638 -4.2887954422149068e-03 -1.1227033002274604e-03 1.7820860173034989e-04
1639 4.1221517717995794e-04 1.2005962642790084e-02 7.8161715929541873e-05
1640 -3.7433823987323180e-03 -1.8649202175501345e-03 1.4594953467957824e-02
1641 4.5934781100405019e-04 4.6890771248680958e-04 1.4776014198577422e-03
1642 -7.7644316497686786e-03 7.8457612878619770e-03 2.8658677618473649e-03
1643 -1.3067429904653808e-03 3.0892940077731166e-03 4.5682965114491892e-04
1644 4.8792366744010120e-04 -1.5186886829645985e-03 -2.6373689108183601e-03
1645 7.8110819483714618e-04 2.0802398679660543e-03 -3.4261771999720700e-03
1646 -2.3589466530089562e-04 -1.9007443524336884e-03 3.3040318989523811e-03
1647 5.1464164289818336e-03 6.4383177475186030e-04 -3.1002009641348585e-04
1648 2.1079930164032848e-03 -3.0415684644052813e-03 2.6286201998194591e-03
1650 4.9984318151108705e-03 3.3856176457502138e-03 2.4836466400433147e-03
1651 -5.1585268064693697e-03 -8.0599902600803283e-03 4.9598079645108749e-03
1652 -1.0551758393752718e-02 8.0473395110929619e-03 1.9101828733677764e-03
1674 1.5333253169459309e-02 7.7034126305548572e-03 3.5683470839961576e-03
1675 2.2861071678884231e-03 2.9958584449063328e-03 -5.5944825047547879e-03
1933 -5.2837532303794546e-03 1.1895565039628071e-03 -5.8471897462094918e-03
1937 -2.0664425145214783e-03 4.3806564073725551e-03 7.4045445205923801e-04
1938 2.1523186498137851e-03 -5.8421841463820760e-03 1.0363900873643864e-02
1939 5.5993275498176549e-05 1.0262726801623890e-03 7.2837479419785858e-04
1941 2.3224440160688159e-03 2.4590860968791524e-03 -1.2503118213446336e-03
1958 -5.4820690031162774e-04 1.0304143750575091e-04 3.2909709435839352e-03
1959 2.6050651419003037e-04 1.1786282365115360e-03 -6.5810143089475096e-03
1960 -4.0575693085339844e-03 -4.9604387409837051e-03 -4.4763727980033099e-04
1961 -1.6402994611406068e-03 -1.3807528666049663e-02 -2.6362889381920198e-03
1962 -7.0671916696089237e-05 9.0362648683425242e-04 -3.2409833494338493e-03
1965 6.1750341157757495e-03 -5.1705462111922085e-03 7.6805277482674770e-03
1966 7.1462090788482289e-04 -4.7608987843200615e-03 5.1216304411383067e-03
1969 1.8540945231620186e-03 6.4789764944696120e-03 -7.0699149893932913e-03
1970 1.1314900368781952e-05 -1.7244657208286475e-02 -1.9932139006673031e-03
1977 -5.2351356924450910e-03 1.1558712874462050e-03 5.2742049867009599e-03
1345 -1.6543031318936970e-02 1.6245256048500270e-03 -4.5673150531160746e-03
1370 -1.6167006802001742e-03 9.1973363273173073e-03 -1.7323867248355551e-03
1371 -6.0364169092077969e-03 -4.9236830863862435e-03 -3.8712788936721967e-03
1378 1.1139541998532207e-03 -1.7267182685947737e-03 6.3716594401392185e-03
1379 2.9388307595282241e-03 2.4063066618920144e-04 -2.1809223216706403e-03
1380 2.0157186222884461e-03 6.1073971004194712e-04 -6.2086753011343608e-03
1382 5.7190985590483095e-04 -5.2810931440759289e-03 1.1465383286641404e-02
1384 -1.9743418333484026e-03 6.2633215004466889e-03 -1.3310224822152463e-03
1385 7.9675730994121054e-04 9.5384315651242009e-03 6.7003081781309799e-03
1419 5.1570681862377100e-03 -1.5858173522968988e-04 9.8499114590443644e-03
1420 -1.9416317519908143e-03 -1.1668993217294129e-04 5.6158077824900159e-04
1422 5.4092014224101578e-03 -5.0753621671395044e-03 -3.3752789695252077e-03
1423 -1.7398147379491823e-04 -7.5890186670399210e-03 8.3223557807464085e-04
1425 -2.9959830104634927e-03 2.1908867557436590e-03 8.3140368655259742e-04
1426 -1.5213919147980359e-03 1.2056471610045163e-02 6.1370436422008307e-03
1427 2.3262357095587410e-03 -2.2776389885706969e-03 -4.2969784176880776e-03
1722 -1.3297066410668173e-02 -2.4151947874494627e-03 -1.2666857541374921e-03
1742 2.6320434469076248e-03 6.9650448446675556e-03 9.1205574040311935e-03
1744 6.3515148451282850e-03 -4.5130315661363607e-03 -4.1455662112928155e-03
1745 -6.3049036587349205e-03 -2.0972118761514082e-03 -1.2550756271852564e-03
1746 -4.0264286676671580e-03 -6.0950175294251854e-03 -3.0260388823424244e-03
1747 2.5484658597247937e-03 -9.6034199675772754e-03 3.7665903453284241e-03
1748 4.5967311750481346e-03 1.0714207062812043e-03 2.7671420813608948e-03
1749 -6.6478747378428604e-03 -5.6437702047329279e-03 3.6726342142373387e-05
1750 -3.1506982515413675e-03 -2.2730381338358936e-03 7.0580748114506533e-03
1751 4.8714339264902436e-03 -2.8847182917195757e-03 2.5966983269320957e-03
1752 -6.1233978885013359e-03 3.7043256749234479e-03 1.3699017347923021e-02
1753 7.2288703600815775e-03 -1.7210597404375598e-03 8.4214477704829989e-03
1754 1.9339720096973436e-05 -1.8207844514614964e-03 2.0094643187078998e-03
1755 -3.9532613226685581e-03 1.0858031119667811e-02 3.9537092058520113e-03
1756 -9.8207905336566981e-03 -8.1321306840561290e-03 -7.6821482550916359e-03
1779 -3.6621822226050505e-04 1.4075628892007844e-03 6.4935211279649767e-03
1781 6.8975025017489720e-03 2.3460104971911939e-04 3.1113963319973348e-03
1783 -8.1150713566305874e-04 -8.4676558242001120e-03 -1.9994609660953116e-03
1784 -1.1556984872393230e-02 -1.3485932817679949e-03 -3.4043378575807884e-03
1785 4.2099486539310359e-04 4.3873304535887170e-03 1.3468764646470499e-03
1786 -1.5873570847048119e-04 3.1370404732429789e-03 1.5696000535585853e-03
1787 -7.7036170353698783e-03 -9.4723260557299516e-03 7.0152069429732424e-03
1788 -1.8984039175110117e-03 -1.0614840190279647e-02 3.9757123890128941e-03
1789 1.8940285301984772e-03 -1.0878451690061195e-03 3.5692209137827896e-03
1790 3.5876906804674586e-03 -6.6279121669507359e-03 5.6613284038169794e-04
1791 -1.2610362297087277e-04 3.6914641848871123e-03 4.6133995075657002e-03
1792 2.4309954051375477e-03 -3.2702786815496840e-03 1.8596623017850364e-03
1793 2.8721635219139548e-03 -3.5496375875795345e-03 -3.4974447639427512e-03
1794 -1.8961924397332148e-03 5.2085670127842510e-03 -2.3125374310540084e-03
1795 3.4411456953568438e-03 -5.5770864491242302e-03 2.2815045849403377e-03
1797 -1.3580613702833711e-03 8.7807045480784774e-04 -5.2288892977934709e-03
1798 -1.0712886067473758e-03 -1.6163072575167592e-03 5.1223701790304782e-03
1799 -3.3214968256032110e-03 2.6007238756721998e-03 3.8673720309861446e-03
1843 2.6970594951126079e-03 9.2267447851281342e-04 -1.6297877712588204e-03
1845 7.9244124898032661e-03 -8.0394667869628615e-03 -9.0591482843026105e-03
1849 5.5032973853256038e-03 1.3306007432186250e-03 4.0212416665066841e-03
2015 -1.9203568323692369e-03 -2.1962745256556893e-03 -5.0646477397733886e-03
2019 -5.7149604848148574e-05 8.3854316829062667e-03 1.3086176121698402e-03
2020 4.4973284470882034e-03 8.1055275248458972e-03 -3.8810647852223351e-03
2022 1.2218797345542271e-03 -4.4348692010262323e-03 1.4528773436881400e-03
2023 1.6674717622405372e-03 4.3919160141332424e-03 5.0201685996817532e-03
2048 3.3663321198002780e-04 8.7562870958878762e-04 -1.6830851966528428e-03
2049 -3.3568539160284783e-03 -3.5680675317816472e-03 1.2989122164791624e-03
2052 1.6699447126430481e-03 -3.0984493703651752e-03 2.5699295894418108e-03
2053 -1.2189610593115931e-03 -6.1000319834415744e-03 5.4632749395667453e-03
2055 7.8404160562442725e-03 -3.1099071653589005e-03 -1.5620790295793421e-03
2089 6.1558667022264474e-03 2.9513983537639839e-03 -7.3957402684660502e-03
1410 -8.6975374153164340e-03 -8.8198295456715266e-04 7.5972538269904822e-03
1411 -4.8339914068861092e-03 3.1984946820834558e-03 5.0372486501526004e-03
1418 -4.0996267949099637e-03 6.6156780433376076e-03 9.1121843600258240e-03
1465 4.4935533253203297e-04 3.0219590207842917e-03 5.1642740734248209e-03
1472 4.0514676667467745e-03 3.0638518492455422e-03 2.6360322450665304e-03
1473 -8.3033710858552903e-03 4.5133721958522032e-03 -1.9123340739330237e-03
1474 -7.2157171484660563e-03 5.6818586798223665e-03 5.1644374880356015e-03
1476 2.5840737498597920e-03 3.1902555161757154e-03 2.4216677998222576e-03
1477 -3.8030241154997273e-03 -5.6100827232737176e-03 -3.3281729783595777e-03
1479 -2.5321828832517148e-03 -1.9948714470516627e-03 -1.7314661589337801e-03
1480 1.7553329892089076e-03 1.4701956121634686e-04 -5.8472790402819491e-03
1481 -2.1111106056435121e-03 -2.3295196363536360e-03 6.1321741319988058e-03
1533 2.9097866602421853e-03 -5.0331303480785940e-03 -4.7373750960959951e-03
1535 2.5365946628714939e-03 4.1046283818572211e-03 2.1055293779904637e-03
1537 6.7451188527165853e-03 -7.3548744739182872e-04 4.4545699057385790e-03
1776 -1.1908484244740356e-03 -1.0398967467760516e-03 1.7491427975455424e-03
1778 6.2597061190322201e-03 5.8620512174610475e-03 -5.8698030187601287e-03
1780 -2.2678249111253491e-03 -5.1741332362710470e-03 4.1802732986607090e-03
1782 5.5676329464899883e-03 1.5546235135439307e-03 8.3591063412943815e-03
1826 -7.3876064677323022e-04 2.3109505193410962e-03 2.9589186893195442e-03
1828 3.2657060037734127e-03 -2.8208739106898744e-03 7.5715975752723846e-03
1829 1.7864252812305917e-03 4.3114178936356972e-03 1.3165232137298774e-02
1830 -2.0308943227601503e-03 7.5927891870327330e-03 6.1773250820728925e-04
1831 -3.9014323307430990e-03 -4.8194982421748038e-03 -5.7813992734867992e-04
1832 -3.6034808923088237e-03 -4.3248050874153425e-03 -1.1423535000060429e-02
1833 7.6955238453026110e-03 2.3180103325061950e-03 1.1098074625790608e-03
1834 3.9962620091745314e-03 3.0869441453657840e-03 -8.9295244574889143e-03
1835 -1.4674159422199722e-04 -4.9657969397868228e-03 5.5069247017184670e-03
1836 7.0175076968659088e-03 -4.0487349758522662e-03 4.6452697464785496e-03
1837 -4.7200562614932337e-04 4.1520687021227264e-03 1.5884833084006634e-03
1838 2.2956051487390133e-03 1.3739959386157962e-03 4.2636444387008218e-03
1839 4.4828441995405461e-03 -4.5228948538378793e-03 1.1679193559059021e-03
1840 1.4105360769860972e-03 1.6491126428149982e-03 -3.4227539129585882e-03
1841 -1.6416656543160641e-03 -1.5532300473484735e-03 -1.0708091193273096e-03
1842 3.8702880346171060e-03 9.1473407334372019e-03 -3.0210614155214458e-04
1844 -6.4138360811214082e-03 -2.7923647623263235e-03 4.8263473081850219e-04
1847 -9.1744142776605513e-03 2.2873349780631433e-03 3.8712841491745703e-03
1848 -2.9493314174547949e-04 -5.0994488607853496e-03 -1.8537529548067028e-03
1886 -3.8388974452976789e-03 5.6571663811184024e-03 5.2303500356483653e-03
1888 5.8945671795339440e-03 -3.4779849738200866e-03 2.5616557835879419e-03
1889 1.3333115549125066e-03 -7.2902760553380716e-04 -4.2812862065380259e-03
1890 3.1582678742251196e-03 -2.2508869555118690e-03 5.5950500388313919e-03
1892 1.0000761963055503e-03 7.6002772089662305e-03 1.0238869137354236e-03
1894 4.1579250147054632e-03 5.1134369387301135e-03 1.0098020572553460e-03
1895 1.5899186290733037e-03 -1.5867084237118165e-04 1.2700392974447272e-03
1896 -6.5285755273633891e-03 -4.6938415903675325e-03 -1.1202427333790418e-03
1898 3.0314539227692988e-03 -2.7680726456550185e-03 5.1212607118505020e-03
1899 6.7236014868643995e-03 1.7784533400841340e-03 1.7343209623176925e-03
1900 1.5906331818963861e-03 -5.0523452412807911e-03 -1.6483835581093216e-03
2044 2.0882642525371893e-03 9.0471549030879377e-03 -2.2856600111427223e-03
2078 7.3473438958895779e-03 -1.8207276027196967e-03 -1.6342989430645502e-03
2082 -1.3078587038391156e-02 3.4691719469387367e-03 1.3486993248272008e-02
2083 3.6772964429047483e-04 -2.2790155818063953e-03 3.5510179922342375e-03
2086 8.7154047952057003e-04 3.3635400386505514e-03 8.4259058573691453e-04
2087 -1.1739513979414173e-02 -3.0034985832790083e-03 4.0408987843644547e-03
2111 5.9372705021069915e-04 1.6157205258986536e-03 4.9858186072097967e-03
2114 -2.4680690520114614e-03 -5.9151226365948605e-04 6.0684867529295795e-03
2115 -1.9275282782045486e-03 9.9382243910671898e-04 -3.1936670058098804e-04
2117 -5.4127972761647989e-03 -7.7798653839723838e-03 -6.1474024128210434e-04
1464 -1.1904903051487730e-03 -2.5629146125397493e-03 2.0836220686592417e-03
1520 -7.8067491612690098e-04 4.2407132903288557e-03 8.2370502838177099e-03
1521 -5.4113430123617296e-03 -5.5428212790359010e-03 3.1928342161455741e-04
1528 -8.2894255435937651e-03 8.1399303613750407e-04 -3.4529507285872034e-03
1529 -1.4911114253734542e-03 2.7547091086142666e-03 3.3402026037515301e-03
1530 -2.6474791937671294e-03 4.9334378181138639e-04 5.6204940115232166e-03
1532 1.2399044557881295e-02 -4.5635562320110569e-03 -4.1251692440352440e-03
1536 -6.9699043456648803e-03 3.6803186792053978e-03 -8.2876188063343620e-04
1583 2.8859306961272783e-03 6.0041429487950231e-03 1.9271445202058456e-03
1585 1.1917913277933487e-02 -8.4498343306445148e-04 -2.6497047403900866e-03
1586 -5.0074521366250497e-03 2.2001133235852463e-03 -3.5248018281046588e-03
1588 -3.9672130664415630e-05 -1.9482322281088470e-03 2.6396120097799411e-03
1589 -4.0692965100559090e-03 1.0745012903461257e-03 4.3085025571439782e-03
1590 -3.2541526736364339e-04 -1.2505794483159522e-03 9.8017039207732512e-03
1877 1.6815860845603952e-03 9.2161403532639800e-03 6.9270676151241065e-03
1879 3.0635732591610385e-03 8.5821820433291465e-03 -9.5392028028180361e-03
1880 3.8564124360255625e-03 2.7396322153778398e-03 2.6645093860692975e-04
1881 6.2971301425784670e-03 4.8914518281371619e-03 -2.5484071373169884e-03
1882 -8.0295156078787708e-03 5.0337056961565034e-03 -7.4890085630920501e-04
1883 -5.2098867828781817e-04 1.8565789536662001e-03 -5.4532109725490335e-03
1884 6.3082410508521786e-04 -1.2145352440985221e-03 3.7471743114329972e-04
1885 4.9835220152234976e-03 1.5243006663079291e-03 2.2978023705965810e-03
1887 3.2084369210300511e-03 7.3787425388737284e-03 -3.4490783637915979e-03
1891 -4.5410373533372721e-03 1.1013837561740738e-05 -6.3588351289244954e-03
1893 -2.5863000911443472e-04 3.5897979920292622e-03 5.5489330239281509e-03
1920 2.2345277582449630e-03 3.9368782627799458e-04 1.0634619448606011e-02
1921 2.4442241360630584e-03 9.1824858433111733e-04 -1.7920796174672254e-04
1922 -2.1916523464405391e-03 -1.8851361971425453e-03 -9.2978519254336301e-04
1923 -1.3235198626471807e-03 -2.2682018546598117e-03 3.9133248177352347e-03
1924 2.3982130690102647e-03 3.2762071479087657e-03 5.6919388531736911e-03
1925 1.2005761653389242e-02 9.7274647042379023e-03 2.3698164798339840e-03
1926 -6.6407434858005727e-03 1.6115995324109999e-03 3.1216191779580536e-03
1927 -2.7635897609985458e-03 5.4066854638454747e-03 -2.4856536228006275e-03
1928 7.7794326449761170e-03 7.1893493628981235e-04 -2.7267198876931692e-03
1929 -4.6482851116540855e-03 8.3919818196001878e-03 5.2480042956943827e-03
1930 9.3724696506769026e-03 5.0115119520640272e-03 -2.9513662938863211e-03
1931 -2.1572007271261685e-03 3.0120444946584281e-03 3.9827535028850265e-03
1932 -2.5408488983261653e-03 1.8631795029395186e-03 3.9715397361557696e-03
1934 9.7128376035568436e-03 -1.6904833333354964e-03 6.1306264231119961e-03
1935 1.5885436899899894e-03 4.5171102663996631e-03 1.4122876948407821e-03
1936 -1.7785556091597346e-04 -1.4534761344643335e-03 1.5226537322986192e-03
1956 1.0337627537958262e-02 5.3482085709531831e-04 -3.0890563025624124e-03
1957 -6.4185767658845030e-05 7.5893928011226946e-03 3.1313864050667752e-03
2106 6.0511039636079568e-03 -2.2108315827617181e-03 6.5429367643948097e-03
2110 6.0089156360629593e-03 -3.6279950103877577e-03 1.6827452291881160e-03
2123 -4.7829170597373004e-03 9.7685627557424198e-03 4.0760624075129892e-04
2126 -3.5103954797115417e-03 -5.6087408536257257e-03 3.9257753093493337e-03
2127 -1.6440846609698745e-04 6.5658448641830423e-03 -6.2456025716748232e-03
2129 4.1178702214025067e-04 -2.4014926045061282e-03 -4.7005148300152243e-03
1205 -1.5745236759780895e-03 1.0039843518236934e-02 2.9473228562081743e-03
1209 7.7077356533086115e-03 4.0893256253414566e-04 6.0633704415278735e-03
1255 -5.2739070602515672e-03 -7.6595670911223691e-03 3.4758753542046203e-03
1259 -1.7989889760442062e-03 4.9608095870819192e-04 -1.2046756617632617e-02
1703 9.9209697500268652e-03 -1.0086728390777204e-02 3.0204291977800860e-03
1704 -3.1164041872005604e-04 3.4109533483422196e-03 -1.2144967170231820e-03
1706 4.6341054422217436e-04 -2.3823677942511911e-03 3.8640630164162022e-03
1707 3.0171565345901369e-03 8.2732712565793554e-03 -7.4791733804017838e-04
1708 -3.4402454216390138e-03 9.3454571546910808e-03 6.1536205817262074e-03
1710 4.4998652458232251e-03 1.1047753045153213e-03 -6.5407751998896166e-03
1711 -2.6922793310807866e-03 -7.0105994027005866e-03 -6.2428171201792419e-03
1713 -8.6156110097585451e-03 -3.5743066560825058e-03 6.0480248596124541e-03
1714 -1.1203851715802782e-02 5.3363232763096544e-03 3.7623977269742219e-03
1715 3.2417612869473852e-03 1.1036899599640663e-02 -1.0427684393586572e-03
1716 -2.2981399497129956e-03 5.2648594855623744e-03 -3.8946822437718629e-03
1718 -7.3049913180835077e-03 -1.1143916386782488e-02 1.0245475591813510e-03
1719 -3.3113377992001771e-03 -1.2671813372948663e-04 3.2183818932678414e-04
1720 2.0094667487601248e-03 1.5429914227535889e-03 2.0710182574733920e-03
1721 6.4785496040385910e-03 -9.4141245503457911e-04 -7.7378882696185862e-03
1729 -9.7168982745663556e-03 2.8438221814794571e-03 -1.5169208350875386e-03
1731 -2.3155230799012127e-03 -3.7952313174790357e-03 9.2445527070927746e-03
1733 7.6858154936572699e-03 -1.0195113796544740e-02 9.2935854874819455e-03
1736 -3.0714261105483729e-03 1.3579030089038366e-03 2.5160673237975373e-03
1737 -5.3205126901742254e-03 -1.2322955164106173e-02 -1.0615175538586476e-03
1738 2.1036482225825848e-03 3.6977489335366807e-04 3.4789830185139427e-03
1739 3.6688928655451590e-03 3.5439954411729717e-03 3.8000544970944539e-03
1740 1.2553763982886242e-02 -1.6560533485379927e-03 -9.8942664536337283e-03
1741 6.5630993823214932e-03 4.5671190435248379e-03 -5.7839833089007890e-03
1743 -7.1568077328879121e-03 -8.0666882601332091e-03 6.2663789710020997e-04
1981 4.1241531109717441e-03 2.4994585312018843e-04 8.9190167221229622e-03
1982 8.3055799671890203e-03 -3.7359794271044919e-03 1.1768690734319227e-03
1983 3.0697873852660700e-03 -5.5047120793493094e-03 1.1235465503484701e-03
1984 -1.9247593253047654e-03 -4.5377681854959842e-03 -6.0339174792952317e-03
1985 4.1342775139357893e-03 -2.5987351219712547e-03 2.7666038014389225e-03
1986 -3.7911654380601654e-03 6.3949435701039122e-03 6.3126062278288948e-03
1987 6.2423053922508616e-04 -2.7771203922662764e-03 -1.4905567887361175e-03
1988 1.9885256827021329e-04 -3.4147686988382276e-03 -4.7307072397140566e-03
1989 -8.8891323079058095e-04 -1.1553121089421423e-03 3.1424770777294985e-03
1990 1.5059666830757189e-03 1.5668346364634844e-03 -3.2881908941653410e-03
1991 -4.8975632215225830e-03 6.5539565234599495e-04 2.3436775483325935e-03
1992 1.4146458914807118e-04 1.2312567610464778e-03 -2.9908516554096802e-04
1993 -5.3407140751214107e-03 8.7662607037059387e-03 6.7132363750393026e-03
1994 -3.0768839603487089e-03 -1.0393254783787869e-02 -6.0769811191458143e-03
1995 -7.0458319006317443e-03 2.0017749709164085e-03 -9.3764929978460830e-04
1998 -6.7353482787702000e-03 -2.3181053269423810e-04 2.4585415104515303e-03
1999 -3.4096924740444751e-04 3.2661739779176004e-03 -5.3615602464891288e-04
2000 1.3178224631773272e-03 3.1739603178765731e-03 5.0838584920356910e-03
2002 -8.3550319096838081e-03 -1.0081900711952948e-02 1.6080878532945227e-03
2004 -1.3346627568310343e-02 -1.1727227634307500e-02 5.6255207925228628e-04
2005 2.0906508261265452e-04 3.1822638799888568e-03 -7.1633522326746274e-03
2006 1.1258256439276092e-02 -3.8975654262398685e-03 -7.3473224145322166e-03
2007 1.6502393406538918e-03 -5.0138700435028438e-03 1.6084936496410442e-02
2008 -5.0293671993736433e-03 -2.0092369396443976e-03 -1.1055165660346137e-03
2009 2.5100961460632026e-03 -4.2427357225690920e-04 7.3135782809637569e-03
2010 -7.6515362018737788e-04 -5.6898847477431415e-05 7.4472746740527253e-03
2011 -4.4037071492892908e-03 2.5661813077151752e-03 2.2302293818953628e-03
2012 -1.1650314319057297e-03 -8.5678102736774127e-03 -3.4920406443288195e-03
2013 1.7262849569928196e-03 5.4069986363361605e-03 1.2695436123708089e-04
2014 4.0383139327271611e-03 -6.7915278425461616e-03 -2.6434418246405089e-03
2016 1.6928442480199659e-03 -9.2996635872753843e-03 5.0745540870707094e-03
2043 7.0378286568983693e-03 -4.2925494246868834e-03 -2.7268294816608163e-03
2045 -2.3954125952648951e-03 -1.7175475842463709e-04 1.7532758269889927e-04
2134 -1.4073066876167553e-04 -3.4560428046901421e-03 1.9583253463322466e-03
2136 5.9495232475721693e-03 1.9071674618084821e-03 4.0007359015063306e-03
2139 2.7037060909661809e-03 -2.4474576499256642e-03 -2.2337955091345538e-03
2141 -5.8884937373794187e-03 -8.7926717961701456e-03 -4.3054603866518916e-03
1289 4.9575921278698955e-03 4.7762326165747783e-03 1.6816216105011534e-03
1293 -3.4213265987238090e-04 2.6469032267252496e-03 -3.5459164385497613e-03
1724 5.5336626564134032e-04 1.2475125594821296e-03 -6.5813769559924535e-04
1725 -1.6917839063484187e-03 6.7924143402961186e-03 3.8362572872936750e-03
1726 -1.8093151017950919e-05 7.8272606297593132e-03 1.7410607874569097e-04
1728 -2.1377909819368991e-03 -3.5700671275760588e-03 4.3242142681658305e-03
1732 3.8808771039347840e-03 2.6420659708435617e-03 5.0271954764462556e-03
1734 1.5345423274881740e-03 4.4988667337144579e-03 -9.0163356348513923e-03
1759 -2.5474791308322930e-03 -3.0182583836720089e-03 -3.3058596910014028e-03
1760 3.1680785640425808e-03 2.3139546112517142e-03 2.7348680398874702e-03
1762 3.0155002805355908e-04 4.6097113187444742e-03 -5.0005626272763646e-03
1763 1.1940144366950876e-02 -7.3381532879117817e-04 -7.5330365260789156e-03
1765 1.7852904837350244e-03 -6.7785317130816692e-03 1.9814350788587998e-03
1766 -9.3448538728431322e-04 -3.0861834859998165e-03 -4.6784948187953623e-03
1767 5.5780221664777415e-03 -4.3647698959602592e-03 2.5819684926786609e-03
1768 9.6894442607883963e-03 8.0263936565566647e-03 4.8470033927910782e-03
1770 -4.0694552806833113e-03 1.0805785875979424e-02 4.3622936036295740e-03
1771 4.9444392202947886e-03 4.1066138736107803e-03 4.7196587981564444e-03
1772 5.0779736449747814e-03 8.0593331414647255e-03 -8.7091615813359976e-04
1773 2.7810168932933159e-03 3.4024634995126436e-03 8.6324050026136113e-04
1774 6.7126646320010688e-03 3.1882908880242203e-04 -7.3394147363697810e-03
1775 1.5642160875943391e-03 -1.4877163159592961e-03 5.7353735029265140e-03
1777 3.9055187504808878e-04 -5.6185067713138545e-03 -3.2965237275828447e-03
1821 6.4612384721725070e-03 -4.7397349921848083e-05 1.7247786252490589e-02
1823 -1.0204417154107559e-02 8.2147380030685689e-04 -7.8541468198848816e-03
1825 -7.4780391297234088e-03 -4.8739542147853716e-03 -2.5106888875024071e-03
1827 1.9098740018208150e-03 -3.9784638559397197e-05 -4.9071606340169473e-03
1996 6.0091732272822872e-03 -6.1493534584024677e-03 4.5737095378313893e-03
1997 -8.7739534135766288e-03 -2.1479911598076195e-03 6.2902650441517679e-03
2001 -8.2979089716249139e-03 1.3616880377353732e-03 5.6840489462669829e-03
2003 -8.3340771464331040e-03 -2.1886005012374293e-03 4.0830573207396442e-03
2025 -5.8688940230950315e-03 5.7639630309849364e-03 2.8211578965035562e-03
2026 -2.7016497000470273e-03 1.8916815731743811e-03 -1.7748628092906546e-03
2027 -1.1567636380593323e-03 1.6852257443621726e-03 -5.9578543789732931e-03
2028 -4.9152832043482392e-03 1.2047905995215558e-04 -8.4855470119746940e-04
2029 -1.3430757089427144e-03 2.1078701494813496e-03 2.3562282009076310e-03
2030 1.7782575724189700e-03 -3.1483812352772378e-03 -1.1198008976417212e-02
2031 -2.7647468422772959e-03 -3.3764072981017799e-03 5.4001911224705974e-03
2032 -6.8306112851817405e-03 3.0802797705882412e-03 3.9986875734007036e-03
2033 -3.7803223715737624e-04 -1.6726838862318866e-03 2.7187558899424888e-03
2034 -1.1026110783358468e-03 -5.1388002477566700e-03 9.6189682584385903e-03
2035 6.0464310502417987e-04 -7.7469002122058763e-03 -1.6997235749507658e-03
2036 -1.2331429964025753e-02 9.1656951105425107e-03 -9.7851981853122128e-04
2037 -1.1304607878977312e-02 7.7976070341563364e-03 -5.5754186523090830e-03
2038 2.6721872361143597e-03 8.1723769157790666e-04 1.3626677591815973e-03
2039 -3.0156847517170296e-03 -1.9039221586169602e-03 5.9238913379592237e-03
2040 -1.8959660682014647e-03 -1.2562370266702977e-02 1.9803816188515167e-03
2041 4.8023847416312051e-03 7.1924171080563063e-04 4.0977460013103401e-03
2042 -3.4716869740581031e-03 -7.4091630644375480e-04 3.2850728806827698e-03
2067 -9.0375690851055498e-03 -3.8720415609019084e-03 -5.9363199528793533e-03
2069 -6.3144732112215040e-03 -6.7384331043428289e-03 4.1082680157648018e-03
2071 7.4751136639024645e-03 -5.2374146594767164e-03 -4.9275108622790474e-04
2073 5.1395183992849394e-03 -1.0262018704606328e-03 -1.6037505670375197e-03
2074 -5.2597629329649807e-03 -1.0689339388319062e-02 -3.1819251676305717e-03
2075 -4.6011896355908129e-03 -4.7238193764359143e-03 2.3044049221499652e-03
2076 -3.0894149302179465e-03 1.0466424697683756e-03 -5.4601025831330103e-03
2077 -6.1439161276147696e-03 1.4813175495305578e-03 -6.4818942876671863e-03
2079 -8.8387052917844443e-03 5.5782218116505414e-03 1.6052259551094035e-03
2145 -4.0169068981318170e-03 7.3555953019426726e-03 3.4868179997419663e-04
2147 -5.3370470843440319e-03 3.4702378788837281e-03 1.6967307585603658e-03
2153 1.7679241378976810e-03 -3.8104021074866624e-03 -9.2127939001483141e-04
1307 2.9894243606216875e-03 7.4997846617084413e-03 2.0284357013920801e-03
1311 -6.3639069582995525e-03 1.0161317622623183e-03 7.2573764493126924e-03
1314 -5.3553465164072681e-03 -2.4581873285152065e-03 5.6564831067654441e-03
1758 6.7423223302214984e-04 -1.8373963949680995e-03 1.9131474228353195e-03
1808 -1.0052993125259344e-02 1.5514936144630468e-03 -5.5195889199524006e-05
1809 2.4473812108744355e-04 -2.1658050346540485e-03 7.1182831368158898e-03
1810 -2.0457499260231153e-03 -1.8987775241029548e-03 -3.2616319817771709e-03
1812 7.2003022801226410e-05 -1.1914078209591323e-03 5.2267991782471773e-03
1813 2.5444924801546242e-03 7.0459043690732619e-03 3.3717658970780001e-03
1815 -2.7750152639136523e-03 5.6746309712308526e-03 -8.9924960328808534e-03
1816 2.4827878974918362e-03 -9.7475807495601106e-03 5.2635069687028144e-03
1817 -7.3263301684741997e-03 -2.4098491961363627e-03 2.2105734724799406e-03
1818 -5.7338374833641823e-03 -1.1913507428452273e-03 1.9389423107275044e-03
1820 -2.1568688664055837e-03 -4.3191657748679551e-05 3.3044374593376794e-03
1822 -1.2669702904445767e-03 -2.3015107577453245e-03 -4.0570249396631652e-03
1824 5.0311883138390804e-03 3.5056412363140411e-03 8.0088736689411851e-03
1868 -4.2573340103607834e-04 3.8282750948946437e-04 -5.4482961915528127e-03
1869 1.1092327361460813e-02 3.9102492591895563e-03 -4.0680234672835439e-03
1871 5.7885597804997330e-03 6.1778859657170768e-03 -4.3886856678257685e-03
1872 -8.3167065597559969e-03 -1.2752136376460953e-02 1.4841651048406678e-03
1873 5.8812971655113292e-03 -5.7567666282259938e-03 5.6188923318857553e-03
1874 1.8499243070392631e-03 -1.0861555878007162e-03 -2.3624750760172556e-03
1875 6.9062130971554300e-03 8.7042180372466204e-03 -1.3001529363617934e-03
1876 -4.4150704742974221e-04 -1.5649978755886483e-03 3.7038858171979140e-03
1878 3.2359474541567975e-03 -3.4587277821445670e-03 8.7688003582102290e-03
2059 -4.8931705017215710e-03 -2.1983568936715129e-03 -9.1827726329510426e-05
2060 8.3028486699457116e-03 1.3057003106778059e-03 1.3580292884499282e-03
2061 -1.0997289318628567e-03 -7.5964384594938558e-03 3.8310925499735896e-03
2062 -8.1808852695259924e-03 5.2370674198461429e-03 -1.2611157376104022e-03
2063 -4.2035554742650407e-03 -9.3794243545621090e-04 3.2678185559254489e-03
2064 8.7426344707982879e-04 1.0740617476889090e-02 2.0159998775293782e-03
2065 8.7480251469858085e-03 2.2970102818909970e-03 2.1146614344850082e-03
2066 -6.4784123591971705e-03 -3.1771957985051251e-03 -7.9479547365460881e-03
2068 5.2013645554692270e-03 -1.4213753414805492e-03 -1.6248492774642929e-03
2070 2.4919220464297208e-04 2.1989267431061716e-03 2.7426706538900580e-03
2072 -6.2481741341287246e-04 2.7650126149202515e-04 3.6373843572158485e-03
2093 3.7887937698640882e-03 5.5666526171083410e-03 -9.8543415951808846e-03
2094 -4.5635080274422975e-03 -9.6246358082975223e-04 -7.7424808135237236e-03
2095 -6.5964704995338831e-03 9.1759348303610093e-03 2.9031443662612386e-03
2096 2.5820911301454507e-03 -4.8216521837869692e-03 -2.4209269631123641e-03
2097 5.1095967692168787e-03 -2.7097914559827837e-03 -3.1225491234661792e-03
2098 -6.2451249846668709e-03 -1.2884212226178861e-04 8.3668197509543275e-03
2099 6.1468641991910180e-03 6.2327685867837046e-03 5.8367897467155750e-03
2100 7.5533779596275866e-03 -2.4400804333382601e-03 1.6159363937545717e-04
2101 -4.9350811694993226e-03 -4.7694487932267558e-04 5.9015142667723864e-03
2102 5.6300235645581611e-03 3.8114981959648875e-03 4.9278521492949739e-03
2103 -1.4906665703028979e-03 2.1715008883787512e-04 1.3058157535334729e-02
2104 1.3406679692728222e-03 -6.7329821329535156e-03 1.2851124715641690e-02
2105 5.3321400245814722e-03 5.2610409342514436e-04 -4.4028092117209496e-04
2107 6.1044749125181968e-04 -2.2495184037162495e-03 -1.1004054251952003e-03
2121 6.0195996123205012e-03 6.2916158513300036e-04 7.9847053419063140e-03
2151 3.9225108870143332e-03 5.5998098739079258e-05 -6.8371748424611578e-04
2157 -3.1982408579542621e-03 1.0436944239375122e-03 -7.0857803468359704e-03
1576 6.8282548913803430e-04 8.3008753908309411e-04 2.6588073854665002e-04
1577 4.3094963903263679e-03 1.0127940900749310e-02 3.6209707574840595e-04
1580 -2.7910621239463909e-03 3.0041531842906186e-03 -5.6648098277950736e-03
1630 -5.8319797568578413e-03 -2.3580167070965889e-03 5.8834567198622686e-04
1633 -1.0972854529671925e-02 -6.8226617257089311e-03 2.6854332550283562e-03
1634 -1.3907465912389293e-02 6.9459230629274874e-05 3.7664569610598342e-03
1866 1.0019810862033773e-02 -3.7229162575816376e-03 1.6889110497948566e-03
1917 -5.2964417323760967e-05 -5.7295871222851277e-03 1.5431148137891371e-03
1919 -1.3794311395996215e-03 6.8596295246487939e-03 -3.9012443443030005e-03
1629 9.0604976930586945e-03 -2.1080677481325723e-03 -2.3986446654345665e-03
1667 2.3757732750065369e-03 -1.1126593371008778e-02 -3.4074696164209246e-04
1668 -1.1167755321896285e-03 -1.0431529907718187e-02 7.9090145548187975e-03
1671 1.0787655190763816e-02 -1.9709308847428945e-03 8.5505246468087800e-04
1672 6.5780147303053389e-03 -5.8656094534492980e-04 2.5794072643365580e-03
1694 -6.9242470152482511e-03 -4.1517362096329301e-04 4.5794398609719689e-04
1953 1.4849030354358429e-03 -6.5956052293904910e-03 -2.2375574830117018e-04
1955 -3.2466362039868810e-03 -1.8488126137731942e-03 -4.8818004173578709e-04
1975 -2.2160964602089368e-03 6.0449286345771770e-03 -5.8330628699391797e-03
1689 1.2326647443579289e-04 -9.4449226264674280e-03 6.1690319769286024e-03
1690 -4.6924528214314129e-04 -9.4989845384921383e-03 -7.4588705870657400e-03
1693 5.2744027979194884e-03 5.3284756321598124e-03 3.6611337303758735e-03
1697 -1.0359458820915711e-02 7.1427348522792584e-04 -1.2595842914581994e-04
1699 4.8028801546641416e-03 2.6232602494686624e-03 -1.8317154838227317e-03
1700 3.5548039345744760e-03 -1.4084357495232052e-03 -4.3486618130924321e-03
1973 3.8423655894241331e-03 4.6919748734197979e-04 -3.4582756708828309e-03
1978 4.6033427092963056e-03 6.0262079321511224e-03 -9.4680111449054383e-04
1980 -2.7483019476616734e-03 1.7909644714344654e-04 3.2494205194281158e-03
1805 5.4884275889573930e-03 -3.2549014699999623e-03 -1.5427260359914042e-03
1856 -7.0334098630089631e-05 8.4604245016305806e-04 -3.8309346012598629e-03
1857 -2.4914244270232170e-03 -3.6645357308147178e-03 -1.6527802840244667e-04
1860 3.6312128161979942e-03 4.1927171331468410e-04 3.7374538769817969e-04
1861 6.6785752315266277e-03 -4.0009073713610987e-03 -5.9323768019324047e-03
1864 -4.1583658212519335e-03 -9.9937740504715301e-04 6.7405181340825541e-03
1867 3.8247952783485766e-04 5.0499473178525767e-03 -7.4160797488441888e-03
1912 9.2840815232917550e-03 4.1285460156016687e-03 4.3782045375712056e-03
1918 -3.4284899943057231e-03 2.6949229769577371e-03 2.5605555794495352e-03
1907 -3.9788750323583198e-03 4.7676178199817787e-03 1.2727461282284577e-03
1908 3.1351879965450268e-03 -5.9192199724854982e-03 -7.9534867690749678e-03
1911 4.0784664633594951e-03 4.3134002250028681e-03 4.5474611160978649e-03
1915 -8.4027494037083872e-04 9.2467377833815138e-03 1.1167174326850727e-02
1944 -5.3098834384414182e-03 1.3904935610262275e-03 5.7436059905421563e-04
1947 -3.3127880655993477e-03 -1.1747949601140936e-02 -2.6561772215290338e-03
1948 -3.1116192958482928e-03 1.9581115177814976e-03 6.2758328584400684e-03
1951 6.4807841043079684e-03 5.5991225812470104e-03 -1.0416001720217987e-03
1954 4.5779490677509372e-03 -2.5256112828806313e-03 1.5894317716266633e-03
1974 9.7187142633876932e-04 -1.2394154441908866e-03 4.0866044040570966e-04
1943 -7.5603907030637046e-03 2.5785178472200574e-03 -2.2307690831180026e-03
1963 -1.6050715255963618e-03 -3.5012243094981205e-03 1.0521472982404249e-02
1964 -7.2475497076906884e-04 3.4190734602191067e-03 -4.7650348208634532e-03
1967 -6.8779350935188246e-03 -6.9388518686333261e-03 8.2585620745826236e-03
1968 3.2099949139788196e-03 -1.1121635721979657e-03 -1.2272286051041475e-03
1971 6.7393567300114230e-04 6.3654426560246190e-03 -8.4805954538107690e-03
1976 1.0631094366887507e-02 1.5279988281871193e-02 -3.7935953094206127e-04
1979 -8.0849326256599127e-05 5.0860571495056055e-03 1.5885051452768389e-02
2021 2.1690387229693913e-03 6.2032352921860797e-03 -3.2041861581091117e-03
2024 1.9346407565624842e-03 -4.9590754486446781e-03 3.6675609805519303e-03
2050 9.5515943273958240e-03 2.9775542130583135e-03 4.6810209983062364e-03
2051 2.8175099772119802e-04 -4.9185790470613472e-03 9.1363555449742728e-03
2054 1.3712977379194578e-03 -9.0681548441196962e-03 -2.3781152101057116e-03
2056 -3.7684949812661237e-03 -2.1517673054079612e-03 4.6851249685381721e-03
2057 3.6155554538827481e-03 4.6158176293667700e-03 -8.3804920588424813e-04
2058 -1.5961207779668122e-03 -6.4969711790928376e-03 2.3650504714683914e-04
2090 3.4187665762628236e-03 -1.3010572253524649e-02 3.9489836291256336e-04
2092 7.5827723698143924e-03 5.6891907860250823e-06 5.3280585956135837e-03
2084 1.1385843540936589e-04 8.2696009136004282e-03 -1.2001137597058779e-03
2085 5.5799852517805460e-03 2.4692277226566377e-03 5.3010065861613742e-03
2088 1.7064064692002845e-03 -6.7595271079943988e-04 -5.4642595173306141e-04
2091 -6.9753062650781180e-03 7.4995662584507235e-03 1.6150070143264000e-03
2113 -1.6560634835160965e-03 -2.7427164999469615e-03 1.1961568838023032e-02
2118 9.7883439991415418e-03 6.0162436937371876e-03 5.5286439703611375e-03
2119 4.0995970824180732e-03 -4.7613979575977161e-03 -1.9843926547123041e-03
2120 1.1858557112667707e-03 -3.7377305105695992e-04 -1.8426639128160758e-03
2112 1.5864948783456276e-02 5.5722954538883797e-03 6.1167174277513879e-03
2116 4.6204543027051521e-03 9.5494116444034775e-03 1.7752756700808855e-03
2124 -7.5228553993834518e-03 2.5310111893924025e-03 5.2966534546017453e-03
2125 -3.3021826090642386e-03 1.1124425437132085e-03 7.5058206629655443e-03
2128 -2.7749087301438343e-03 -1.1672316493492320e-04 5.1158156274918746e-03
2130 -5.4446395889572088e-04 -8.8391528640228327e-04 -4.5326163814716515e-04
2131 8.4700436470813668e-04 4.3160621022620641e-03 1.7574723633932248e-04
2132 -9.3286015668843075e-03 -6.6687905886715715e-03 -2.0843069439566084e-03
2133 -5.3979789826618411e-03 -6.0556385547204713e-03 7.7318566326750049e-03
2017 1.2538873152959766e-03 -1.4152284098534209e-03 1.2989711671936189e-03
2018 7.5081616030069449e-03 2.6883787728210775e-03 5.4734621173827130e-03
2047 -2.0396064266199965e-04 2.4648193118961608e-03 -1.0108269334032783e-03
2135 -2.5396586934070074e-03 -4.7023708738153872e-03 3.7368831383268451e-03
2137 -4.8303171474890581e-03 -7.0848455835278139e-03 3.6616780478735439e-03
2138 2.5065089177091918e-03 -5.7597750213769948e-03 -5.5082613453041650e-03
2142 -4.8720352211428456e-03 7.6124296176105293e-04 6.0034643999061768e-03
2143 2.5807377268435745e-03 4.3818447873213099e-03 8.7503916684961696e-03
2144 -3.1880481819741616e-03 4.6136246938856366e-03 5.0811072013100568e-03
2046 6.5170246583430552e-03 2.3135273996285473e-04 7.5724244229519611e-03
2080 3.7612813048113584e-03 2.9768301119889816e-03 -2.8515798287575443e-03
2081 -4.9489025735871572e-04 -6.4009064363320742e-03 -4.9359696263909696e-03
2140 3.5176147878338037e-05 -5.0880684403084107e-03 2.8921741519751794e-03
2146 2.3887869494143310e-03 2.3467615613723672e-03 -8.3946684929816758e-04
2148 6.7032198129140753e-03 3.6437097751678072e-04 1.1109878704041673e-03
2149 3.1444949029107816e-03 -1.8470913427740398e-03 8.0031510171115674e-03
2150 2.4078301241262532e-03 5.6417729042252092e-03 -7.6298124287785948e-03
2155 5.8955745477804154e-03 -1.8355383704415679e-03 -4.3840552095390550e-04
2156 6.8424452582861537e-03 -2.2771107911696425e-03 9.2164902988162260e-03
2108 -5.8409810346787350e-03 4.2796832650012313e-03 2.0898610514922665e-04
2109 -1.7289196929222380e-03 8.4355245527879767e-03 2.5706743650000868e-03
2122 8.6048475101181405e-04 -3.3850831503752883e-03 4.2795585868205992e-03
2152 1.4924666547644337e-03 1.0748956668529227e-02 8.9111248903844798e-04
2154 1.2130126136964505e-02 3.1313211527060577e-03 5.8223736423642335e-03
2158 -6.0602854739568411e-03 -4.8624980380398549e-03 -1.5876377794730044e-03
2159 -1.9609198040376674e-03 7.7987138579479120e-03 5.5260261882722492e-03
2160 6.4009167299613227e-03 -5.8052797077907297e-04 3.1105679112936181e-03
