ITEM: TIMESTEP
0
ITEM: NUMBER OF ATOMS
2268
ITEM: BOX BOUNDS pp pp mm
0.0000000000000000e+00 2.2689985001334318e+01
0.0000000000000000e+00 2.5084722249405871e+01
-3.3593896224878699e+00 4.3000187167844736e+01
ITEM: ATOMS id type x y z vx vy vz
1 1 3.78171 4.07465 -2.92386 0 0 0
2 1 1.26048 4.07465 -2.92377 0 0 0
3 1 1.26057 2.74486 -3.11827 0 0 0
4 1 1.26059 1.90589 -1.9543 0 0 0
5 1 22.6899 24.9786 -2.92368 0 0 0
6 1 8.82376 4.07459 -2.92354 0 0 0
7 1 6.30281 4.07458 -2.92378 0 0 0
8 1 6.30281 2.74482 -3.11821 0 0 0
9 1 3.78166 2.74487 -3.11822 0 0 0
10 1 6.30279 1.90589 -1.95426 0 0 0
11 1 3.78165 1.90591 -1.95432 0 0 0
12 1 5.04219 24.9786 -2.92384 0 0 0
13 1 3.78164 0.380365 -2.24845 0 0 0
14 1 1.26055 0.380413 -2.24836 0 0 0
15 1 2.52106 24.9786 -2.92378 0 0 0
16 1 13.8662 4.07459 -2.92362 0 0 0
17 1 11.345 4.07462 -2.92353 0 0 0
18 1 11.345 2.74488 -3.11819 0 0 0
19 1 8.82388 2.74484 -3.11815 0 0 0
20 1 11.345 1.90591 -1.95427 0 0 0
21 1 8.82391 1.90588 -1.95421 0 0 0
22 1 10.0844 24.9786 -2.92383 0 0 0
23 1 8.82387 0.380292 -2.24829 0 0 0
24 1 6.30282 0.380466 -2.24857 0 0 0
25 1 7.56339 24.9786 -2.92384 0 0 0
26 1 18.9083 4.07464 -2.92376 0 0 0
27 1 16.3873 4.0746 -2.92367 0 0 0
28 1 16.3872 2.74481 -3.11822 0 0 0
29 1 13.8661 2.74483 -3.1182 0 0 0
30 1 16.3872 1.90584 -1.95429 0 0 0
31 1 13.8661 1.90582 -1.95426 0 0 0
32 1 15.1267 24.9786 -2.9239 0 0 0
33 1 13.8661 0.38039 -2.24849 0 0 0
34 1 11.345 0.380528 -2.24863 0 0 0
35 1 12.6056 24.9786 -2.92388 0 0 0
36 1 21.4295 4.07463 -2.9237 0 0 0
37 1 21.4294 2.74483 -3.11823 0 0 0
38 1 18.9083 2.74484 -3.11823 0 0 0
39 1 21.4295 1.9058 -1.9543 0 0 0
40 1 18.9083 1.90586 -1.95436 0 0 0
41 1 20.169 24.9786 -2.92375 0 0 0
42 1 18.9084 0.380448 -2.24854 0 0 0
43 1 16.3872 0.380341 -2.24852 0 0 0
44 1 17.6478 24.9786 -2.92387 0 0 0
45 1 21.4294 0.38022 -2.24816 0 0 0
46 1 1.26059 12.4362 -2.92388 0 0 0
47 1 6.30283 12.4362 -2.9238 0 0 0
48 1 3.78167 12.4362 -2.92379 0 0 0
49 1 3.78166 11.1064 -3.1182 0 0 0
50 1 1.26058 11.1064 -3.11829 0 0 0
51 1 3.78162 10.2675 -1.95431 0 0 0
52 1 1.26069 10.2674 -1.95443 0 0 0
53 1 2.52107 8.25546 -2.92389 0 0 0
54 1 1.26062 8.74192 -2.24848 0 0 0
55 1 1.82449e-05 6.92561 -3.11823 0 0 0
56 1 1.91792e-05 8.25541 -2.92381 0 0 0
57 1 1.26048 7.97999 -0.835792 0 0 0
58 1 7.3664e-05 6.08657 -1.95435 0 0 0
59 1 11.345 12.4362 -2.92374 0 0 0
60 1 8.82389 12.4362 -2.92377 0 0 0
61 1 8.8239 11.1064 -3.11815 0 0 0
62 1 6.30281 11.1064 -3.11821 0 0 0
63 1 8.82391 10.2675 -1.95425 0 0 0
64 1 6.30285 10.2675 -1.95431 0 0 0
65 1 7.56339 8.25542 -2.92387 0 0 0
66 1 6.30283 8.74201 -2.24851 0 0 0
67 1 3.7816 8.74198 -2.24851 0 0 0
68 1 5.04226 6.92566 -3.11828 0 0 0
69 1 5.04221 8.25547 -2.92389 0 0 0
70 1 6.3029 7.98032 -0.835857 0 0 0
71 1 3.78165 7.98005 -0.83577 0 0 0
72 1 5.0422 6.08662 -1.95442 0 0 0
73 1 2.52105 6.92568 -3.11836 0 0 0
74 1 3.78166 6.46628 -1.08743 0 0 0
75 1 1.26056 6.46609 -1.08728 0 0 0
76 1 2.52105 4.56127 -2.24862 0 0 0
77 1 2.52111 6.08664 -1.9544 0 0 0
78 1 3.73837 5.72624 0.283513 0.00126407 -0.00514998 0.00258906
79 1 1.16007 5.66647 0.224981 -0.00499271 -0.0154733 -0.00435126
80 1 2.52098 3.79985 -0.83566 0 0 0
81 1 1.69177e-05 4.56099 -2.24821 0 0 0
82 1 1.18886 4.16881 -0.0270765 -0.0011723 -0.000334019 -0.006164
83 1 7.53757e-05 2.28534 -1.08715 0 0 0
84 1 5.39943e-05 3.79877 -0.835581 0 0 0
85 1 1.04356 3.39969 1.34636 -0.00235165 -0.00245325 -0.0056359
86 1 22.6079 1.53471 0.248589 0.000966237 0.00162831 -0.00278785
87 1 16.3872 12.4362 -2.92376 0 0 0
88 1 13.8661 12.4362 -2.92375 0 0 0
89 1 13.8661 11.1064 -3.11812 0 0 0
90 1 11.345 11.1064 -3.11809 0 0 0
91 1 13.8661 10.2675 -1.95423 0 0 0
92 1 11.3449 10.2675 -1.95418 0 0 0
93 1 12.6056 8.25543 -2.92389 0 0 0
94 1 11.345 8.74199 -2.24847 0 0 0
95 1 8.82393 8.74195 -2.24842 0 0 0
96 1 10.0844 6.92559 -3.11823 0 0 0
97 1 10.0844 8.25541 -2.92387 0 0 0
98 1 11.3451 7.98017 -0.835842 0 0 0
99 1 8.82392 7.98023 -0.835636 0 0 0
100 1 10.0844 6.08657 -1.95436 0 0 0
101 1 7.56332 6.9256 -3.1182 0 0 0
102 1 8.82396 6.46631 -1.08721 0 0 0
103 1 6.30269 6.46627 -1.08744 0 0 0
104 1 7.56326 4.56105 -2.24818 0 0 0
105 1 7.56331 6.0866 -1.95431 0 0 0
106 1 8.7055 5.69685 0.271048 -0.000360651 -0.00201519 0.00303939
107 1 6.26154 5.69332 0.180004 -0.00229907 -0.00562355 -0.00477236
108 1 7.56326 3.7996 -0.835484 0 0 0
109 1 5.04235 4.56115 -2.24851 0 0 0
110 1 6.2672 4.20977 -0.030312 0.00316589 0.00181906 -0.00528868
111 1 3.72423 4.17509 -0.0309892 0.001646 0.00151427 9.50739e-05
112 1 5.04218 2.28541 -1.08724 0 0 0
113 1 5.04227 3.79932 -0.835814 0 0 0
114 1 6.14626 3.39484 1.27724 -0.00086845 -0.000562303 -0.00287566
115 1 3.61006 3.44141 1.32433 -0.00854011 0.00254463 -0.00672218
116 1 4.98692 1.51732 0.210738 -0.00168408 0.00194848 -0.00698533
117 1 2.52117 2.2854 -1.08734 0 0 0
118 1 3.6526 1.88124 1.06828 0.00182518 0.010075 -0.00178274
119 1 1.09402 1.88111 1.09172 0.00310532 -0.00430816 0.00484715
120 1 2.48176 25.0784 0.00944906 -0.00032069 -0.000150216 -0.00109702
121 1 2.45201 1.51364 0.234398 -0.0110683 0.0105415 0.00238012
122 1 3.54983 1.13365 2.38956 -0.00319366 -0.0101374 -0.00324615
123 1 1.03925 1.11378 2.35671 -0.000235756 0.00106916 0.00842611
124 1 22.6531 0.00662463 0.0311631 0.00381908 -0.00891157 0.00395028
125 1 21.4295 12.4362 -2.92382 0 0 0
126 1 18.9083 12.4362 -2.9238 0 0 0
127 1 18.9083 11.1064 -3.11824 0 0 0
128 1 16.3872 11.1064 -3.11812 0 0 0
129 1 18.9084 10.2674 -1.95434 0 0 0
130 1 16.3871 10.2675 -1.95425 0 0 0
131 1 17.6477 8.25541 -2.92384 0 0 0
132 1 16.3872 8.74197 -2.24838 0 0 0
133 1 13.8662 8.74201 -2.24855 0 0 0
134 1 15.1267 6.9256 -3.11827 0 0 0
135 1 15.1267 8.25543 -2.9239 0 0 0
136 1 16.3874 7.98005 -0.835793 0 0 0
137 1 13.8661 7.98033 -0.836006 0 0 0
138 1 15.1268 6.08663 -1.95436 0 0 0
139 1 12.6055 6.92562 -3.11825 0 0 0
140 1 13.866 6.46632 -1.08734 0 0 0
141 1 11.3451 6.46603 -1.08727 0 0 0
142 1 12.6056 4.56114 -2.24837 0 0 0
143 1 12.6056 6.08659 -1.95444 0 0 0
144 1 13.7797 5.69953 0.223574 0.00871591 0.00377568 -0.00832662
145 1 11.2426 5.69462 0.197128 -0.00511315 -0.0053614 -0.00720955
146 1 12.6055 3.79932 -0.835594 0 0 0
147 1 10.0844 4.56106 -2.24817 0 0 0
148 1 11.2895 4.17943 -0.0359374 -0.000821309 -0.00115834 0.0107571
149 1 8.77663 4.21002 -0.0369952 0.00414392 0.00550889 0.00540379
150 1 10.0844 2.2855 -1.08701 0 0 0
151 1 10.0845 3.79937 -0.835538 0 0 0
152 1 11.2412 3.40661 1.32293 -0.00253178 -0.00257142 -4.50251e-05
153 1 8.64765 3.43009 1.32579 -0.00667773 -0.00309563 0.0057436
154 1 10.0013 1.52018 0.209227 0.00321542 -0.000337617 -0.00219493
155 1 7.56342 2.28544 -1.08707 0 0 0
156 1 8.69743 1.8969 1.10251 0.00691639 0.000334179 0.00130234
157 1 6.16937 2.00137 1.03597 0.00489791 -0.00636388 -0.00164539
158 1 7.52138 25.08 -0.020544 -0.00218174 -0.00942353 0.000872354
159 1 7.4239 1.49769 0.281849 -0.000699533 -0.00249618 -0.00252815
160 1 8.61052 1.10936 2.40249 0.000225302 -0.00914961 -0.0008863
161 1 6.09818 1.17534 2.38864 -0.000299158 4.05659e-05 0.000724141
162 1 4.97651 0.0208603 -0.0226905 -0.00638655 -0.00356158 0.000137476
163 1 21.4295 11.1064 -3.11823 0 0 0
164 1 21.4294 10.2674 -1.95439 0 0 0
165 1 21.4294 8.74188 -2.24839 0 0 0
166 1 18.9083 8.74193 -2.2484 0 0 0
167 1 20.1689 6.92566 -3.11829 0 0 0
168 1 20.1689 8.25544 -2.9238 0 0 0
169 1 21.4295 7.98008 -0.835879 0 0 0
170 1 18.9083 7.98015 -0.835824 0 0 0
171 1 20.1688 6.08662 -1.95432 0 0 0
172 1 17.6477 6.92561 -3.11822 0 0 0
173 1 18.9082 6.46628 -1.08724 0 0 0
174 1 16.3873 6.46621 -1.08713 0 0 0
175 1 17.6477 4.56111 -2.24833 0 0 0
176 1 17.6477 6.08669 -1.95428 0 0 0
177 1 18.8243 5.65987 0.194507 -0.00426608 0.00385154 -0.00810852
178 1 16.3057 5.61494 0.267601 0.00412037 -0.00360791 -0.000745993
179 1 17.6477 3.799 -0.835635 0 0 0
180 1 15.1267 4.56111 -2.24831 0 0 0
181 1 16.3534 4.11247 -0.0471383 -0.00330674 0.00364542 0.00827185
182 1 13.8154 4.16873 -0.038557 0.00247774 -0.0131014 -0.00412779
183 1 15.1265 2.28533 -1.08716 0 0 0
184 1 15.1266 3.79946 -0.835611 0 0 0
185 1 16.3139 3.3756 1.30381 0.00436875 -0.0052147 0.00815865
186 1 13.7613 3.41288 1.32696 -0.00567077 -0.0075114 -0.00520149
187 1 15.0825 1.49551 0.264155 -0.00886307 0.00313376 0.00719455
188 1 12.6055 2.28542 -1.0871 0 0 0
189 1 13.764 1.87228 1.04055 -0.0037366 0.00267815 -0.000872448
190 1 11.2521 1.92137 1.00761 -0.00193781 -0.00524863 0.00368869
191 1 12.6081 0.0311606 -0.0551877 0.00680221 0.000752256 -0.0022541
192 1 12.5462 1.53057 0.229391 -0.00678418 -0.00292779 -0.00117098
193 1 13.6692 1.15126 2.37892 -0.00546321 -0.004356 -0.00547316
194 1 11.141 1.21668 2.41298 0.0082869 -0.00548999 0.001352
195 1 10.0462 0.0106907 -0.0941809 0.00734326 -0.00200253 0.000183258
196 1 21.4295 6.46615 -1.0874 0 0 0
197 1 21.3708 5.65544 0.206431 0.00509975 -0.00306484 0.0036681
198 1 20.1689 4.56112 -2.24839 0 0 0
199 1 21.4065 4.17201 0.0194441 0.00752211 0.00432959 -0.00160279
200 1 18.8513 4.12358 -0.0148442 -0.000736946 -0.00527189 0.00332376
201 1 20.1688 2.28522 -1.08738 0 0 0
202 1 20.1689 3.79957 -0.835547 0 0 0
203 1 21.2594 3.38393 1.35703 -9.82529e-05 -0.00492439 0.00949381
204 1 18.7426 3.33831 1.36637 0.00381177 -8.29963e-05 0.00446176
205 1 20.1373 1.51317 0.21067 -0.00297267 0.00135757 -0.00195687
206 1 17.6477 2.28538 -1.08723 0 0 0
207 1 18.7698 1.90441 1.02011 0.00713853 -0.000307452 -0.00120357
208 1 16.3202 1.8581 1.04706 -0.00110783 -0.00397499 -0.00137321
209 1 17.671 25.0152 -0.0208586 0.000528576 0.00190308 0.00163648
210 1 17.6085 1.52206 0.239126 -0.000620729 -0.00825454 0.0057551
211 1 18.6521 1.10323 2.40592 -0.000249724 0.00709423 0.00129604
212 1 16.175 1.12219 2.36983 0.000130619 -0.0102005 0.00670178
213 1 15.0668 25.0516 -0.0354448 -0.00190194 -0.000882963 -0.000979237
214 1 21.2597 1.87979 1.07822 -0.0120986 -0.00563436 0.00269328
215 1 21.2114 1.06015 2.40658 -0.00652493 -0.00105836 0.00150349
216 1 20.1479 25.063 -0.0552197 -0.0106154 0.00632984 0.00998717
217 1 3.7816 20.7978 -2.92384 0 0 0
218 1 1.2606 20.7978 -2.9238 0 0 0
219 1 1.26052 19.468 -3.11822 0 0 0
220 1 1.26048 18.6291 -1.95431 0 0 0
221 1 22.6899 16.617 -2.92378 0 0 0
222 1 8.82385 20.7978 -2.9239 0 0 0
223 1 6.30279 20.7978 -2.92382 0 0 0
224 1 6.30277 19.468 -3.11823 0 0 0
225 1 3.78168 19.468 -3.11823 0 0 0
226 1 6.30278 18.6291 -1.95429 0 0 0
227 1 3.78168 18.629 -1.95427 0 0 0
228 1 5.04223 16.617 -2.92387 0 0 0
229 1 3.78164 17.1035 -2.2484 0 0 0
230 1 1.26046 17.1035 -2.24839 0 0 0
231 1 2.52107 15.2872 -3.11836 0 0 0
232 1 2.52105 16.617 -2.92384 0 0 0
233 1 3.78128 16.342 -0.835596 0 0 0
234 1 1.26056 16.3414 -0.83558 0 0 0
235 1 2.52109 14.4482 -1.95443 0 0 0
236 1 22.6899 15.2872 -3.1182 0 0 0
237 1 1.26049 14.8279 -1.08729 0 0 0
238 1 5.29765e-05 12.9227 -2.24841 0 0 0
239 1 22.6899 14.4482 -1.95424 0 0 0
240 1 1.14733 14.0124 0.25064 0.00220694 0.0076317 -0.0084566
241 1 22.69 12.1612 -0.835568 0 0 0
242 1 13.8661 20.7978 -2.92391 0 0 0
243 1 11.345 20.7978 -2.92388 0 0 0
244 1 11.3449 19.468 -3.11822 0 0 0
245 1 8.8239 19.468 -3.11824 0 0 0
246 1 11.3448 18.629 -1.95428 0 0 0
247 1 8.82394 18.6291 -1.95421 0 0 0
248 1 10.0845 16.617 -2.92377 0 0 0
249 1 8.82395 17.1035 -2.24831 0 0 0
250 1 6.30279 17.1035 -2.2485 0 0 0
251 1 7.56338 15.2872 -3.11823 0 0 0
252 1 7.56338 16.617 -2.92381 0 0 0
253 1 8.82374 16.3419 -0.835776 0 0 0
254 1 6.30291 16.3414 -0.835844 0 0 0
255 1 7.56341 14.4483 -1.95429 0 0 0
256 1 5.04226 15.2872 -3.11828 0 0 0
257 1 6.30278 14.8278 -1.08727 0 0 0
258 1 3.78168 14.8277 -1.08742 0 0 0
259 1 5.04229 12.9228 -2.24848 0 0 0
260 1 5.04226 14.4482 -1.9544 0 0 0
261 1 6.27048 14.0566 0.234352 -0.00622115 -0.00774854 -0.00246029
262 1 3.73585 14.0339 0.269802 -0.00213947 0.0129492 -0.00135144
263 1 5.04219 12.1609 -0.835589 0 0 0
264 1 2.52108 12.9227 -2.24849 0 0 0
265 1 3.77278 12.5092 -0.0206477 0.0050937 0.00194246 -0.00548847
266 1 1.23994 12.5289 -0.0512704 0.00302178 0.00975412 0.00241365
267 1 2.52106 10.6469 -1.08716 0 0 0
268 1 2.52114 12.1611 -0.835652 0 0 0
269 1 3.66399 11.7687 1.35432 -0.000940292 -0.00500591 0.00583349
270 1 1.18017 11.7974 1.30607 -0.00286896 -0.00490728 0.00873644
271 1 2.43742 9.85765 0.19188 0.0131067 -0.00281582 0.00390591
272 1 8.7258e-05 10.647 -1.0874 0 0 0
273 1 1.16651 10.223 1.03093 -0.00237548 -0.00671659 0.00568774
274 1 22.6716 8.37079 -0.0318695 -0.00242252 0.0045407 0.00408147
275 1 22.5785 9.8839 0.234191 -0.00257636 0.0016376 0.00398542
276 1 1.07528 9.47827 2.37194 0.00540926 -0.00426908 -0.000994441
277 1 22.5586 7.64326 1.24207 -0.00197872 -0.00415244 0.00400612
278 1 18.9083 20.7978 -2.9238 0 0 0
279 1 16.3872 20.7978 -2.92381 0 0 0
280 1 16.3873 19.468 -3.11823 0 0 0
281 1 13.8661 19.468 -3.11827 0 0 0
282 1 16.3873 18.6291 -1.95436 0 0 0
283 1 13.8661 18.629 -1.95439 0 0 0
284 1 15.1266 16.617 -2.92366 0 0 0
285 1 13.8661 17.1034 -2.24822 0 0 0
286 1 11.345 17.1033 -2.2482 0 0 0
287 1 12.6056 15.2872 -3.11817 0 0 0
288 1 12.6055 16.617 -2.92366 0 0 0
289 1 13.8661 16.342 -0.835785 0 0 0
290 1 11.3452 16.3415 -0.835929 0 0 0
291 1 12.6055 14.4482 -1.95423 0 0 0
292 1 10.0845 15.2872 -3.11817 0 0 0
293 1 11.345 14.8277 -1.08705 0 0 0
294 1 8.82405 14.8277 -1.08717 0 0 0
295 1 10.0844 12.9227 -2.24836 0 0 0
296 1 10.0844 14.4482 -1.95424 0 0 0
297 1 11.2964 14.0925 0.23211 -0.00195309 0.000419652 -0.00552859
298 1 8.72004 14.0156 0.301214 0.00422875 -0.00323458 -0.00772468
299 1 10.0845 12.1609 -0.835519 0 0 0
300 1 7.56334 12.9227 -2.24839 0 0 0
301 1 8.77919 12.5217 -0.0149559 -0.0022963 -0.00283255 0.00705016
302 1 6.26779 12.5345 -0.0547204 -0.00095463 -0.00870115 -0.00792132
303 1 7.56329 10.6471 -1.08724 0 0 0
304 1 7.56318 12.1614 -0.835446 0 0 0
305 1 8.74232 11.7714 1.31754 -0.00316622 -0.00395661 0.00752311
306 1 6.2232 11.7667 1.30335 0.00395741 -0.00514788 9.81198e-05
307 1 7.50717 9.85598 0.231495 0.00110923 -0.0045368 -0.012654
308 1 5.04225 10.6469 -1.08728 0 0 0
309 1 6.19094 10.2493 1.03314 -0.000108698 0.00129633 -0.00334136
310 1 3.67757 10.2627 1.07935 -0.00721923 0.00115698 0.00797443
311 1 5.04432 8.37297 0.00155022 0.0022249 -0.0120994 -0.000112879
312 1 5.01524 9.89657 0.246363 0.00423606 0.00958595 0.00629152
313 1 6.12138 9.46679 2.42575 0.00655202 0.0062834 -0.00422099
314 1 3.56267 9.48809 2.41602 -0.00176652 -0.00271685 -0.00098298
315 1 4.97342 7.66105 1.30915 0.00424194 -0.00705599 -0.00372903
316 1 2.49343 8.36121 -0.0153416 8.87513e-05 0.00627237 0.00486046
317 1 3.64848 7.9332 2.11976 0.0015171 -0.00641879 0.0111908
318 1 1.04606 7.98098 2.05836 0.00256643 -0.00213381 -0.000792376
319 1 2.40386 6.014 1.04738 -0.000386459 -0.0138545 -0.00379169
320 1 2.38775 7.60789 1.29496 0.00289612 -0.0041924 0.00580693
321 1 3.49147 7.22711 3.46311 -0.00430284 0.00161952 -0.000832271
322 1 1.03169 7.17564 3.51407 0.00675023 -0.00540053 -0.00704279
323 1 2.2942 5.30898 2.387 -0.00023377 -0.000261464 -0.00858786
324 1 22.573 6.12969 0.982234 -0.00187909 -0.0107271 0.00131205
325 1 0.989095 5.6737 3.18332 -0.00273769 -0.0090116 -0.00256912
326 1 22.4369 3.77468 2.16948 0.00277074 -0.000740087 -0.00242793
327 1 22.4737 5.32226 2.39096 0.00482687 0.000103836 0.0029127
328 1 0.935296 4.93661 4.5821 0.00522242 0.00144793 0.00799642
329 1 22.4126 3.00548 3.49267 0.00634503 -0.00501206 0.00661353
330 1 21.4294 20.7978 -2.92377 0 0 0
331 1 21.4295 19.468 -3.11821 0 0 0
332 1 18.9083 19.468 -3.11827 0 0 0
333 1 21.4295 18.6291 -1.95424 0 0 0
334 1 18.9083 18.6291 -1.95435 0 0 0
335 1 20.1689 16.617 -2.92379 0 0 0
336 1 18.9083 17.1035 -2.24842 0 0 0
337 1 16.3872 17.1035 -2.24837 0 0 0
338 1 17.6478 15.2872 -3.11818 0 0 0
339 1 17.6478 16.617 -2.92379 0 0 0
340 1 18.9084 16.3417 -0.835631 0 0 0
341 1 16.3873 16.3421 -0.835752 0 0 0
342 1 17.6478 14.4481 -1.95423 0 0 0
343 1 15.1266 15.2872 -3.11819 0 0 0
344 1 16.3872 14.8277 -1.08717 0 0 0
345 1 13.8661 14.8278 -1.08704 0 0 0
346 1 15.1267 12.9228 -2.2485 0 0 0
347 1 15.1267 14.4482 -1.95424 0 0 0
348 1 16.2582 14.0457 0.265925 0.00238242 -0.000221272 0.00362818
349 1 13.8374 14.0323 0.235549 -0.00110932 0.00452387 0.0026644
350 1 15.1267 12.1614 -0.835409 0 0 0
351 1 12.6055 12.9227 -2.24838 0 0 0
352 1 13.8467 12.5407 -0.0431506 -0.00422604 -0.00287799 -0.00413958
353 1 11.3061 12.5554 -0.0428513 -0.00360634 0.00054486 -0.00294914
354 1 12.6057 10.647 -1.08707 0 0 0
355 1 12.6057 12.1612 -0.83547 0 0 0
356 1 13.7476 11.7266 1.32778 -0.00142125 -0.00761549 -0.00302015
357 1 11.2052 11.7914 1.32346 0.00198791 0.00526404 -0.00223349
358 1 12.5922 9.91564 0.269728 -0.00944062 0.00620494 0.00267778
359 1 10.0844 10.647 -1.08709 0 0 0
360 1 11.2477 10.2609 1.09925 -0.00195339 -0.0120297 0.00102311
361 1 8.72469 10.2699 1.037 -0.00321624 0.00166265 0.00145325
362 1 10.0733 8.38383 -0.0309147 0.00741379 -0.00621164 -0.00385404
363 1 10.0405 9.91994 0.252474 0.00715259 -0.00502719 -0.00691627
364 1 11.1265 9.51118 2.49095 0.00711492 -0.00284806 -0.000593649
365 1 8.6269 9.5199 2.38102 0.00633304 -0.00413623 -0.00188355
366 1 9.98835 7.60121 1.34155 -0.00723968 -0.00423399 0.00113596
367 1 7.52488 8.37171 -0.0800918 0.00248934 0.00179713 0.000509291
368 1 8.70657 7.9967 2.11576 0.00729774 -0.00129328 0.00437392
369 1 6.13396 8.01289 2.11101 -0.00218436 -0.00767598 0.00207951
370 1 7.46096 6.10993 1.04021 0.00206267 0.00470386 -0.00300682
371 1 7.45895 7.63265 1.31081 0.0029472 -0.00541502 0.00625456
372 1 8.53261 7.22668 3.47537 0.00543436 0.00181403 0.00345311
373 1 6.04506 7.20129 3.5326 -0.00264047 0.00497609 -0.0083106
374 1 7.41453 5.3284 2.38918 0.00331529 0.00422532 -0.00256342
375 1 4.95404 6.11898 1.08617 0.00652253 -0.00612925 -0.00166319
376 1 6.06411 5.69335 3.26566 0.00577432 0.00164496 0.00100856
377 1 3.5777 5.65482 3.19164 -0.00217646 -0.0044999 -0.00618673
378 1 4.8356 3.78655 2.13172 -0.00312683 -0.00326177 6.3496e-05
379 1 4.898 5.33182 2.43741 -0.0034239 -0.00856869 -0.00267151
380 1 5.92918 4.9505 4.55077 0.000404723 -0.0102738 0.0053262
381 1 3.49407 4.96511 4.5442 0.00276753 -0.00778487 0.00428821
382 1 4.73331 3.04538 3.46666 -0.00190818 -0.00377326 -0.00281854
383 1 2.29657 3.8005 2.15485 0.0080139 -0.00293656 0.00323821
384 1 3.4492 3.40582 4.27666 0.00250095 -0.0066009 -0.000240763
385 1 0.985945 3.37284 4.3114 -0.00130703 -0.00749528 -0.00293629
386 1 2.20594 1.54549 3.2593 -0.00326401 -0.00439668 -0.00151375
387 1 2.24527 3.03319 3.48925 3.4144e-05 0.00362163 0.00142479
388 1 3.48935 2.6714 5.60075 0.0101458 0.000377455 -0.00332818
389 1 0.921502 2.62382 5.64724 0.00406072 0.00182264 -0.00299113
390 1 2.19887 0.769065 4.5586 -0.00522959 1.04775e-05 0.00795996
391 1 22.4305 1.45497 3.18163 0.0021784 -0.00242038 -0.00673293
392 1 0.921395 1.16335 5.34148 0.00780308 -0.00648306 0.00850718
393 1 22.3653 0.750582 4.60987 0.00712433 -0.00526772 0.00254836
394 1 0.850791 0.383486 6.74354 -0.00352236 -0.00637688 -0.00270145
395 1 21.4294 17.1035 -2.24829 0 0 0
396 1 21.4292 16.3419 -0.835453 0 0 0
397 1 20.1689 15.2872 -3.11822 0 0 0
398 1 21.4292 14.8277 -1.08706 0 0 0
399 1 18.9084 14.8279 -1.08704 0 0 0
400 1 20.1689 12.9228 -2.2485 0 0 0
401 1 20.1689 14.4482 -1.95425 0 0 0
402 1 21.3246 14.1176 0.224952 -0.00165223 0.00144296 -0.0107215
403 1 18.8205 14.0428 0.267044 0.00474636 0.000987174 0.00251308
404 1 20.1689 12.1612 -0.835338 0 0 0
405 1 17.6478 12.9226 -2.24827 0 0 0
406 1 18.8881 12.5473 -0.0323719 0.00261321 0.00433035 -0.00300995
407 1 16.372 12.5539 -0.0157537 0.00381925 -0.00686331 0.00579388
408 1 17.6478 10.6469 -1.08712 0 0 0
409 1 17.6478 12.161 -0.835314 0 0 0
410 1 18.8008 11.7441 1.37305 -0.00359025 -0.00372933 0.00573429
411 1 16.2627 11.7686 1.30905 -0.00428153 0.00398793 -0.00854131
412 1 17.5616 9.90773 0.230734 0.00348023 -0.00925588 0.00511057
413 1 15.1266 10.6469 -1.08706 0 0 0
414 1 16.2591 10.2479 1.02467 -0.000590501 0.00329881 0.00666331
415 1 13.7909 10.2409 1.08802 -0.00297155 -0.00178112 0.00257834
416 1 15.0916 8.35677 -0.026402 0.00368521 -0.00837455 0.00356568
417 1 15.0696 9.86225 0.258025 -0.00124852 0.00388788 0.00702827
418 1 16.2345 9.46669 2.41139 0.00399775 -0.00451418 -0.00316586
419 1 13.6539 9.40035 2.4157 0.00335978 -0.000307214 0.000376185
420 1 15.0692 7.60725 1.34659 0.00164633 -0.00073835 -0.00685306
421 1 12.5772 8.40374 -0.0244555 0.00201534 -0.00561229 0.00672785
422 1 13.776 7.91588 2.14253 -0.000179412 -0.000462431 -0.00620036
423 1 11.2117 7.94844 2.16659 0.000814906 0.00208155 -0.00102679
424 1 12.5356 6.09292 1.0329 -0.000636841 -0.00433311 -0.00403024
425 1 12.5016 7.5622 1.34266 -0.00448309 0.00446034 -0.00256486
426 1 13.6591 7.17499 3.46228 0.00403707 -0.00567741 -0.00342508
427 1 11.1486 7.13586 3.49691 0.00681092 -0.0053651 -0.00307596
428 1 12.4145 5.25941 2.36095 0.00884741 0.0114953 0.00204189
429 1 9.99553 6.04981 1.02065 -0.000713737 -0.00386062 0.00353485
430 1 11.143 5.66719 3.16742 0.00469646 0.00243197 -0.00148414
431 1 8.63586 5.67008 3.18404 -0.00583546 -0.00803085 0.00694593
432 1 9.89593 3.76628 2.0864 0.00445053 -0.00835698 0.000610223
433 1 9.90329 5.30776 2.37993 0.00271918 -0.00307242 0.00593266
434 1 11.0528 4.95557 4.58676 -0.00677565 -0.00274248 0.00179078
435 1 8.54292 4.9225 4.54715 0.00449722 0.0109583 -0.000349198
436 1 9.81966 3.05839 3.48008 0.00185052 -0.00550803 0.00294614
437 1 7.40773 3.79965 2.12665 0.000695319 -0.00279006 -0.000790374
438 1 8.53369 3.39877 4.31987 0.0101809 0.00254683 -0.00710548
439 1 5.98501 3.4004 4.28911 -0.00238708 0.00198478 -0.00727563
440 1 7.34691 1.51365 3.21788 -0.000627093 0.000979727 0.00497753
441 1 7.3748 3.0101 3.43801 -0.00693117 -4.71067e-05 0.00139558
442 1 8.51223 2.68994 5.67239 0.00691877 -0.000495296 0.00544633
443 1 6.04455 2.65063 5.61175 0.00760459 -0.0115927 -0.00107848
444 1 7.32543 0.761251 4.54304 0.0111413 -0.00792129 -0.00516466
445 1 4.74094 1.57886 3.22299 0.00570111 0.00662579 0.00757511
446 1 6.0393 1.14105 5.38744 0.00977942 -0.00556818 0.00736548
447 1 3.46783 1.15215 5.40064 -0.00624369 0.00393687 -0.00561378
448 1 4.73564 0.764736 4.59754 -0.000901903 -0.00590589 0.0057689
449 1 5.89435 0.404708 6.72502 0.00782171 -0.00148437 -0.00220731
450 1 3.38035 0.33504 6.72685 0.00680324 0.00153303 0.00756038
451 1 21.3641 12.575 0.00913829 0.00216067 0.000932767 0.00565652
452 1 21.2947 11.7479 1.2678 -0.000820117 0.00472273 0.00432544
453 1 20.1689 10.6469 -1.0873 0 0 0
454 1 21.2976 10.1922 1.08218 -0.000670701 -0.000859882 0.000936213
455 1 18.7798 10.2184 1.07857 0.00657869 -0.00578502 0.00636701
456 1 20.1191 8.3354 -0.0433986 -0.00406017 -0.00168619 -0.00155214
457 1 20.0412 9.87497 0.250456 0.0075726 -0.00631447 0.000739348
458 1 21.2698 9.45389 2.39692 0.00197196 0.000146219 -0.000251852
459 1 18.7248 9.42806 2.4238 0.0100076 0.00274647 -0.00162806
460 1 20.0139 7.58283 1.29675 -0.00754394 0.00172072 -0.00196488
461 1 17.6103 8.32955 0.0138108 0.00517211 -0.00390683 -0.00792173
462 1 18.7668 7.92375 2.14659 0.00225318 -0.00497578 -0.00562785
463 1 16.2198 7.9644 2.15249 0.000470356 3.90511e-05 -0.00776142
464 1 17.5313 6.0551 1.07016 0.0048979 0.000848995 0.0072876
465 1 17.5137 7.55371 1.33761 0.00270798 -0.0120543 -0.0091587
466 1 18.5885 7.14796 3.48188 0.00863525 0.00517217 0.00782049
467 1 16.1522 7.22078 3.50605 0.00558434 -0.000156261 0.0056778
468 1 17.4279 5.22308 2.42004 0.00562886 -0.00441016 -0.000971947
469 1 14.9891 6.06306 1.05112 -0.000574241 -0.000892165 0.00934997
470 1 16.1684 5.67029 3.24919 -0.0065798 -0.00475129 -0.00115827
471 1 13.6564 5.6698 3.18663 0.00539742 -0.00872047 0.0155539
472 1 15.0084 3.7776 2.10611 0.00665015 -0.0106243 0.000216281
473 1 14.9493 5.31244 2.35611 -0.00297418 -0.00198674 0.00474132
474 1 16.0542 5.00268 4.60633 -0.00157926 -0.00800252 0.00206101
475 1 13.5789 4.93336 4.54585 -0.00127844 -0.00420261 -0.00156975
476 1 14.8584 3.01464 3.47295 -0.00193988 -0.0022098 -0.00309171
477 1 12.4409 3.76156 2.11318 0.000472745 0.0035531 -0.000355476
478 1 13.6062 3.41045 4.27082 0.00223125 -0.00580812 -0.00282895
479 1 11.0409 3.43722 4.27101 -0.00112953 -0.00607717 -0.00209748
480 1 12.3137 1.52923 3.22112 0.0133946 -0.00122132 0.00165174
481 1 12.3602 2.98786 3.47854 0.0017886 0.00145479 0.00423903
482 1 13.5436 2.65545 5.59833 0.00227888 0.000185538 -0.0023166
483 1 10.9588 2.69327 5.679 -0.00351008 0.00882654 0.00348971
484 1 12.3135 0.747084 4.58348 -0.00297208 0.00282019 0.00543956
485 1 9.80993 1.52983 3.23425 0.00474329 -0.00892127 -0.00114536
486 1 11.014 1.17101 5.46994 0.00577037 -0.00134495 0.00474246
487 1 8.52036 1.16384 5.35422 0.00215695 0.00477215 0.00808429
488 1 9.84365 0.770801 4.57072 0.0048791 -0.00595343 -0.00455181
489 1 10.9496 0.452995 6.80299 0.00370795 -0.00171647 0.00442497
490 1 8.41847 0.401593 6.76041 0.00460926 -0.00109257 -0.00221101
491 1 21.2534 7.95399 2.11224 0.00389954 -0.00579605 -0.00334569
492 1 21.1996 7.21851 3.43052 0.00560752 0.00256406 0.00683903
493 1 20.065 5.98199 1.00664 0.00950431 -0.00286604 0.00752882
494 1 21.2136 5.68634 3.20679 -0.00084798 0.00112483 0.00145759
495 1 18.6686 5.64578 3.22303 0.0102239 0.00578574 0.00828195
496 1 19.9826 3.72631 2.1381 0.00276965 -0.00603438 -0.00344914
497 1 19.9556 5.22408 2.38606 -0.00715783 -0.00623963 -0.0010285
498 1 21.1214 4.96906 4.56409 0.00399427 -0.00415147 -0.00342003
499 1 18.5722 4.94087 4.60875 -0.00424284 -0.00657832 0.000332234
500 1 19.8981 3.01916 3.51945 -0.00305133 -0.00314891 0.000471472
501 1 17.4441 3.73633 2.14677 -0.00458622 -0.00203593 -0.00942929
502 1 18.5728 3.42953 4.28896 -0.000685497 -0.00782229 0.000238743
503 1 16.1197 3.41719 4.34522 -0.00108854 -0.00174931 -0.00171747
504 1 17.3562 1.43231 3.24229 -0.00447356 0.00487403 0.000801473
505 1 17.3792 2.95257 3.47703 0.00686182 -0.000792511 -0.00494537
506 1 18.5491 2.64951 5.63679 -0.00492447 0.00385505 0.0106223
507 1 16.0146 2.65511 5.63983 0.00595068 -0.00690356 0.000591989
508 1 17.348 0.75103 4.61198 0.000257744 -0.0040713 -0.00225595
509 1 14.8581 1.56492 3.24644 1.25734e-06 0.0086863 -0.00639359
510 1 16.0305 1.11001 5.38376 0.00622549 0.00112835 0.000275427
511 1 13.5586 1.15805 5.3826 0.0004075 -0.00244494 0.00104602
512 1 14.7608 0.796692 4.53305 0.00214778 -0.00464137 -0.00632378
513 1 15.9343 0.394934 6.76477 -0.00272407 0.000977978 0.00736579
514 1 13.4618 0.431851 6.77781 0.00116635 -0.00886661 0.00454959
515 1 21.1243 3.49901 4.29288 0.00115194 0.00514207 0.00221291
516 1 21.0327 2.67738 5.66664 0.0024481 -0.0163635 -0.0014736
517 1 19.8585 1.51356 3.17503 -0.00014274 -0.0013527 -0.00598546
518 1 21.0952 1.19987 5.42272 -0.0068171 -0.00783829 -0.00480374
519 1 18.6035 1.12921 5.40503 0.00168312 -0.0066758 -0.00513255
520 1 19.8877 0.822199 4.60314 0.00455537 -0.00581722 0.000673974
521 1 21.0343 0.421416 6.76845 0.000409584 -0.000205895 -0.00667717
522 1 18.4445 0.44001 6.78055 0.00108087 -0.00122017 0.000166903
523 1 22.69 23.6488 -3.1182 0 0 0
524 1 1.26056 24.7036 -0.835498 0 0 0
525 1 22.6899 22.8098 -1.95431 0 0 0
526 1 5.0422 23.6488 -3.11826 0 0 0
527 1 6.30278 24.7036 -0.835693 0 0 0
528 1 3.78173 24.7028 -0.835821 0 0 0
529 1 5.04214 22.8098 -1.95435 0 0 0
530 1 2.52108 23.6488 -3.11824 0 0 0
531 1 3.78164 23.1893 -1.08724 0 0 0
532 1 1.26054 23.1894 -1.08733 0 0 0
533 1 2.52113 21.2843 -2.24835 0 0 0
534 1 2.52113 22.8098 -1.95435 0 0 0
535 1 3.68272 22.4318 0.31556 0.00389095 -0.00429307 -0.00779043
536 1 1.19955 22.4243 0.308808 -0.00555504 -0.00145287 -0.00414523
537 1 2.52098 20.5221 -0.835704 0 0 0
538 1 7.78787e-06 21.2844 -2.24848 0 0 0
539 1 1.24218 20.928 0.0106826 -0.00301203 0.00543005 0.000386079
540 1 0.00011327 19.0086 -1.08707 0 0 0
541 1 0.000229181 20.5223 -0.835776 0 0 0
542 1 1.10051 20.1071 1.36708 -0.000612036 -0.007108 0.005625
543 1 22.5732 18.2482 0.206506 -0.00429749 0.000356008 -0.00428082
544 1 10.0844 23.6488 -3.1182 0 0 0
545 1 11.345 24.7038 -0.835519 0 0 0
546 1 8.82409 24.7034 -0.835562 0 0 0
547 1 10.0845 22.8099 -1.95435 0 0 0
548 1 7.56337 23.6488 -3.11823 0 0 0
549 1 8.82392 23.1892 -1.08722 0 0 0
550 1 6.30274 23.1892 -1.08744 0 0 0
551 1 7.56338 21.2843 -2.24843 0 0 0
552 1 7.56336 22.8098 -1.95437 0 0 0
553 1 8.80679 22.4433 0.246758 -0.000531281 0.00457503 0.00272552
554 1 6.25163 22.4063 0.237389 -0.00107985 -0.00884318 0.000546331
555 1 7.56318 20.5224 -0.835699 0 0 0
556 1 5.04216 21.2843 -2.24854 0 0 0
557 1 6.2587 20.8813 -0.0321389 0.00199489 -0.0043011 0.00711542
558 1 3.74401 20.9197 -0.0752285 0.0047401 -0.00700578 0.00192748
559 1 5.04225 19.0084 -1.08727 0 0 0
560 1 5.04229 20.5224 -0.835853 0 0 0
561 1 6.20628 20.1282 1.30084 -0.00110797 -0.00239563 0.00977047
562 1 3.61409 20.1767 1.26461 0.00162784 -0.00703439 -0.00467769
563 1 4.98278 18.2308 0.218685 -0.00859227 -0.00731642 0.00147473
564 1 2.52092 19.0086 -1.08715 0 0 0
565 1 3.61997 18.6026 1.03831 -0.00714629 -0.000454146 0.00101916
566 1 1.11281 18.5926 1.05761 -0.00679414 0.000178245 0.00435418
567 1 2.46644 16.6768 -0.0278986 0.00784586 -0.000943975 -0.0034049
568 1 2.45403 18.2145 0.17401 -0.00304744 -0.00742139 -0.00505193
569 1 3.55915 17.8402 2.40408 -5.17695e-05 -0.00022083 -0.00515794
570 1 1.04562 17.8148 2.42132 -0.0108985 -0.00364476 0.00276234
571 1 2.37291 15.9602 1.39061 -0.000622758 0.00612621 -0.000994741
572 1 22.65 16.7259 -0.0452109 0.00245482 0.000938825 -0.0017374
573 1 1.06372 16.3248 2.16175 0.00109118 -0.00526098 -0.00398903
574 1 22.5905 14.4603 1.02882 -0.000653986 0.000801966 -0.000263867
575 1 22.5583 15.9466 1.31187 -0.00277257 -0.00276866 -0.00266369
576 1 1.01075 15.5236 3.49772 0.00831809 -0.00790448 -0.00324739
577 1 22.4876 13.7054 2.42033 -0.00500472 -0.00337255 -0.00187028
578 1 15.1266 23.6488 -3.1183 0 0 0
579 1 16.3873 24.7033 -0.835757 0 0 0
580 1 13.8659 24.7036 -0.835615 0 0 0
581 1 15.1266 22.8098 -1.95438 0 0 0
582 1 12.6056 23.6488 -3.11825 0 0 0
583 1 13.8659 23.1894 -1.08727 0 0 0
584 1 11.3451 23.1893 -1.08734 0 0 0
585 1 12.6056 21.2843 -2.24849 0 0 0
586 1 12.6056 22.8099 -1.95432 0 0 0
587 1 13.8167 22.421 0.287332 0.000572631 -0.000229203 -0.00722564
588 1 11.3009 22.4321 0.258433 0.0093976 -0.0012876 0.003572
589 1 12.6053 20.5222 -0.835825 0 0 0
590 1 10.0844 21.2844 -2.24857 0 0 0
591 1 11.3244 20.9225 0.00240871 -0.00555783 -0.00138155 -0.00440667
592 1 8.75557 20.8782 0.000835616 -0.00519341 -0.000594107 -0.00226905
593 1 10.0845 19.0087 -1.08714 0 0 0
594 1 10.0846 20.5225 -0.83564 0 0 0
595 1 11.2275 20.075 1.30294 -0.00640733 -0.00643521 -0.00251996
596 1 8.70066 20.1455 1.34002 0.00173553 -0.00281319 -0.00343138
597 1 10.0872 18.2087 0.235324 -0.0023485 -0.00128995 0.00496376
598 1 7.56331 19.0086 -1.08726 0 0 0
599 1 8.77066 18.6216 1.01106 -0.00525239 -0.00195437 -0.0038627
600 1 6.23685 18.6258 1.05918 0.00128094 -0.00303046 0.0023895
601 1 7.53408 16.7001 0.0220285 0.00198264 0.00915198 0.00140573
602 1 7.50203 18.2383 0.235483 -0.00217312 0.00412058 -0.00878845
603 1 8.63437 17.8481 2.41943 0.0116919 -0.00569842 -0.00335573
604 1 6.10651 17.8608 2.39541 -0.00238395 0.00246764 0.0002979
605 1 7.40598 15.9793 1.36678 -0.00123186 0.00705255 0.00243493
606 1 5.01159 16.7071 -0.00894502 0.00342742 -0.0111865 -0.00202976
607 1 6.12147 16.338 2.15625 0.000286029 -0.00519421 -0.00110353
608 1 3.60809 16.3312 2.15685 -0.00390163 0.00624754 0.00351137
609 1 4.92802 14.4343 1.11339 -0.0023892 0.00122051 -0.003928
610 1 4.89678 15.915 1.3355 -0.00129968 -0.00367168 0.00436536
611 1 6.11768 15.5429 3.51251 -0.00263648 0.000378522 0.00222132
612 1 3.58544 15.6253 3.44155 -0.00442557 -0.00258418 0.00368932
613 1 4.86685 13.6617 2.45508 0.0069368 0.00258954 0.00383824
614 1 2.40927 14.4624 1.03982 -0.00379509 -0.00155616 -0.00251735
615 1 3.5897 14.0616 3.17702 0.00454972 0.00405147 -0.00468314
616 1 1.05513 14.0104 3.24355 -0.00171789 -0.0083977 -0.0036086
617 1 2.41222 12.1485 2.11424 -0.00450923 0.00187453 0.00477646
618 1 2.31668 13.6253 2.3725 0.00468882 -0.00320695 -0.0057018
619 1 3.52831 13.3261 4.55648 0.00161577 0.00653117 0.00351303
620 1 0.983982 13.3027 4.52894 -0.00559907 -0.00613598 0.000387467
621 1 2.26427 11.3659 3.4645 -0.00137179 -0.00177036 -0.00124639
622 1 22.5555 12.1273 2.11949 0.00108511 0.00185119 -0.00378224
623 1 1.00457 11.747 4.27612 0.00156765 -0.00397324 -0.00230902
624 1 22.4862 9.78367 3.20856 -0.00046114 -0.00524494 0.00825211
625 1 22.4395 11.3684 3.48275 0.00657161 -0.00394069 -0.00151672
626 1 0.927529 10.9967 5.63849 0.00646768 -0.00346134 -0.000160318
627 1 22.4473 9.0967 4.56364 -0.0143254 -0.00280547 0.00221213
628 1 20.1689 23.6488 -3.11824 0 0 0
629 1 21.4294 24.7031 -0.835536 0 0 0
630 1 18.9083 24.7037 -0.835697 0 0 0
631 1 20.1689 22.8098 -1.95426 0 0 0
632 1 17.6478 23.6488 -3.11824 0 0 0
633 1 18.9083 23.1894 -1.08747 0 0 0
634 1 16.3872 23.1893 -1.08751 0 0 0
635 1 17.6478 21.2843 -2.24837 0 0 0
636 1 17.6478 22.8098 -1.9544 0 0 0
637 1 18.7837 22.4118 0.20847 0.00174514 -0.00301728 -0.00304415
638 1 16.3417 22.4378 0.251255 -0.00372868 -0.00201932 0.00670202
639 1 17.6479 20.5225 -0.83579 0 0 0
640 1 15.1266 21.2844 -2.24856 0 0 0
641 1 16.3551 20.9585 -0.0340033 -0.00188088 -0.00242495 -0.00326399
642 1 13.8617 20.8932 -0.0269196 -0.00133252 0.000161256 -0.0025894
643 1 15.1268 19.0086 -1.08743 0 0 0
644 1 15.1266 20.5229 -0.835766 0 0 0
645 1 16.2661 20.149 1.31728 -0.00980216 0.00898697 -0.000583379
646 1 13.7299 20.1462 1.31422 -0.00218605 0.0057441 0.00309325
647 1 15.0933 18.2488 0.199841 0.00411061 -0.00226483 -0.00100793
648 1 12.6054 19.0086 -1.0872 0 0 0
649 1 13.7425 18.6269 1.02257 -0.0171048 -0.00707208 0.00193109
650 1 11.2538 18.5955 1.09473 0.000264081 -0.00778376 -0.000415175
651 1 12.5969 16.7176 -0.0356953 -0.00473988 -0.00333954 0.000828421
652 1 12.5318 18.2109 0.226785 -0.0042486 -0.00800603 -0.000919279
653 1 13.6752 17.8974 2.39193 -0.000925452 -0.00223882 -0.00470597
654 1 11.1629 17.8448 2.44391 0.000136183 -0.00120943 0.00304429
655 1 12.55 16.0072 1.27733 0.00773155 0.00383129 0.0034917
656 1 10.0682 16.7149 -0.000616535 -0.000494595 -0.00344473 0.000313107
657 1 11.2224 16.3532 2.13701 -0.000324378 -0.00159239 -0.00464628
658 1 8.68476 16.3286 2.16339 0.00521454 -0.00646213 -0.00617036
659 1 9.98364 14.401 1.02483 0.00288872 0.00283341 -0.00475657
660 1 9.98769 15.932 1.33175 0.00345105 0.00521863 0.000673304
661 1 11.1491 15.6293 3.45073 -0.00387212 -0.0172536 0.00753479
662 1 8.55223 15.5439 3.50115 -0.0134618 -0.0106684 0.0017084
663 1 9.89265 13.7213 2.39269 -0.00960581 -0.00680536 0.00390699
664 1 7.41818 14.4366 1.0906 -0.00243106 -0.00436437 0.0024074
665 1 8.61054 14.0386 3.22221 0.00432413 -0.00155977 -0.00230484
666 1 6.10017 14.0274 3.23063 0.00585901 0.00198256 0.00352767
667 1 7.40138 12.1857 2.17787 0.00721402 -0.0091002 0.00437368
668 1 7.38203 13.6466 2.41437 0.00342603 -0.0136728 4.39292e-05
669 1 8.54937 13.297 4.58137 0.00719979 -0.000135318 0.0029481
670 1 6.00869 13.3187 4.60044 -0.00370926 -0.00489503 0.00408546
671 1 7.33264 11.3757 3.48605 0.00457677 -0.00110431 -0.00353097
672 1 4.9001 12.2309 2.11897 0.00102965 -0.000198422 -0.00144659
673 1 5.99126 11.7335 4.33454 0.00395408 0.000852719 0.00840749
674 1 3.48581 11.7656 4.2963 -0.000360895 0.00672036 0.00153111
675 1 4.83933 9.84284 3.2207 -0.00192033 -0.00145371 0.00446749
676 1 4.83685 11.3787 3.54081 -0.00225187 -0.00094463 -0.0121127
677 1 5.96809 11.0501 5.63826 0.0100778 -0.000946614 -0.00635756
678 1 3.45179 11.0395 5.67193 -0.00317897 0.00465453 0.00337117
679 1 4.75658 9.13461 4.55613 -0.00428583 -0.00177973 0.00852758
680 1 2.28176 9.89031 3.23925 0.00114252 -0.00736401 -0.00394327
681 1 3.46272 9.53048 5.4193 -0.00456128 -0.00716663 0.00254865
682 1 0.958004 9.44126 5.4506 0.00956534 -0.010772 0.00308218
683 1 2.25732 7.60821 4.27679 0.00944428 -0.0098514 0.00371912
684 1 2.24956 9.13628 4.5822 0.0041021 -0.00568687 0.00589687
685 1 3.36253 8.80654 6.82789 0.0100076 0.000335561 0.00110352
686 1 0.87742 8.79127 6.74125 -0.00285349 -0.00484194 0.0077641
687 1 2.15423 6.81836 5.64617 -0.00713077 0.00107365 0.00637194
688 1 22.4297 7.5836 4.26978 0.00911692 -0.00110706 -0.00751515
689 1 0.898602 7.24401 6.48695 0.012589 0.00967484 -0.00167697
690 1 22.3622 5.37036 5.4024 0.00187526 0.00468856 -0.000926396
691 1 22.3363 6.86644 5.60512 -0.00203985 0.00644499 -0.0034826
692 1 0.774277 6.48432 7.76288 0.00147169 0.00260881 0.00294513
693 1 22.2512 4.54193 6.75117 -0.00392684 -0.00308663 -0.00318417
694 1 21.4295 23.1893 -1.08707 0 0 0
695 1 21.3475 22.44 0.243446 -0.00125321 -0.00462547 -0.00110053
696 1 20.1689 21.2844 -2.24844 0 0 0
697 1 21.4007 20.9196 0.000414352 -0.000837999 -0.00206463 0.00337474
698 1 18.8709 20.8949 -0.0372006 -0.00616425 -0.00278832 0.00144739
699 1 20.1687 19.0088 -1.0872 0 0 0
700 1 20.1688 20.5231 -0.835609 0 0 0
701 1 21.2998 20.1446 1.34722 0.00332691 -0.00789397 0.00258877
702 1 18.7642 20.1755 1.30532 -0.00791612 -0.00641484 -0.00301994
703 1 20.0946 18.2408 0.268944 -0.00297032 0.00927708 0.00359724
704 1 17.648 19.0087 -1.08707 0 0 0
705 1 18.812 18.5845 1.08227 -0.00426706 0.000582555 -0.0011791
706 1 16.274 18.6005 1.07224 0.00136053 8.71785e-05 -0.00440908
707 1 17.6528 16.7136 -0.0419021 -0.00119735 0.0025912 -0.000707418
708 1 17.5831 18.2351 0.242796 0.00519894 -0.00207183 -0.00207335
709 1 18.7273 17.8173 2.41228 0.002882 -0.000875527 -0.000979942
710 1 16.1996 17.8501 2.39724 -0.000723831 -0.00334929 -0.00582768
711 1 17.5243 15.9294 1.32911 0.00791398 0.0036662 -0.00210641
712 1 15.0845 16.6552 -0.00784934 -0.00344475 0.000415463 0.00350763
713 1 16.3006 16.2887 2.15988 -0.00024506 -0.00128898 -0.0013196
714 1 13.8242 16.3845 2.10713 -0.000296226 -1.6528e-05 0.00840363
715 1 15.0351 14.3821 1.01388 -0.00401513 -0.00809332 0.00416688
716 1 15.0969 15.8651 1.28714 0.00229814 -0.00059405 -0.00297989
717 1 16.1346 15.5672 3.5031 0.00851252 -0.00829088 -0.00106558
718 1 13.6747 15.6588 3.47306 -0.00204992 0.00170728 -0.00059376
719 1 14.9585 13.6734 2.34923 -0.000512093 -0.000408387 0.000391331
720 1 12.5693 14.4235 1.0815 -0.00120364 -0.00141056 -0.00149382
721 1 13.696 14.0706 3.21757 0.000170024 -0.00429781 -0.000404273
722 1 11.1449 14.088 3.18544 0.00206197 -0.000181672 0.00277731
723 1 12.4153 12.1484 2.1374 0.00116656 -0.00241787 -0.00262931
724 1 12.4417 13.6765 2.44788 -0.00410084 -0.0036059 0.00344361
725 1 13.6117 13.2625 4.57756 -0.00696008 -0.00648946 -7.40928e-05
726 1 11.0748 13.3149 4.54967 0.00366551 -0.00248626 0.00399768
727 1 12.3629 11.3969 3.45093 0.00263859 -0.0148101 0.0103734
728 1 9.9252 12.1149 2.16865 0.0119665 0.00182417 0.00276455
729 1 11.0737 11.7775 4.26217 0.00460863 -0.00413783 -0.00162381
730 1 8.56221 11.7271 4.27034 -0.00275373 -0.00519417 -0.00177653
731 1 9.84268 9.80597 3.22579 0.00173863 0.00388458 0.00271775
732 1 9.79727 11.3328 3.47367 0.000382477 0.00179802 0.00771055
733 1 10.9331 10.9594 5.63627 0.00393411 -0.00515374 0.00400652
734 1 8.36487 10.9756 5.66199 0.000313501 -0.00164242 0.00252871
735 1 9.79371 9.08693 4.58707 -0.00420418 -0.00348372 0.0120227
736 1 7.35297 9.85067 3.22636 0.000632902 -0.00127459 -0.0045765
737 1 8.42739 9.47695 5.41621 -0.00244103 0.00238182 -0.00656796
738 1 5.90924 9.44867 5.39354 0.00512021 0.0050025 -0.00144738
739 1 7.29519 7.58691 4.32894 0.00126802 -0.00565005 -0.00699613
740 1 7.2358 9.07756 4.59121 0.0070827 -0.00294067 -0.00404927
741 1 8.37034 8.74522 6.82835 -0.00550037 -0.00192133 -0.00205293
742 1 5.83915 8.79889 6.75856 0.00451924 -0.00614146 -0.00844173
743 1 7.18215 6.85655 5.68483 0.00870898 -0.00341289 0.00380121
744 1 4.73057 7.58879 4.30294 0.00213313 0.00322625 0.00762748
745 1 5.89999 7.26147 6.5185 -0.00254683 -0.0124967 0.0040056
746 1 3.33732 7.23322 6.52755 -0.00778088 -3.29763e-05 -0.000810589
747 1 4.66712 5.32484 5.42985 -0.00760672 -0.00520472 -0.00276807
748 1 4.64134 6.79807 5.70101 0.00246561 0.00160725 -0.00303514
749 1 5.81096 6.53967 7.85385 0.00460119 -0.000544573 0.000950169
750 1 3.28508 6.45468 7.88276 0.00474013 0.00565192 -0.000315091
751 1 4.64551 4.55078 6.7479 0.00301093 -0.00532774 0.00243068
752 1 2.19383 5.2938 5.29817 -0.00490496 -0.00333719 -0.00281825
753 1 3.2723 4.98188 7.56907 0.00440275 0.00346523 0.00579813
754 1 0.781056 4.9318 7.55047 0.00835441 -0.000712702 -0.00868805
755 1 2.16126 3.02095 6.4623 0.00457209 0.00342024 -0.00771929
756 1 2.12963 4.56549 6.66264 -5.57226e-06 -0.00172258 -0.010085
757 1 3.22035 4.21617 8.90673 -0.00427027 0.00343225 -0.00595827
758 1 0.784144 4.20501 8.86835 -0.00557839 -0.00558663 0.00515198
759 1 2.11906 2.2845 7.79467 0.00653241 -0.0051247 0.00131527
760 1 22.2959 3.05923 6.441 -0.000939155 0.000269134 0.0027292
761 1 0.78542 2.66865 8.61346 -0.00485159 -0.00623993 0.00339773
762 1 22.2961 0.747977 7.54809 0.0131727 -0.0057482 -9.05671e-05
763 1 22.2735 2.26397 7.82621 -0.00428831 -0.00207261 0.000408908
764 1 0.767373 1.94268 10.034 -0.00190862 0.0041133 -0.00250172
765 1 22.1886 0.0285401 8.91452 -0.00265699 -0.0057209 0.00111725
766 1 21.286 18.5949 1.07228 0.00588512 -0.00682387 0.00544087
767 1 21.2408 17.7894 2.46335 -0.00172834 -0.0030814 0.00253496
768 1 20.133 16.7089 -0.0188852 0.00302126 -3.61739e-05 0.00183601
769 1 21.2417 16.3428 2.11157 0.000412916 -0.00296545 -0.00365631
770 1 18.7513 16.2781 2.15542 -0.00876691 -0.00862707 -0.000136618
771 1 20.01 14.4122 1.08788 0.00281429 0.00206518 -0.00312644
772 1 19.9959 15.9297 1.3108 -0.0042893 -0.00421589 -0.00833255
773 1 21.1821 15.5548 3.46602 -0.00209997 0.0034673 -0.00570009
774 1 18.6878 15.4922 3.50411 0.00219571 0.00729838 -0.00434602
775 1 19.988 13.6412 2.38306 0.003496 0.00498491 0.000959282
776 1 17.5755 14.408 1.05937 0.00578452 0.000616984 0.00530695
777 1 18.7072 13.9571 3.24408 0.000689376 0.00210927 0.00531294
778 1 16.1259 14.0523 3.19844 0.00322716 0.00271389 0.00308555
779 1 17.5291 12.0575 2.17605 -0.00417534 -0.00172771 -0.00292588
780 1 17.4557 13.6475 2.37168 0.00399554 -0.00717399 -0.00641675
781 1 18.6553 13.2594 4.56169 0.00933847 -0.00407165 0.00159209
782 1 16.0765 13.263 4.57955 0.00481334 -0.00332186 -0.00474422
783 1 17.4122 11.3134 3.48729 -0.0102822 0.00758672 0.00252312
784 1 14.9696 12.1716 2.12388 -0.00912798 -0.0129535 0.00850745
785 1 16.0602 11.7136 4.27179 -0.00320729 0.000784228 0.00359529
786 1 13.5638 11.7303 4.316 0.00434192 -0.00968197 -0.00250651
787 1 14.8954 9.8923 3.18775 0.00207532 -0.00642994 -0.00155528
788 1 14.8674 11.4144 3.44502 -0.00264269 -0.00604194 0.00884863
789 1 16.0222 10.9969 5.71375 -0.00390894 -0.00614374 0.0018752
790 1 13.4865 10.968 5.63109 -0.00495399 -0.00171469 -0.000164113
791 1 14.8555 9.17379 4.55918 -0.00438138 -0.00527826 0.00157724
792 1 12.3828 9.80065 3.24255 -0.00042441 -0.00325314 -0.00422673
793 1 13.5222 9.47828 5.42154 0.0132824 -0.00925844 0.00152422
794 1 11.0149 9.45975 5.4339 0.00334228 -0.00187666 0.00246965
795 1 12.3412 7.56344 4.31107 3.1871e-05 0.0165696 0.00208571
796 1 12.316 9.08701 4.60149 0.00892221 -0.00482106 -0.00269698
797 1 13.4473 8.79272 6.8027 0.00188864 -0.00263887 0.000978317
798 1 10.9506 8.74116 6.81639 -0.00597763 -0.00468152 0.00370327
799 1 12.2465 6.86228 5.66955 0.00117412 -0.0173591 -0.00325838
800 1 9.79283 7.59232 4.3273 -0.00212384 -0.0014287 -0.00517335
801 1 10.9272 7.20726 6.50441 0.0103845 -0.00489872 0.00263403
802 1 8.39198 7.18552 6.50035 0.00345253 -0.0061697 -0.00699148
803 1 9.70734 5.29046 5.41218 -0.00187803 -0.00116849 -0.00265503
804 1 9.68876 6.80655 5.67128 -0.00504942 -0.0113349 -0.00502554
805 1 10.8732 6.44178 7.85724 0.0100642 -0.00691072 0.00206156
806 1 8.34994 6.44606 7.87361 0.00304135 -0.00427574 0.000404959
807 1 9.64941 4.60016 6.77558 -0.00376682 0.00682668 0.0102675
808 1 7.21273 5.34096 5.41113 0.00190984 -0.00142728 -0.00193363
809 1 8.35097 4.99775 7.59354 0.00583647 -0.000569624 -0.0060803
810 1 5.84421 5.04603 7.5624 -0.00177627 0.000637007 0.00124504
811 1 7.22041 3.10107 6.47268 0.0113776 -0.0034463 0.00592863
812 1 7.1375 4.59754 6.78499 -0.000638642 -0.000588417 -0.00761826
813 1 8.32296 4.27137 8.919 -0.000351841 0.00779509 0.00560512
814 1 5.7778 4.24354 8.95015 0.0072064 -0.000481616 0.00741888
815 1 7.10689 2.34235 7.80675 -0.00837071 -0.00246761 0.00846583
816 1 4.69787 3.08484 6.43585 0.000535352 -0.00763387 -0.00064786
817 1 5.79383 2.68274 8.62586 0.00618105 -0.00300264 0.00105633
818 1 3.30144 2.70336 8.62755 0.00433322 -0.00859757 -0.000100578
819 1 4.61008 0.800702 7.5623 0.00604234 0.00807109 0.00463458
820 1 4.58822 2.33135 7.83671 0.00289549 -0.00759731 -0.00187462
821 1 5.69565 1.92507 9.96107 0.000977975 0.00819028 0.000268966
822 1 3.20109 1.95869 9.99803 -0.00233382 0.00335096 -0.00539934
823 1 4.52209 25.0799 8.88417 -0.00252672 -0.00755527 -0.00139914
824 1 2.07336 0.796833 7.54323 0.00070434 -0.0013873 0.00600147
825 1 3.19049 0.425906 9.73449 0.00407564 0.00415757 -0.00618757
826 1 0.713451 0.404384 9.74427 -0.00038292 -0.00912276 -0.00316336
827 1 2.02851 0.0760015 8.88242 0.000167593 0.00362367 0.000953134
828 1 21.1641 14.0659 3.2077 0.00876771 0.00017008 -0.00503561
829 1 21.1035 13.3044 4.55337 0.00451785 0.00194846 -0.00263631
830 1 20.0281 12.1348 2.13919 -0.000901456 -0.00741203 -0.00437189
831 1 21.1152 11.7553 4.32008 0.00996648 0.000289628 -0.00410305
832 1 18.6528 11.7502 4.27137 0.000947177 -0.00599634 0.000827127
833 1 19.9313 9.85328 3.2406 -0.00475565 -0.00391974 0.0084714
834 1 19.9597 11.357 3.47457 0.00195892 -0.00214833 -0.000853469
835 1 21.1043 11.0295 5.62508 0.00751478 -0.00511458 0.0043542
836 1 18.5599 11.0223 5.65054 0.000361781 -0.00569576 -0.00169454
837 1 19.8247 9.10453 4.58803 -0.00914114 -0.00457937 0.00301515
838 1 17.452 9.81647 3.23194 -0.00115457 -0.0015521 0.00209909
839 1 18.5627 9.50663 5.3949 0.00275128 0.000301411 -0.00178944
840 1 16.0897 9.50656 5.42216 -0.00757075 -0.00728919 -0.00309974
841 1 17.3857 7.56786 4.27922 0.0104709 -0.00298695 -0.00620906
842 1 17.346 9.10861 4.56846 0.00685119 -0.00257244 -0.0160398
843 1 18.495 8.72879 6.73036 0.00346227 0.00665464 -0.00247035
844 1 15.9566 8.83095 6.74739 0.00379344 -0.0012701 0.00373435
845 1 17.3106 6.84637 5.64097 0.00330864 -0.00434282 -0.00091927
846 1 14.8423 7.62447 4.28736 0.000925478 -0.00197849 -0.00232587
847 1 15.9668 7.24718 6.4823 0.00163714 -0.00677642 0.00146395
848 1 13.4435 7.21531 6.51689 0.00791659 -0.00699187 0.0110568
849 1 14.7668 5.373 5.39969 -0.00260406 -0.0120638 -0.00590272
850 1 14.787 6.87682 5.70023 0.00447294 -0.000137451 0.00729368
851 1 15.9479 6.5125 7.82138 0.00118411 -0.0116727 -0.00898075
852 1 13.4432 6.50145 7.84234 -0.000890211 -0.000963803 -0.00189552
853 1 14.7663 4.61825 6.74219 0.00778219 -0.00631968 0.0032661
854 1 12.2731 5.3229 5.37714 -0.00383477 -0.000506878 -0.000194307
855 1 13.44 4.95361 7.5561 0.004654 -0.00274825 -0.000688077
856 1 10.8822 4.99701 7.59454 0.00848845 -7.90946e-05 -0.00677163
857 1 12.2445 3.09768 6.41428 0.00419564 0.00565981 -0.000215622
858 1 12.1986 4.61826 6.71446 -0.000826259 -0.00107415 0.0016423
859 1 13.3089 4.28401 8.91889 -0.00858808 -0.000719226 0.00682449
860 1 10.8438 4.22548 8.90605 0.00430859 0.00306638 0.000575591
861 1 12.1497 2.34493 7.82804 0.00412331 0.00211401 -0.00225856
862 1 9.69131 3.08611 6.50746 0.0056244 -0.000247683 0.00412084
863 1 10.8454 2.71412 8.6945 -0.00317608 0.00970642 -3.52886e-05
864 1 8.33382 2.71744 8.66427 0.0012899 0.00797731 -0.00692862
865 1 9.63167 0.806427 7.58462 0.00474772 0.000333047 -0.0102826
866 1 9.60008 2.35684 7.87724 -0.0061669 -0.00229488 0.00214897
867 1 10.7734 1.96324 10.0147 0.00275354 0.00650906 -0.00247453
868 1 8.2462 1.96486 9.97015 -0.0011654 0.000273975 0.0058659
869 1 9.61259 0.0837541 8.95007 0.00130547 -0.00681293 5.16484e-05
870 1 7.05407 0.795933 7.5658 -0.00961984 -0.00479207 -0.000802468
871 1 8.32682 0.433242 9.71861 0.00759312 -0.00130958 0.00207093
872 1 5.75318 0.412973 9.67222 0.00968083 -0.00699657 0.00284225
873 1 7.05162 0.0609715 8.90015 -0.004547 -0.00325223 0.00288572
874 1 21.1046 9.50842 5.35547 0.00227622 -0.00284511 0.00111724
875 1 21.0163 8.80245 6.78681 0.00478573 0.00524685 -0.0148766
876 1 19.8245 7.58361 4.28956 0.00301739 -0.00607975 0.00549587
877 1 21.026 7.2337 6.45541 -0.00629225 -0.00132503 0.000790957
878 1 18.5167 7.20607 6.46086 0.00828654 -0.00780408 0.00984455
879 1 19.8206 5.27798 5.39973 -0.00103628 -0.0109046 0.00382582
880 1 19.821 6.81905 5.65613 0.012243 -0.00393209 -0.00117935
881 1 20.9169 6.47031 7.80098 -0.00670659 -0.00224966 0.00698131
882 1 18.3952 6.51613 7.815 0.0100071 -0.00506504 -0.00155822
883 1 19.7293 4.60852 6.76515 0.00213098 -0.00163502 -0.000786585
884 1 17.3033 5.38294 5.3667 -0.0038217 0.00601965 -0.00263232
885 1 18.4295 4.93602 7.54828 0.00743614 0.00328505 -0.00760155
886 1 15.9597 5.0453 7.58698 0.00222948 -0.00800783 0.001023
887 1 17.269 3.11073 6.43474 0.00256568 0.00336386 0.00320558
888 1 17.2045 4.59269 6.74558 -0.00540971 0.000565813 0.00646741
889 1 18.4182 4.16852 8.88648 0.00570473 0.00135105 0.00201869
890 1 15.8823 4.27994 8.89873 -0.00616501 0.0022005 0.008038
891 1 17.1329 2.30569 7.82977 -0.000655888 0.00294083 0.00559776
892 1 14.7201 3.06003 6.44965 0.00937645 0.00088855 -0.0068307
893 1 15.8207 2.74403 8.68508 0.00539223 -0.00420994 -0.00260487
894 1 13.3668 2.73175 8.69712 0.00399262 -0.00264714 -0.00166668
895 1 14.6767 0.793294 7.58402 0.00745316 -0.00582529 -0.000981017
896 1 14.6483 2.38737 7.89547 -0.00267081 0.00116428 0.000178805
897 1 15.8454 1.89778 10.0495 0.00709634 -0.00159247 -0.00314519
898 1 13.3342 1.97209 10.0175 -0.0131404 -0.00294891 0.00403724
899 1 14.5882 0.0547325 8.94852 -0.00731168 0.00496448 0.00554391
900 1 12.1682 0.846464 7.56767 0.000103641 -0.00290081 0.00613077
901 1 13.316 0.450611 9.77148 -0.0028188 -0.00424708 -0.00411539
902 1 10.8433 0.442005 9.77196 -0.00724479 -0.00632696 -0.00322309
903 1 12.1311 0.00567798 8.88054 -0.00632619 -0.00285656 -0.00130605
904 1 20.9657 4.95087 7.57761 0.00387651 -0.00763991 -0.00129133
905 1 20.949 4.16091 8.93771 0.000271613 0.000984422 0.00572312
906 1 19.7375 3.04057 6.45314 -0.00789973 -0.00315436 -0.00603936
907 1 20.9914 2.63799 8.62867 0.00378852 0.0031542 0.000545531
908 1 18.3673 2.66265 8.6767 0.00351955 -0.00561377 -0.00370241
909 1 19.7179 0.784291 7.59456 0.0126479 0.00151918 -0.00836013
910 1 19.69 2.2821 7.81363 -0.00927964 -0.00823418 -0.00274469
911 1 20.8766 1.94336 10.0268 -0.00030456 -0.00181805 0.000651305
912 1 18.3483 1.89942 10.0209 0.00376848 0.00635559 -0.00446258
913 1 19.6337 0.0291338 8.96729 -0.00409492 -0.00214915 -0.00221518
914 1 17.189 0.807475 7.5264 -0.000285169 -0.000105922 0.00166011
915 1 18.3488 0.354252 9.76444 -0.000604543 -0.00588663 -0.0101966
916 1 15.8678 0.387084 9.72152 0.00683066 -0.000551184 -0.00450431
917 1 17.1319 0.0292103 8.91357 0.00258406 0.00619797 -0.00148281
918 1 20.912 0.419279 9.77672 -0.00179774 0.00258414 -0.00355768
919 1 22.595 24.2913 1.35015 -0.00165602 -0.0013723 5.30807e-05
920 1 4.8936 24.319 1.31034 -0.00264531 -0.00741799 0.004532
921 1 3.6013 24.6903 2.18649 0.00378055 0.00247108 -0.000342892
922 1 1.11462 24.6902 2.17363 -0.00431377 -0.00812945 -0.0040992
923 1 2.42632 22.7638 1.13749 0.00771778 -0.00630332 -0.00202306
924 1 2.38688 24.279 1.33279 0.0012988 -0.00403199 0.0116361
925 1 3.49889 23.9446 3.53021 0.00441088 -0.00754596 -0.004266
926 1 0.965533 23.9651 3.52468 0.00255377 -0.00287138 0.00820199
927 1 2.33093 21.9982 2.44268 -0.00199264 -0.00123051 0.00719512
928 1 22.5882 22.7808 1.06843 -0.00198057 0.00173987 0.00705055
929 1 1.02358 22.4139 3.26351 0.00527714 -0.00669379 -0.0109954
930 1 22.485 20.4677 2.16108 -0.0133823 -0.00816189 -0.00653743
931 1 22.4697 22.0128 2.44628 -0.00587963 -0.00055661 -0.00687801
932 1 0.976797 21.7288 4.61692 0.00218894 -0.00124562 0.0024474
933 1 22.4397 19.7595 3.57877 -9.4457e-05 -0.00515066 -0.00269179
934 1 9.95141 24.3467 1.29537 0.00281168 0.00492923 -0.00821514
935 1 8.68344 24.729 2.12169 -0.00223624 0.000586478 -0.00501503
936 1 6.12221 24.7179 2.17597 -0.000140996 -0.00454397 0.00483521
937 1 7.52547 22.7431 1.04953 -0.00931406 0.0013659 -0.00145983
938 1 7.47519 24.3048 1.30988 7.77903e-05 -0.00910947 -0.00260052
939 1 8.59021 23.9788 3.50047 0.00162322 -0.00675944 -0.000221923
940 1 6.07786 24.0113 3.5011 -0.00302046 -0.000405062 0.00210076
941 1 7.43133 22.0402 2.38921 -0.00561204 -0.0114737 -0.000113853
942 1 4.93313 22.7948 0.979583 0.00197684 -0.00118354 -0.00297552
943 1 6.11435 22.4436 3.25438 0.00188593 -0.00578244 -0.00206343
944 1 3.59065 22.37 3.25288 -0.00143717 0.00136727 0.00585314
945 1 4.8667 20.5785 2.0864 0.00586025 -0.00774955 -0.00314108
946 1 4.87812 22.0909 2.39155 -9.78142e-05 -0.005485 0.0035426
947 1 6.00802 21.6851 4.57398 0.000501241 -0.00547979 -0.0018539
948 1 3.4389 21.6221 4.60166 0.00180521 0.0112741 -0.000248803
949 1 4.77776 19.7862 3.49728 0.00483217 -0.0129168 0.00300237
950 1 2.33805 20.5093 2.15034 0.00404779 -0.00809244 0.000585188
951 1 3.50523 20.17 4.3207 0.00626741 -0.00530091 0.00788079
952 1 0.979381 20.1507 4.36188 -0.00291264 0.0015605 -0.00703592
953 1 2.31117 18.2084 3.21761 0.00544293 -0.00815231 -0.00171971
954 1 2.26115 19.7643 3.54057 -0.00238305 0.000347866 0.00247189
955 1 3.43842 19.3813 5.64284 0.000456875 0.00124001 -0.00330028
956 1 0.876405 19.3722 5.67687 0.00661398 -0.00749596 0.00837352
957 1 2.26623 17.4672 4.53266 0.00101952 -0.00671591 0.00873951
958 1 22.4569 18.2154 3.30732 0.00234035 -0.00122818 -0.00428609
959 1 0.94518 17.8982 5.42002 0.00463068 -0.00253881 -0.00809115
960 1 22.4364 15.922 4.26308 -0.000519424 -0.00573625 -0.00517675
961 1 22.4405 17.4828 4.62442 -0.00208372 -0.00184286 0.00472399
962 1 0.961259 17.1149 6.7397 -0.00134453 -0.00226749 -0.0058109
963 1 22.3468 15.2215 5.66429 0.00150274 -0.0019011 0.00417675
964 1 15.0238 24.2962 1.32882 -0.00107998 0.00263969 -0.00342888
965 1 13.7418 24.6796 2.14977 -8.29975e-05 0.00111486 -0.00017217
966 1 11.1375 24.7485 2.11742 -0.0111348 -0.00564705 -0.0105266
967 1 12.5155 22.7853 1.13307 -0.00200164 0.00284817 -0.00529083
968 1 12.5016 24.3352 1.3174 -0.00216302 -0.00880217 -0.00117422
969 1 13.5982 23.96 3.52342 0.000161369 0.000828431 0.00810942
970 1 11.1031 23.9731 3.45723 -0.00248594 0.00169597 0.0111259
971 1 12.4203 22.0817 2.38736 0.00189324 -0.00562128 -0.00660702
972 1 9.9986 22.838 1.05023 -0.00214545 -0.00541161 -0.010385
973 1 11.1666 22.452 3.21458 0.00901595 0.00216849 -0.00226509
974 1 8.66846 22.444 3.27536 -0.0062311 -0.00595382 -0.00156516
975 1 9.94622 20.5225 2.17332 0.00269075 -0.00282857 -0.00146643
976 1 9.89195 22.0567 2.42393 -0.00269715 0.00281012 0.0002004
977 1 11.0961 21.6876 4.6084 0.0023102 -0.000788099 0.00233336
978 1 8.57399 21.6396 4.61118 -0.0064681 -0.0016354 -0.00123842
979 1 9.89888 19.756 3.51606 -0.00761378 -0.00687652 -0.000601883
980 1 7.37697 20.5417 2.11274 0.00357752 -0.000400062 0.0071143
981 1 8.61926 20.1184 4.28538 0.00336854 -0.00106218 -0.00573593
982 1 6.01356 20.1691 4.28023 0.00433966 0.00358085 -0.00345605
983 1 7.35372 18.2289 3.21143 0.00455187 -0.00364253 0.000517192
984 1 7.27718 19.77 3.50593 -0.00111669 0.00130351 -0.00326569
985 1 8.52836 19.3805 5.64518 -0.000637037 -0.00348758 -0.011933
986 1 5.94549 19.4465 5.65705 -0.00172249 -0.00563964 -0.0079957
987 1 7.32108 17.4742 4.59358 -0.00223953 -0.00885392 -0.000154591
988 1 4.83065 18.2135 3.19042 -0.00219194 0.00271574 -0.00137146
989 1 6.01447 17.9332 5.39045 0.00199394 0.00150728 -0.00354928
990 1 3.49995 17.8651 5.42439 0.00932289 -0.0112061 -0.00381517
991 1 4.81349 16.0096 4.33089 0.0051744 0.000549113 -0.00154525
992 1 4.76559 17.5795 4.55573 0.0012325 -0.00784596 -0.0036118
993 1 5.97786 17.1622 6.69681 -0.00389936 0.00172031 -0.000679222
994 1 3.45661 17.1276 6.79031 -0.000613797 0.00190178 -0.00290489
995 1 4.73344 15.278 5.66808 -0.000232034 -0.00126456 0.00708304
996 1 2.28933 15.9501 4.25766 -0.00275579 0.000679043 0.00348261
997 1 3.46309 15.644 6.42038 0.00696507 -0.0058049 -0.00302029
998 1 0.905853 15.6126 6.477 0.00506591 -0.00177757 -0.00565277
999 1 2.18604 13.7226 5.37645 -0.00675586 0.00225166 0.00196745
1000 1 2.24153 15.2759 5.64878 -0.00795965 -0.01121 -0.0102229
1001 1 3.36961 14.8287 7.84147 0.00486622 -0.00838483 -0.00416872
1002 1 0.849525 14.8624 7.79645 -0.00373735 -0.00300132 -0.00696709
1003 1 2.17131 13.0032 6.74624 0.000494698 -0.00783848 0.00433639
1004 1 22.3667 13.6898 5.4071 0.00351943 -0.00621287 -0.0037238
1005 1 0.817194 13.3619 7.56104 -0.00154245 0.00334661 -0.00351877
1006 1 22.331 11.4219 6.348 0.000702406 -0.00909066 0.00205729
1007 1 22.322 12.9352 6.70684 -0.00689406 0.000167493 -8.94427e-05
1008 1 0.771592 12.6044 8.8929 -0.00772921 0.00972375 0.00330968
1009 1 22.268 10.6505 7.79994 0.00544376 -0.00808497 0.00502122
1010 1 20.0488 24.2553 1.35829 -0.00733315 -0.00650886 -0.00142466
1011 1 18.7333 24.6778 2.20282 0.000600749 0.00156217 0.00100656
1012 1 16.2463 24.6533 2.15801 -0.00757511 0.00977906 0.0018358
1013 1 17.5725 22.7684 1.09211 -0.00202262 3.23146e-05 -0.00408411
1014 1 17.5076 24.2398 1.32724 -0.00618492 -0.00330667 -0.00437158
1015 1 18.6814 23.9095 3.54299 -0.0011256 0.000444419 -0.00481166
1016 1 16.1833 23.9852 3.54249 0.0021793 -0.00284237 0.0037475
1017 1 17.4387 22.0087 2.45865 -0.00148689 1.96277e-05 0.00681961
1018 1 15.0918 22.7986 1.0814 0.00309198 -0.00842257 -0.0114973
1019 1 16.1163 22.4856 3.27392 0.00430432 0.00955742 -0.00115082
1020 1 13.638 22.4687 3.24242 -0.00211309 -0.0116831 -0.00143336
1021 1 14.9807 20.5622 2.13254 0.00289022 -0.00162679 -0.00382293
1022 1 14.9275 22.055 2.49587 -0.00399779 -0.00050247 -0.00084084
1023 1 16.0791 21.6958 4.60458 8.98743e-05 -5.46865e-05 -0.00416001
1024 1 13.5628 21.6125 4.60535 -0.00446447 -0.00169324 -0.00164023
1025 1 14.913 19.8099 3.44958 -0.00874048 -0.0102978 -0.00240611
1026 1 12.4096 20.5113 2.1113 0.00531112 -0.0045914 3.32006e-05
1027 1 13.6021 20.2093 4.35275 0.000550733 0.00237529 -0.00351639
1028 1 11.0689 20.2013 4.33643 0.00479705 0.00163343 0.000777955
1029 1 12.3982 18.2387 3.29681 -0.00224884 -0.00743382 -0.00391547
1030 1 12.4121 19.8075 3.48687 0.00910552 -0.00158742 0.00359413
1031 1 13.5918 19.4168 5.68803 -0.00404403 -0.00111801 0.00358403
1032 1 11.0546 19.3843 5.68949 0.00338572 0.000661802 -0.00426294
1033 1 12.3222 17.5152 4.61326 -0.00132347 0.00157838 0.00354114
1034 1 9.87712 18.242 3.19971 0.00112512 0.00111649 0.000628268
1035 1 11.0356 17.8517 5.41598 7.08382e-05 0.00116265 -0.00704047
1036 1 8.51733 17.8236 5.35772 -0.000398461 0.0064582 -0.00336092
1037 1 9.79672 15.9752 4.25939 -0.000630223 0.00277267 0.00578001
1038 1 9.80237 17.4902 4.57123 -0.00386183 -0.00083024 0.00267171
1039 1 11.0092 17.0625 6.71604 0.0012371 -0.00102788 0.00356301
1040 1 8.44064 17.0922 6.72034 0.00666133 -0.00428697 -0.0013018
1041 1 9.73623 15.1922 5.61726 0.000155555 -0.000168643 0.0114563
1042 1 7.34041 15.922 4.32327 0.000478858 -0.00386908 -0.00883204
1043 1 8.43823 15.5973 6.50171 0.0104428 -0.00973157 0.0144178
1044 1 5.91049 15.6528 6.49037 0.00437509 -0.0105913 -0.000481372
1045 1 7.24345 13.7207 5.38431 0.00754461 -0.00837496 -0.00932538
1046 1 7.24733 15.2206 5.69435 -0.00583472 -0.00341217 -0.00643999
1047 1 8.39224 14.8298 7.80885 0.000774796 -0.00163021 0.00734575
1048 1 5.88952 14.8807 7.88609 0.000668127 -0.0025535 -0.00525484
1049 1 7.19818 12.9961 6.76888 -0.00586515 -0.00302459 0.0037073
1050 1 4.76479 13.723 5.37562 0.00417373 0.0019716 0.00520349
1051 1 5.88801 13.3532 7.61232 0.00237866 -0.00308922 -0.00256889
1052 1 3.4155 13.3155 7.54002 -0.00688678 -0.00272592 -0.00167199
1053 1 4.71417 11.4406 6.49552 0.00438127 0.000512267 0.00467816
1054 1 4.69022 13.004 6.77897 0.0138771 -0.00463656 -0.00252558
1055 1 5.80357 12.6219 8.93006 0.00407182 -0.00956292 -0.00423895
1056 1 3.27348 12.5563 8.86344 -0.00409358 0.00554374 0.00267099
1057 1 4.55892 10.6715 7.87233 0.00258972 -0.00748271 0.000380911
1058 1 2.1395 11.5276 6.44105 0.00436128 -0.00608186 -0.0141874
1059 1 3.33184 11.075 8.61012 0.00297145 0.00201022 -0.000400809
1060 1 0.793093 11.1442 8.58952 0.00677791 -0.00218043 -0.00125423
1061 1 2.09488 9.20796 7.56839 -0.00278452 0.00610493 -0.00278932
1062 1 2.06149 10.7231 7.76701 0.00213851 -0.0032112 0.0097202
1063 1 3.24329 10.3028 9.99335 0.00647565 -0.00334044 0.00248064
1064 1 0.754805 10.3114 9.91247 -0.00054499 0.000688854 0.00187937
1065 1 2.03781 8.4046 8.90155 0.00961215 -0.00384001 0.000660311
1066 1 22.2625 9.19017 7.56903 0.00927862 -0.00218124 0.00596625
1067 1 0.765176 8.80779 9.69234 -0.00332658 -0.00443697 0.0025235
1068 1 22.1884 6.9018 8.60245 0.00490021 -0.00105839 -0.00189075
1069 1 22.2035 8.40123 8.93902 -0.00301835 -0.00171143 -0.00391635
1070 1 0.700589 8.03994 11.1154 0.0062671 -0.00598424 -0.00308192
1071 1 22.107 6.13372 9.90055 -0.00476411 0.00346052 -0.00990739
1072 1 21.2781 24.6487 2.14842 0.00157053 -0.00450741 -0.00355098
1073 1 21.1673 23.9574 3.53978 0.00582543 0.000664889 0.00232981
1074 1 20.0435 22.8695 1.03256 0.00122 0.0107527 -0.0117159
1075 1 21.2083 22.3574 3.19026 0.000374124 0.000835347 0.00210309
1076 1 18.7605 22.3736 3.287 0.00647323 0.00380784 0.00103199
1077 1 19.9592 20.5385 2.18308 -0.00222838 0.000306715 0.00402768
1078 1 19.9479 21.9941 2.40531 -0.00628614 -0.00660271 0.00174548
1079 1 21.1486 21.7087 4.54082 0.00219035 -0.00688761 0.00303562
1080 1 18.6478 21.6737 4.62627 0.00230423 -0.00389991 0.000976473
1081 1 19.8892 19.7486 3.46875 -0.00548408 0.0016934 -0.0054003
1082 1 17.4754 20.5391 2.16853 -0.00364224 -0.00987704 -0.00516625
1083 1 18.6402 20.1478 4.34219 0.00312499 -0.00342061 0.00387953
1084 1 16.1498 20.1487 4.30474 -0.000746544 0.00111241 0.0076083
1085 1 17.4022 18.2646 3.28998 -0.00334388 -0.00244818 0.000777076
1086 1 17.4108 19.7515 3.54054 -0.00454425 0.000725174 0.0123911
1087 1 18.6211 19.4199 5.68258 0.00150567 0.00952043 0.0102322
1088 1 16.0665 19.4051 5.55749 0.00511528 -0.00339335 -0.00419944
1089 1 17.359 17.4428 4.58977 0.00447868 -0.00483857 -0.000794204
1090 1 14.9008 18.2896 3.16146 -0.00374062 -0.00119257 -0.0102369
1091 1 16.04 17.8899 5.40001 0.00596249 0.00209576 -0.00399333
1092 1 13.5769 17.8935 5.41316 0.00677132 0.00248672 0.00157057
1093 1 14.867 15.9626 4.36834 0.000815054 0.00691981 0.0039902
1094 1 14.818 17.4999 4.57434 -0.00821594 -0.0152702 -0.00522
1095 1 15.9736 17.172 6.75406 -0.00133509 -0.00544281 0.00292561
1096 1 13.4856 17.079 6.75049 -0.00226026 0.00387759 0.00104627
1097 1 14.7611 15.2135 5.64471 -0.00544739 -0.00461149 -0.0021171
1098 1 12.3667 16.0279 4.27812 0.00404797 -0.00322692 0.00407394
1099 1 13.5131 15.5657 6.44748 -0.00644787 0.00231238 -0.0003744
1100 1 11.0154 15.5679 6.42663 -0.00597504 -0.00753388 0.0015413
1101 1 12.2826 13.6663 5.35462 -0.00487304 -0.000635682 0.00199146
1102 1 12.3118 15.2263 5.5626 0.00369391 -0.00275032 2.66781e-05
1103 1 13.4478 14.8458 7.86437 0.00287691 -0.00742507 -0.00247133
1104 1 10.9356 14.8434 7.84609 0.000946628 -0.00279253 0.00384993
1105 1 12.2031 12.8841 6.74635 -0.00443667 0.0012616 -0.00312653
1106 1 9.74237 13.6396 5.34557 -0.00261072 -0.00507246 -0.00253032
1107 1 10.9114 13.345 7.54673 -0.00206559 0.0105305 -0.00149564
1108 1 8.41978 13.3126 7.55259 0.010591 -0.000563888 -0.00571934
1109 1 9.62473 11.3444 6.47886 0.0015089 -0.00783944 0.00345306
1110 1 9.65681 12.8839 6.71786 -0.00534734 -0.00293884 0.00789315
1111 1 10.8521 12.6312 8.89811 -0.00501581 -0.00337766 -0.00664683
1112 1 8.32121 12.5972 8.81661 0.00328962 -0.00282295 0.000968432
1113 1 9.67 10.6286 7.86967 0.00507354 -0.00279043 0.0060405
1114 1 7.19594 11.441 6.474 0.00350469 -0.000771787 -0.00153383
1115 1 8.39164 11.111 8.63172 -0.00182545 -0.0137658 -0.00130531
1116 1 5.82916 11.0657 8.62341 0.00340058 0.00245794 -0.00285347
1117 1 7.08046 9.19499 7.57998 -0.0077435 0.00401384 -0.00158972
1118 1 7.07532 10.7333 7.80973 0.000485266 -0.00292879 0.00287968
1119 1 8.26143 10.3454 9.97834 -0.000803213 -0.0111712 -0.000863127
1120 1 5.73324 10.2815 9.97789 0.00712958 0.000731454 0.00898233
1121 1 7.06041 8.39488 8.91314 -0.0056168 0.00588981 -0.0070178
1122 1 4.65329 9.16412 7.56436 0.0111339 -0.00697953 -0.00334958
1123 1 5.77473 8.78221 9.7091 -0.000649409 -0.00960209 0.00263473
1124 1 3.27872 8.76616 9.70266 0.00434526 0.0061795 -0.00790248
1125 1 4.5033 6.86791 8.66133 -0.00270381 4.91089e-05 -0.00291822
1126 1 4.5643 8.35876 8.89002 -0.00945839 -0.0104532 0.00606656
1127 1 5.69943 8.09312 11.1292 0.00102054 -0.00656165 -0.00301499
1128 1 3.18427 8.05312 11.0588 -0.00196497 0.00773188 -0.00668223
1129 1 4.46618 6.12003 10.0302 0.00545685 -0.000611767 -0.0058948
1130 1 2.04346 6.82905 8.63333 0.00865973 -0.0104075 0.00189354
1131 1 3.19531 6.51802 10.8324 0.00394512 -0.00193645 0.00084542
1132 1 0.665149 6.58009 10.7912 0.00488198 0.00495674 0.00392445
1133 1 1.97173 4.56457 9.70147 -0.00205941 -0.000686487 -0.00869755
1134 1 1.94172 6.09679 10.023 0.00796914 -0.00515212 0.00359587
1135 1 3.07369 5.73038 12.2142 -0.0035567 0.00220288 0.00365816
1136 1 0.557773 5.79386 12.1161 0.0043596 -0.000485259 -0.00242136
1137 1 1.87623 3.81513 11.0834 -0.00937378 0.00579571 -0.00939969
1138 1 22.1282 4.57538 9.71529 -0.00364925 0.00949464 0.000554643
1139 1 0.59617 4.28802 11.8654 0.00214345 -0.00410152 0.00647859
1140 1 22.0884 2.34263 10.8707 0.00247026 -0.00253145 0.00611598
1141 1 22.0663 3.86501 11.0669 -0.00350732 -0.00379611 0.00525929
1142 1 0.482717 3.5441 13.2948 0.00287155 0.0080114 -0.00269745
1143 1 21.9886 1.62043 12.2617 0.00282537 -0.00670961 0.00324634
1144 1 21.1172 20.1508 4.29767 0.0038277 -0.00382631 0.00287359
1145 1 21.0446 19.4358 5.70675 0.00428231 0.00201215 0.000516224
1146 1 19.9142 18.2358 3.23467 0.00602176 -0.00211046 -0.000181764
1147 1 21.0701 17.8783 5.38713 -0.00217946 -0.00745 -0.00282598
1148 1 18.583 17.8914 5.4434 -0.00586042 -0.00740362 -0.00104756
1149 1 19.8553 15.9451 4.31555 -0.00707778 -0.0050009 -0.00701386
1150 1 19.8722 17.4782 4.57047 -0.00649441 0.00422108 0.00472685
1151 1 21.0964 17.1494 6.76865 -0.00149983 -0.00241553 0.0060651
1152 1 18.5442 17.1361 6.79383 0.00331562 -0.00225937 -0.00286254
1153 1 19.8322 15.1928 5.67313 0.00390749 0.000101707 0.00126814
1154 1 17.3784 15.9415 4.35604 0.000839269 -0.00491988 0.0117981
1155 1 18.5773 15.623 6.47144 0.00749408 0.00216128 0.00167896
1156 1 16.0145 15.6412 6.46795 0.0041706 -0.00196297 -0.00130564
1157 1 17.299 13.6927 5.39801 -0.00473495 -0.00450152 0.0096698
1158 1 17.3203 15.2576 5.68772 0.00824004 -0.00400171 -0.00319615
1159 1 18.5329 14.8418 7.81195 -0.00331726 -0.00562228 -0.000166017
1160 1 15.928 14.8981 7.81383 -0.00563912 0.00389944 -0.005332
1161 1 17.2496 12.9758 6.72503 -0.000188092 -0.0101812 -0.00340921
1162 1 14.7477 13.6396 5.40166 -0.00318216 -0.00797937 -0.00656619
1163 1 15.9262 13.3444 7.53997 0.00355288 -0.00521278 0.0025704
1164 1 13.3898 13.2836 7.57541 -0.000408538 -0.00628385 -0.00646669
1165 1 14.7313 11.3853 6.48119 0.0032467 0.00254445 -0.00543577
1166 1 14.7161 12.9021 6.75501 0.00629185 -0.00465595 0.00292129
1167 1 15.873 12.591 8.92064 0.00424295 -0.00558588 -0.000597528
1168 1 13.3496 12.532 8.877 -0.00639092 -0.00552853 0.00600336
1169 1 14.691 10.6665 7.83953 0.00930192 -0.000271899 0.00454214
1170 1 12.1888 11.3254 6.39689 -0.0013087 -0.00170338 -0.00281279
1171 1 13.4028 10.9833 8.63603 -0.00111715 0.00244564 -0.000859056
1172 1 10.8679 11.0341 8.67978 0.00273976 0.00379284 -0.00549974
1173 1 12.1094 9.1642 7.55833 0.00465408 0.00408295 -0.00236773
1174 1 12.1089 10.6411 7.80473 -0.00103732 -0.00868906 -0.00331787
1175 1 13.3691 10.3016 9.96442 -0.00337667 -0.000902664 -0.00132045
1176 1 10.8504 10.2913 9.99505 -0.00558324 -0.000591622 -0.00380333
1177 1 12.0891 8.42114 8.8996 -0.00117808 -0.00615079 -8.44159e-05
1178 1 9.64269 9.10911 7.58858 0.00566356 -9.19073e-05 0.0137466
1179 1 10.7336 8.81768 9.7934 0.00315719 -0.000403336 0.00457111
1180 1 8.26902 8.81395 9.73869 0.000186544 -0.0130545 -0.0108403
1181 1 9.56504 6.90109 8.67019 -0.00209653 0.00359248 -0.00233105
1182 1 9.57132 8.3917 8.89436 -0.00208747 0.00446795 -0.0020808
1183 1 10.7364 8.04383 11.1211 0.00236123 -0.00572459 0.00511178
1184 1 8.17704 8.09479 11.0875 -0.00381718 0.00496936 -9.71283e-05
1185 1 9.53177 6.16557 10.0182 -0.00996748 -0.00209939 -0.00723632
1186 1 7.0482 6.83239 8.65632 0.00617259 0.00223873 0.00420565
1187 1 8.23354 6.55007 10.8726 -8.15196e-05 -0.00118006 -0.00461136
1188 1 5.70487 6.53045 10.8173 0.0101864 -0.00195738 -0.00401688
1189 1 6.97467 4.64 9.75841 -0.00374962 0.000871904 0.000169903
1190 1 7.00744 6.16498 10.0983 0.00514753 -0.00357782 -0.00592444
1191 1 8.08125 5.80891 12.2264 0.00303493 -0.00221022 -0.00318536
1192 1 5.54887 5.72196 12.2051 0.00630952 -0.00399721 0.000800196
1193 1 6.912 3.899 11.1366 -0.00196226 -0.00246098 -0.0028867
1194 1 4.43507 4.62923 9.718 6.37236e-05 0.00284359 -0.000637185
1195 1 5.60535 4.19158 11.8881 0.00219444 -9.65868e-05 -0.00884084
1196 1 2.99285 4.22178 11.9039 -0.000643743 0.000195658 0.000670155
1197 1 4.36588 2.33475 10.8483 -0.00601105 0.00199181 0.00341743
1198 1 4.30981 3.86451 11.1131 -0.00897943 0.00678368 0.00484502
1199 1 5.48096 3.51537 13.2497 0.00700956 0.00402947 -0.000613199
1200 1 3.00224 3.50353 13.3131 -0.00024833 0.00173843 0.00088899
1201 1 4.32341 1.57409 12.1745 0.00458148 -0.00939748 -0.00280142
1202 1 1.93907 2.34572 10.8431 0.000330003 0.0012299 9.44054e-05
1203 1 3.04269 1.93652 13.027 0.00913188 2.62318e-05 -0.00423674
1204 1 0.539757 2.04502 13.0492 -2.60963e-05 0.00275269 0.00271256
1205 1 1.89132 0.0445538 11.9389 0.00236888 -0.000538712 -0.00323038
1206 1 1.83669 1.58373 12.2052 -0.00289186 -0.0026701 0.0030162
1207 1 2.97275 1.2443 14.4117 0.00203972 0.00268871 0.00148717
1208 1 0.428141 1.25382 14.3532 -0.00197148 -0.00715039 0.0010111
1209 1 22.0007 0.0997677 11.9225 0.00113033 0.00882296 -0.000987828
1210 1 21.1179 15.592 6.43705 0.00363382 0.000979986 -0.00123344
1211 1 21.054 14.8706 7.79676 -6.61127e-05 -0.00144322 -0.000687658
1212 1 19.779 13.6862 5.40453 0.00283443 -0.00947893 0.00324464
1213 1 21.0091 13.3362 7.53576 -0.000327881 -0.00557397 0.000593011
1214 1 18.4851 13.2838 7.56677 -0.00106949 -0.00342074 0.00686191
1215 1 19.8394 11.3887 6.46168 -0.0081257 -0.00113991 0.00333918
1216 1 19.816 12.9112 6.73611 0.00043877 -0.00553708 0.00453723
1217 1 20.9512 12.5945 8.92733 -0.00252305 -0.00331596 -0.00823183
1218 1 18.3739 12.5989 8.91123 -0.00342548 -0.000224475 -0.00394645
1219 1 19.7105 10.6567 7.83478 -0.00245858 -0.00621792 0.00143435
1220 1 17.2591 11.427 6.5001 0.00900473 -0.00186948 -0.0025518
1221 1 18.3956 11.0607 8.63142 0.00735987 0.00704407 -0.00679006
1222 1 15.8747 11.0456 8.64147 0.00218079 -0.00741088 -0.00410719
1223 1 17.2216 9.12879 7.52851 0.00684805 0.0020596 -0.00364808
1224 1 17.2185 10.6391 7.82304 -0.00203058 0.00652187 -0.000978292
1225 1 18.3775 10.3114 9.9385 -0.00658833 0.00251727 0.00275322
1226 1 15.8056 10.3254 10.0663 0.0005168 0.00222316 -0.00215144
1227 1 17.185 8.42944 8.93337 -0.00671866 0.00071446 -0.00209433
1228 1 14.7274 9.14085 7.59368 0.00258312 0.00142244 -0.00240076
1229 1 15.8329 8.85197 9.78553 0.000543117 0.00163179 0.00346125
1230 1 13.3558 8.7778 9.71557 0.011311 -0.0102611 -0.00865534
1231 1 14.7199 6.88824 8.6604 0.000134655 0.00451606 0.0026677
1232 1 14.6486 8.41975 8.93351 0.00171893 -0.00946512 -0.0028891
1233 1 15.7549 8.07449 11.1512 -0.00793757 0.00300001 -0.00151324
1234 1 13.2054 8.08156 11.1285 -0.00642138 -0.000334911 -0.000804914
1235 1 14.6175 6.18321 10.0297 0.00221559 0.00153038 0.00358196
1236 1 12.1963 6.91202 8.63106 -0.00153215 0.00435243 -0.00284693
1237 1 13.3241 6.54579 10.7747 0.00117644 -0.00425905 0.00183374
1238 1 10.7803 6.48025 10.8426 -0.00343336 -0.000392613 0.00603839
1239 1 12.0438 4.67038 9.75606 0.00284918 0.0055507 0.00498258
1240 1 12.0693 6.15444 10.0068 0.00507513 -0.00334364 0.00221799
1241 1 13.177 5.76763 12.1144 -0.00324519 -0.0035212 0.00494901
1242 1 10.6569 5.79434 12.15 -0.00523748 -0.0128606 0.0064883
1243 1 11.9505 3.87958 11.0551 0.00495096 0.00122534 -0.00184007
1244 1 9.51298 4.67277 9.76987 -0.00696653 -0.000961785 0.00508778
1245 1 10.6388 4.30166 11.877 0.000702053 -0.00117172 -0.00382258
1246 1 8.10379 4.23284 12.0223 0.00329679 0.00816077 -0.00403524
1247 1 9.4505 2.31893 10.784 0.00809143 -0.000408281 -0.00149927
1248 1 9.42527 3.88489 11.1009 0.00799038 -0.00362654 -0.00950466
1249 1 10.6094 3.54526 13.2335 -0.000689391 -0.00477788 0.0107615
1250 1 8.06454 3.50282 13.3381 -0.00322152 -0.00957086 -0.000718717
1251 1 9.39326 1.61985 12.1563 -0.00328855 0.00600685 0.00142631
1252 1 6.91945 2.36415 10.8674 0.00419494 0.00401797 -0.00552331
1253 1 8.0682 1.99646 13.0428 0.00189025 -0.00296517 0.00651663
1254 1 5.59056 2.0268 12.99 0.0173175 -0.00142486 -0.00143196
1255 1 6.8434 0.13578 11.8903 0.000736698 0.00185833 -0.0053962
1256 1 6.86012 1.61088 12.1862 -0.000264754 -0.00580958 0.00398117
1257 1 7.99923 1.22178 14.3964 0.00173482 -0.000974169 0.00698763
1258 1 5.5166 1.25385 14.3404 0.00276488 -0.00361358 -0.00678866
1259 1 4.39539 0.0841692 11.9262 0.000568061 -0.00595791 0.00425604
1260 1 20.9529 11.0607 8.65853 -0.00111643 0.00303064 -0.00859542
1261 1 20.9074 10.3003 10.0109 -0.000759751 -0.00180903 0.00364114
1262 1 19.7651 9.14715 7.5882 4.54696e-05 -0.0066571 0.000514486
1263 1 20.9528 8.75763 9.70965 -0.00725571 -0.00404545 -0.0063709
1264 1 18.3718 8.74753 9.73862 0.00658516 0.000713714 -0.00528538
1265 1 19.6403 6.82726 8.62808 0.00655283 -0.00451764 -0.00183048
1266 1 19.6834 8.38308 8.89858 0.00697506 -0.00409271 -0.00137006
1267 1 20.8654 8.02571 11.0342 0.00194415 -0.00611528 0.00205846
1268 1 18.2979 8.11304 11.0494 -0.000801208 0.000594347 0.000916788
1269 1 19.6312 6.06093 9.99851 0.00119003 0.00449978 -0.000777874
1270 1 17.1869 6.904 8.60777 -0.00419813 0.00704681 0.00520788
1271 1 18.3631 6.54727 10.8435 0.00428568 -0.00297816 0.0021081
1272 1 15.8229 6.55154 10.8188 0.00868962 0.00362421 -0.00234832
1273 1 17.111 4.6091 9.74198 -0.00754402 -0.00913824 0.00728484
1274 1 17.1168 6.17622 9.95353 0.00425223 -0.00412757 -0.00664875
1275 1 18.2421 5.7065 12.1407 0.00610201 -0.0112866 -0.0070874
1276 1 15.7179 5.79913 12.2186 0.00171819 0.00177175 -0.00223101
1277 1 17.009 3.89576 11.106 -0.00460669 0.00343919 -0.0135791
1278 1 14.6029 4.60731 9.74371 -0.00229094 -0.00799734 0.0065693
1279 1 15.7274 4.32123 11.9075 -0.00809136 0.00380182 0.00488081
1280 1 13.1954 4.28314 11.8325 -0.00545035 -0.00358628 -0.00263221
1281 1 14.5805 2.32132 10.866 0.00106232 0.0015328 0.00893989
1282 1 14.5211 3.92223 11.1048 -0.00524998 0.000942499 -0.00642354
1283 1 15.6195 3.56976 13.2547 -0.00683138 -0.00515353 0.00364097
1284 1 13.0416 3.55153 13.2756 -0.00065223 0.00027874 -5.74663e-05
1285 1 14.4767 1.63256 12.2126 -0.00693706 -0.00685597 0.0061438
1286 1 11.9975 2.33848 10.8389 -0.00106097 -0.00421187 -0.00320585
1287 1 13.126 2.06978 13.0055 -0.00284389 -0.000688411 -0.00403603
1288 1 10.6198 2.04308 13.0286 0.00831887 0.0070158 -0.00104158
1289 1 11.9846 0.0893842 11.9268 0.00201434 -0.0028684 -0.0041641
1290 1 11.9775 1.60719 12.2023 -0.000805976 0.00410578 -0.00630537
1291 1 13.0635 1.30884 14.3864 0.007201 -0.00273056 0.00304822
1292 1 10.5444 1.29008 14.3808 0.00251837 -0.00160409 -0.00272479
1293 1 9.45619 0.124198 11.9159 0.00634585 -0.00408344 -0.00475738
1294 1 20.8646 6.50402 10.8057 -0.00693111 0.00732351 -0.00103988
1295 1 20.7823 5.75512 12.1658 0.00350645 0.000153542 0.00310004
1296 1 19.6242 4.61634 9.74813 -0.00141085 -0.00269841 -0.00864245
1297 1 20.7708 4.25668 11.9474 0.00388517 -0.00250342 -0.00067547
1298 1 18.2748 4.26421 11.8777 0.0040701 -0.00487428 -0.00195871
1299 1 19.6056 2.37027 10.7898 -0.00259239 0.000944608 0.00949399
1300 1 19.5561 3.82731 11.1474 0.000272487 -0.00415145 0.0062234
1301 1 20.7166 3.50526 13.2854 0.00470078 0.00362405 0.00550296
1302 1 18.1488 3.48953 13.2924 -0.00685895 -0.00639026 -0.00143292
1303 1 19.5085 1.6287 12.1331 -0.00236073 -0.0116896 0.000281256
1304 1 17.0656 2.32074 10.8343 -0.00553017 0.00110705 0.00458297
1305 1 18.205 1.98964 13.0144 0.00106913 -0.0100352 0.00179687
1306 1 15.6164 1.99091 13.0063 0.00239242 -0.000359858 -0.0026737
1307 1 16.9737 0.113916 11.9466 0.014025 -0.00247136 -0.00106094
1308 1 16.9799 1.58814 12.2166 -0.00241364 -0.0120836 -0.000664359
1309 1 18.0263 1.32328 14.3846 -0.00159634 0.0064857 -0.00597263
1310 1 15.5228 1.31067 14.3998 -0.00505265 -0.0112052 -0.000504034
1311 1 14.5261 0.107477 11.9195 0.00280376 -0.00359864 -0.00058797
1312 1 20.686 1.95876 13.0423 0.00379411 -0.00794075 0.00208159
1313 1 20.527 1.29617 14.4168 0.0176111 0.00268943 0.00170109
1314 1 19.5088 0.0711789 11.945 -0.00143124 0.00512536 -0.00174161
1315 1 2.25202 24.2954 4.32855 -0.00632262 0.00253282 0.00448758
1316 1 2.13378 23.5325 5.69293 0.000821802 0.00196648 0.00046032
1317 1 22.3693 24.354 4.32875 -0.00257084 0.00156903 -0.00123855
1318 1 0.868828 23.9333 6.46724 -0.00559128 -0.00266479 0.00208489
1319 1 22.4169 22.0386 5.4173 -0.00291882 -0.00137601 0.00260787
1320 1 22.3354 23.5659 5.66288 0.00234731 -0.000736441 0.00482002
1321 1 0.813681 23.1933 7.82596 -0.00374888 -0.00014775 -0.00188279
1322 1 22.3157 21.3029 6.74251 0.0042052 0.00294473 0.00213955
1323 1 7.27765 24.3648 4.30242 -0.00992487 -0.00606282 -0.00260554
1324 1 7.25815 23.6162 5.59912 -0.00133289 -0.00506597 -0.00199879
1325 1 4.71059 24.366 4.32754 -0.000940294 0.000912466 0.000932055
1326 1 5.95398 23.9371 6.40831 0.00892134 -0.00276475 -0.010076
1327 1 3.36992 23.9029 6.46761 0.00142836 -0.00908114 -0.00270336
1328 1 4.68783 22.0289 5.409 -0.00702299 -0.00143567 0.00399835
1329 1 4.67684 23.5737 5.66284 -0.00856079 -0.00468153 -0.00145066
1330 1 5.86431 23.2137 7.81609 -0.00675507 0.000172624 0.00235262
1331 1 3.37059 23.1842 7.88055 -0.00116905 -0.00313039 0.00136858
1332 1 4.63825 21.2707 6.79767 -0.00162572 -0.00434629 -0.00709688
1333 1 2.19586 22.0395 5.41552 -0.00425589 -0.00154727 0.000611831
1334 1 3.38009 21.6596 7.65237 0.000742089 -0.00686548 0.00456664
1335 1 0.787904 21.6842 7.59767 0.00800529 -0.00110386 0.00153116
1336 1 2.13951 19.7961 6.48639 0.000219481 -0.00109822 0.00643861
1337 1 2.08442 21.2934 6.7943 -0.000468326 -0.00449722 -0.00283908
1338 1 3.31325 20.9478 8.96216 -0.00218989 -0.000602883 -0.00602988
1339 1 0.755541 20.9381 8.89852 -0.00357669 0.0010865 -0.00364435
1340 1 2.11733 19.0798 7.83359 0.00697444 0.000594979 0.00782488
1341 1 22.321 19.7567 6.49959 0.00843775 -0.00866802 -0.00172575
1342 1 0.767567 19.3953 8.63613 -0.00201505 0.00471187 0.00528585
1343 1 22.3444 17.5007 7.53937 0.0027032 -0.00307605 0.0018085
1344 1 22.205 19.04 7.858 0.00610722 0.00761734 -0.00928338
1345 1 0.791705 18.6587 10.0101 0.00131061 -0.00453306 0.00210272
1346 1 22.2481 16.7921 8.87882 0.000545575 -0.00031306 -0.000716908
1347 1 12.3023 24.3602 4.36929 0.00757744 -0.00436562 0.00695373
1348 1 12.2532 23.5569 5.66928 0.00323077 -0.00725633 0.00308742
1349 1 9.78603 24.336 4.26276 -0.00623353 -0.00810959 -7.55863e-05
1350 1 10.9826 23.9591 6.50202 0.00704265 -0.00671539 -0.00337992
1351 1 8.51472 23.9865 6.39051 0.0113416 0.00186697 0.000420833
1352 1 9.78738 22.03 5.41324 -0.00223719 -0.00252148 0.00388425
1353 1 9.7484 23.5818 5.62413 0.00364283 -0.00963297 -0.00633678
1354 1 10.9091 23.2059 7.86312 -0.00146485 -0.00686739 0.00282514
1355 1 8.38458 23.2607 7.82016 -0.0013526 -0.00408682 0.00160344
1356 1 9.70792 21.309 6.76159 -0.00323999 -0.00265049 -0.00458007
1357 1 7.28189 22.1313 5.37651 0.00707057 0.00278411 -0.0043189
1358 1 8.45724 21.7514 7.57678 0.00475226 -0.000249646 0.00292194
1359 1 5.91738 21.695 7.48851 -0.00170826 -0.00410869 -0.00169617
1360 1 7.19458 19.8112 6.47339 0.00345862 -0.00292389 0.00272984
1361 1 7.18584 21.3399 6.73942 0.00204193 0.00231911 0.00291524
1362 1 8.40336 20.9415 8.87973 0.0083483 0.00204777 0.00180162
1363 1 5.87345 20.9888 8.88405 0.00499584 -0.00363276 0.00138753
1364 1 7.1595 19.1127 7.77994 0.00907646 0.00347943 0.00023369
1365 1 4.67907 19.819 6.48973 -0.00105407 -0.00453293 -0.000763748
1366 1 5.85395 19.4228 8.67734 -0.00189925 -0.00798757 0.00251303
1367 1 3.31917 19.4306 8.65503 0.00439807 -0.0067201 0.00394527
1368 1 4.65203 17.5804 7.63601 -0.00263973 0.000575184 -0.00555112
1369 1 4.6399 19.0303 7.89145 0.000359435 -0.00444429 0.00137857
1370 1 5.76811 18.7418 10.0937 -0.00181561 0.00202889 -0.0030947
1371 1 3.30182 18.683 10.0072 0.00381213 -0.000731758 0.00370346
1372 1 4.58293 16.7614 8.94173 0.000740176 -0.00704483 0.00132225
1373 1 2.14825 17.5414 7.51957 0.00801616 -0.000140512 -0.00627521
1374 1 3.26503 17.1623 9.7331 -0.00522584 0.000818802 0.00103731
1375 1 0.811886 17.2049 9.72281 0.00371231 -0.00911541 0.00338521
1376 1 2.07787 15.2192 8.61287 0.00367299 0.00254263 0.00259027
1377 1 2.04564 16.8157 8.82847 -0.000765943 -0.0012929 -0.00107258
1378 1 3.14004 16.414 11.0932 -0.00640536 0.00316123 -0.00631384
1379 1 0.66925 16.4569 11.0757 0.0073058 -0.00128085 -0.00427764
1380 1 1.99782 14.519 9.98059 -0.00213465 -0.00259191 -0.000639253
1381 1 22.2518 15.2255 8.68444 0.00613766 -0.00413522 0.0011499
1382 1 0.758658 14.8989 10.8413 0.00151391 0.00356458 -0.00647956
1383 1 22.1713 12.9726 9.74926 0.00396103 0.00518899 0.000857314
1384 1 22.1667 14.4884 10.0238 0.00685492 -0.000776492 -0.0015786
1385 1 0.653509 14.1293 12.1702 0.00281159 -0.00543577 0.0018417
1386 1 22.08 12.2178 11.1022 0.000304054 0.00347155 0.00151469
1387 1 17.4209 24.3485 4.34856 -0.00363698 0.00378665 -0.000193534
1388 1 17.3096 23.588 5.68891 -0.000392195 -0.00134369 0.00823276
1389 1 14.7737 24.3038 4.36809 -0.00768525 -0.00427351 -0.00331881
1390 1 16.0075 23.9687 6.52573 0.000641938 -0.00571068 -0.00522776
1391 1 13.4603 23.9695 6.52914 0.000438802 -0.004741 0.00655392
1392 1 14.7844 22.0011 5.49509 0.00342221 0.0039473 -0.000732297
1393 1 14.7453 23.5413 5.73517 0.00191431 0.00591112 -0.0106812
1394 1 15.9783 23.274 7.858 0.00437174 -0.000574831 -0.00321022
1395 1 13.4165 23.1633 7.89309 -0.00291517 0.00510269 -0.0039387
1396 1 14.7297 21.3251 6.84713 0.0065627 -0.00878818 0.00306806
1397 1 12.2621 22.0637 5.46073 -0.00366526 -0.00113518 0.00271394
1398 1 13.4571 21.6692 7.58744 0.00147459 -0.00676468 -0.0029995
1399 1 10.9427 21.686 7.62359 -0.000564844 0.000929033 0.00311877
1400 1 12.2908 19.7721 6.48964 0.00501827 -0.00822074 -0.000400282
1401 1 12.1827 21.2708 6.81085 0.00020164 -0.00186525 -0.0028251
1402 1 13.4384 20.9136 8.93071 0.00317215 -0.00111837 -0.00498251
1403 1 10.8969 20.9262 8.93004 -0.00263401 -0.0103723 0.00210959
1404 1 12.1849 18.978 7.87078 -0.00120374 -0.000875469 0.00498151
1405 1 9.75067 19.7816 6.49213 -0.00257627 -0.00197996 0.00778198
1406 1 10.8949 19.3549 8.6509 -0.0139379 0.00096516 -0.00173368
1407 1 8.35259 19.4058 8.65374 0.00395813 -0.0105947 0.00535931
1408 1 9.6871 17.4941 7.53995 0.00957563 -0.00773268 0.000970071
1409 1 9.66344 19.0452 7.80922 0.00369654 0.00430877 0.00497582
1410 1 10.8037 18.661 9.98373 -0.00194256 -0.0119965 -0.0061103
1411 1 8.2607 18.7221 9.9919 0.00300781 -0.000438033 0.00604234
1412 1 9.67062 16.8172 8.85285 -0.00601859 -0.00716307 -0.0109086
1413 1 7.16082 17.5296 7.52934 -0.00808757 -0.00331283 0.00279127
1414 1 8.33747 17.2075 9.6977 -0.000909335 -0.000742516 -0.00332614
1415 1 5.82708 17.1971 9.71592 -0.0114937 0.0022695 -0.00603954
1416 1 7.10391 15.3242 8.67921 0.00365519 0.00299332 0.0107318
1417 1 7.08602 16.8642 8.86687 -0.000214653 0.00473296 -0.00606637
1418 1 8.22089 16.38 11.0575 0.00780011 0.00258997 0.00292188
1419 1 5.65332 16.4461 11.0721 0.000601242 0.00380036 -0.00235507
1420 1 6.96952 14.5372 10.0297 0.00224894 0.00643139 0.00026718
1421 1 4.52648 15.1989 8.66876 -0.00555092 -0.00662965 -0.000165272
1422 1 5.71257 14.9644 10.8195 -0.00570828 -0.00346824 0.000979631
1423 1 3.19612 14.8625 10.7934 0.00230976 -0.00161187 0.00434399
1424 1 4.49334 13.0337 9.75231 0.00188523 0.00309349 0.00508178
1425 1 4.44956 14.5067 9.98925 0.00367417 0.00195655 0.00265676
1426 1 5.61604 14.1371 12.2069 0.000974721 -0.00243007 -0.00393878
1427 1 3.11717 14.1906 12.1667 -0.000408344 -0.00156051 0.00779893
1428 1 4.44019 12.2751 11.1306 -0.00418059 0.00527854 0.00454864
1429 1 2.02197 12.9851 9.72888 -0.0043242 -0.00227698 -0.00390785
1430 1 3.14363 12.6369 11.9625 -0.000990891 0.000639448 -0.000626338
1431 1 0.584301 12.6562 11.9108 0.00338566 -0.000283582 0.0106417
1432 1 1.93708 10.6893 10.841 -0.00134631 0.00338221 -0.00925015
1433 1 1.95824 12.2645 11.1158 0.000811528 -0.0033064 0.0113284
1434 1 3.07252 11.8744 13.3116 -0.00512955 -0.00136765 -0.000875828
1435 1 0.479518 11.913 13.2789 0.00419645 -0.0071874 -0.00294213
1436 1 1.85638 10.016 12.1804 -0.00012004 -0.00631263 -0.00593307
1437 1 22.1443 10.7299 10.8246 0.00175583 0.00275471 -0.00975326
1438 1 0.533938 10.3918 13.0062 -0.000138679 0.00338842 0.00135725
1439 1 22.0422 8.44504 11.9029 -0.000230108 0.00346001 0.001979
1440 1 22.0271 9.94969 12.1374 -0.00349827 0.00367019 0.00623099
1441 1 0.358094 9.6428 14.4058 0.00435894 0.00798013 -0.00106315
1442 1 21.9364 7.69619 13.2268 0.00257679 -3.69891e-05 -0.00266613
1443 1 19.8937 24.3852 4.3446 -0.00069328 0.000734035 0.00928927
1444 1 21.0156 24.0019 6.49671 0.000820959 -0.002373 0.000753315
1445 1 18.5789 23.98 6.51795 -0.00613869 -0.00243965 0.00301515
1446 1 19.8321 22.168 5.44811 0.00890695 -0.011645 0.00696458
1447 1 19.8225 23.6418 5.70702 0.00200454 0.00116491 -0.00101002
1448 1 20.987 23.2542 7.82524 0.00172381 0.00338053 -0.000585701
1449 1 18.4984 23.222 7.87773 0.00145021 -0.00427325 0.00320365
1450 1 19.7833 21.3823 6.7837 -0.00656274 -0.00913047 -0.00241644
1451 1 17.325 22.0223 5.45293 0.00753821 -0.00229677 0.00104391
1452 1 18.5658 21.7585 7.60107 0.00679072 -0.00642301 0.00665269
1453 1 15.9396 21.725 7.6062 0.0010792 0.00542196 -0.0117294
1454 1 17.2919 19.7842 6.46636 0.00458815 -0.00700348 0.000598586
1455 1 17.2667 21.296 6.7462 -0.00218159 -0.00207119 0.00793963
1456 1 18.4137 20.9104 8.86679 0.00792754 -0.00434131 0.00493333
1457 1 15.9284 20.9653 8.93513 0.001888 0.00449488 0.00126492
1458 1 17.1853 19.0507 7.85529 -0.0068055 -0.00595532 -0.000587464
1459 1 14.8505 19.826 6.50146 0.00498018 -0.00112722 -0.00449089
1460 1 15.9859 19.4275 8.64118 0.00231508 -0.00218926 -0.000854298
1461 1 13.4691 19.3859 8.65597 -0.00492398 -0.0091118 0.00160745
1462 1 14.7236 17.5003 7.58491 0.00087618 -0.00345289 -0.00643814
1463 1 14.7167 19.0211 7.84083 -0.0135617 -0.00342689 -0.00351994
1464 1 15.8796 18.7088 10.0314 0.0105457 -0.00653755 0.00221658
1465 1 13.4016 18.7311 10.0191 0.00761539 -0.0122027 -0.00353753
1466 1 14.6731 16.804 8.94639 0.00501542 -0.00318325 -0.00130176
1467 1 12.1613 17.4961 7.57399 0.00363788 -0.00241893 -0.00670103
1468 1 13.386 17.1621 9.73071 0.00366893 -0.000430812 0.0048251
1469 1 10.8763 17.1054 9.69623 -0.00132168 -0.00416078 0.00829264
1470 1 12.2071 15.2023 8.63088 0.0019179 0.00310263 -0.00224508
1471 1 12.1887 16.764 8.90844 -0.00392137 0.00172719 0.00309892
1472 1 13.2716 16.4336 11.0947 -0.0103092 0.00323848 -0.00932763
1473 1 10.6931 16.3861 11.0997 -2.17629e-05 -0.00301024 -0.0011113
1474 1 12.0348 14.535 9.9835 -2.0484e-05 -0.00521802 -0.00610743
1475 1 9.60359 15.2663 8.59475 -0.00567937 0.00156497 -0.0011929
1476 1 10.7435 14.8411 10.8292 -0.00689732 0.00908747 -0.00243719
1477 1 8.2651 14.8895 10.7699 -0.00471253 -0.0116799 -0.00343541
1478 1 9.56478 12.9485 9.6955 0.00236171 -0.00688244 0.000302388
1479 1 9.52216 14.4581 9.96009 -0.00266694 -0.00174855 -0.00117663
1480 1 10.6302 14.1129 12.1957 -0.000978916 -0.00336923 -0.000891682
1481 1 8.18504 14.1683 12.154 0.0093534 -0.000395705 -0.00256154
1482 1 9.48428 12.2226 11.0897 0.000295938 -0.00202902 0.00541342
1483 1 7.04054 13.0187 9.77467 -0.000652864 -0.00683412 0.00460922
1484 1 8.18661 12.6142 11.8793 -0.00127682 -0.00592038 -0.00660509
1485 1 5.68412 12.6276 11.928 -0.00627448 -0.00797598 -0.00341769
1486 1 6.9397 10.7011 10.8101 0.00852729 0.00628668 0.00570211
1487 1 6.91241 12.2382 11.157 -0.00325422 -0.00431517 -0.00289077
1488 1 8.11999 11.8353 13.1929 0.00182621 -0.00248696 -0.00109666
1489 1 5.5661 11.8365 13.2812 -0.000535102 -0.00365958 0.0058705
1490 1 6.90584 9.97708 12.1436 -0.00432107 -0.00303817 0.00233953
1491 1 4.48673 10.7452 10.8366 0.00642473 0.00156801 -0.00983014
1492 1 5.6026 10.381 13.0306 -0.00729934 -0.00466737 -0.00301066
1493 1 3.11367 10.3982 13.0518 0.00405947 -0.0034111 -0.000953703
1494 1 4.41078 8.42837 11.9148 -0.00541806 -0.00656572 -0.000702489
1495 1 4.41439 9.96356 12.1672 0.000993359 0.00291363 -0.00706842
1496 1 5.48293 9.61068 14.3797 0.00559289 0.00371572 -0.00287033
1497 1 2.91142 9.64222 14.3837 0.00317055 0.00451034 -0.0101616
1498 1 4.29496 7.72265 13.2887 0.00706727 -0.00116714 -0.00595239
1499 1 1.94116 8.4805 11.9641 -0.00704312 0.00105314 -0.00315211
1500 1 2.99608 8.09059 14.0687 -0.00487732 -0.00327665 -0.00552739
1501 1 0.432629 8.13786 14.0833 -0.00340204 0.00121616 -0.000674276
1502 1 1.77039 6.15093 12.9467 0.00829035 -0.00280999 0.00389155
1503 1 1.77909 7.67481 13.235 0.000228178 -0.002317 -0.000711135
1504 1 2.95705 7.42398 15.4362 0.00235837 0.00106928 0.000664929
1505 1 0.375471 7.40866 15.4577 0.00353752 0.0030128 0.0123339
1506 1 1.58212 5.44478 14.4247 0.00318417 0.00104786 0.00520609
1507 1 21.9586 6.19327 12.9805 -0.00349677 -0.00486156 -0.00839525
1508 1 0.345483 5.78987 15.2278 0.00561924 -0.015716 0.000352559
1509 1 21.8683 3.95736 14.1013 -0.000810029 -0.000170587 0.00204001
1510 1 21.8133 5.48095 14.3682 -0.00407053 -0.0143256 -0.00014051
1511 1 0.255757 5.12615 16.5956 -0.00436792 0.00553038 -0.00250684
1512 1 21.7348 3.23342 15.4781 -0.0158928 0.000861113 -0.00823854
1513 1 20.9816 21.7139 7.61831 0.000337628 -0.00560234 0.00146525
1514 1 20.9435 20.9496 8.92979 0.00632434 -0.00244409 -0.0104776
1515 1 19.8187 19.8378 6.4601 0.00349374 -0.0124794 -0.00424041
1516 1 21.0177 19.426 8.65405 -0.0012168 -0.0053874 0.0041232
1517 1 18.5372 19.3966 8.60083 0.00262998 0.000515989 -0.00913435
1518 1 19.8057 17.5111 7.58734 0.000923871 -0.00271611 0.00618785
1519 1 19.7715 19.0023 7.78609 -0.0065621 -0.00691688 0.00297319
1520 1 20.9399 18.6197 10.0115 -0.00217128 0.00643849 0.00795923
1521 1 18.4137 18.6348 9.99262 0.00712194 -0.000733882 -0.00235387
1522 1 19.6807 16.7515 8.9006 -0.00179566 0.00226978 0.000280552
1523 1 17.2132 17.5078 7.57908 -0.00698541 -0.00717901 -0.00251713
1524 1 18.4248 17.1541 9.74551 -0.00552885 -0.00182611 -0.00327886
1525 1 15.8577 17.1838 9.75585 -0.00862194 -0.0052891 -0.0083745
1526 1 17.212 15.2451 8.58142 -0.00239379 0.00340858 0.00294168
1527 1 17.1919 16.7801 8.89964 0.00492713 -0.00813835 0.00403369
1528 1 18.2667 16.364 11.0949 0.00479213 -0.00100756 -0.00544113
1529 1 15.7789 16.3515 11.106 -0.00581267 0.00597306 -0.000190999
1530 1 17.1325 14.5052 9.93403 0.00219712 -0.00617606 0.00468147
1531 1 14.6927 15.2414 8.67417 -0.0047763 -0.0037366 -0.000521808
1532 1 15.7826 14.9171 10.8222 -0.0126069 0.00167115 -0.00687605
1533 1 13.2457 14.9403 10.8305 0.00191499 0.000218687 -0.0065283
1534 1 14.5611 12.9812 9.701 -0.00334666 0.00533441 0.000798766
1535 1 14.6002 14.5203 10.0652 0.00496151 0.00521986 0.00157217
1536 1 15.6662 14.1746 12.147 0.00222079 0.00707542 0.00528192
1537 1 13.0716 14.1942 12.1844 -0.0032595 0.00110936 -0.000894863
1538 1 14.5235 12.2149 11.0945 0.00216299 -0.0033978 -0.00750852
1539 1 12.0862 13.0064 9.7837 -0.00251142 0.00304002 -0.0038788
1540 1 13.181 12.6448 11.8949 0.0010901 -0.00851954 0.00168738
1541 1 10.7316 12.6045 11.9023 -0.00156519 -0.00260399 0.00806759
1542 1 12.0347 10.7523 10.8394 -0.0059234 -0.00498957 -0.00174136
1543 1 11.9705 12.2109 11.118 -0.00287757 -0.00094177 0.0018614
1544 1 13.1562 11.8716 13.2848 -0.00482162 -0.00642856 0.00248564
1545 1 10.6455 11.8773 13.2896 -0.00244336 -0.000839299 0.00637517
1546 1 11.9437 9.94704 12.2269 0.000371689 -0.00484999 0.000175492
1547 1 9.4912 10.721 10.8723 -0.00741663 -0.00613212 0.00290808
1548 1 10.6329 10.3274 13.0373 0.00554481 0.00413564 -0.00751482
1549 1 8.13426 10.3849 12.936 0.0013399 0.00216111 -0.00705042
1550 1 9.3883 8.43068 11.9306 0.00137514 -0.00115341 0.00365825
1551 1 9.40008 9.95194 12.2237 -0.00148954 -0.00550863 -0.00261444
1552 1 10.4746 9.64015 14.4191 -0.00111012 -4.90129e-05 -0.00885961
1553 1 7.93015 9.61786 14.3556 0.00141889 -0.0013931 0.00127438
1554 1 9.28955 7.7207 13.2748 -0.00190943 0.00173043 0.0025034
1555 1 6.89027 8.45215 11.9103 -0.00160866 -0.000860634 -0.00141592
1556 1 7.93044 8.10054 14.0734 0.0055111 -9.22145e-06 0.000207691
1557 1 5.50405 8.082 14.0941 0.00700987 -0.00218492 0.00373787
1558 1 6.74532 6.21466 12.9757 -0.00354094 0.00828168 0.00327801
1559 1 6.79026 7.66908 13.2203 -0.000376039 0.00427622 -0.00635966
1560 1 7.86428 7.40038 15.4593 0.00227291 0.00196082 0.00449269
1561 1 5.40016 7.28535 15.4802 0.00851956 -0.00119608 -0.00323159
1562 1 6.7143 5.50284 14.3905 -0.00114697 -1.91217e-05 0.000148144
1563 1 4.26804 6.14669 13.0426 0.00235349 -0.0108228 -0.0123238
1564 1 5.38941 5.89782 15.1979 0.00561194 -0.00428645 -0.00101544
1565 1 2.84667 5.87967 15.2074 -0.00279675 -0.00250631 -0.00483432
1566 1 4.20502 3.94007 14.1392 0.0131367 0.00677476 0.000886866
1567 1 4.15084 5.45298 14.3878 -0.00323174 -0.00994221 -0.00613453
1568 1 5.33339 5.16232 16.5753 0.00649956 0.000730759 -0.00309965
1569 1 2.75572 5.12116 16.5807 0.0058994 -0.00345105 -0.00553282
1570 1 4.1338 3.18714 15.4361 -0.00293803 -0.000250674 -0.00116214
1571 1 1.67774 3.92914 14.1531 -0.0116108 0.00969258 0.00888234
1572 1 2.80595 3.56956 16.3083 0.00121534 -0.000969295 -0.0032445
1573 1 0.301941 3.56288 16.2548 -0.00948181 -0.00514859 -0.00525617
1574 1 1.62979 1.59922 15.2073 0.00666963 -0.00506291 -0.00401072
1575 1 1.53383 3.22886 15.5143 -0.00638618 0.00534723 -0.000768568
1576 1 2.86328 2.87044 17.589 -0.00137113 -0.0077699 -0.00176469
1577 1 0.258164 2.94755 17.6149 -0.00674683 0.00129534 0.00546415
1578 1 1.50766 0.958811 16.6214 0.00142973 -0.000502979 0.00254849
1579 1 21.8035 1.70264 15.2288 0.00205308 -0.00442167 0.00108241
1580 1 0.210313 1.32628 17.5341 -0.00709067 -0.00442686 0.00627398
1581 1 21.6507 0.971112 16.6751 -0.00819542 -0.00510496 -0.00359447
1582 1 20.9042 17.1616 9.76733 -0.000757324 -0.00305411 0.0107362
1583 1 20.8562 16.4037 11.0813 0.00188795 -0.00669896 -0.00297935
1584 1 19.7557 15.2489 8.63499 0.00143917 -0.00867205 -0.000771943
1585 1 20.8729 14.8545 10.8774 0.00830346 -0.00280506 -0.00726235
1586 1 18.3312 14.8389 10.8184 -0.000914453 -0.0126183 -0.0130625
1587 1 19.6524 12.9505 9.72709 0.00585919 0.00521001 0.000404932
1588 1 19.6406 14.4531 10.0284 0.00239844 -0.00436804 0.000486029
1589 1 20.8036 14.1206 12.1946 -0.00646922 -0.000428232 0.000331722
1590 1 18.2265 14.0934 12.1713 -0.00460044 -0.00437949 0.00308247
1591 1 19.5346 12.2203 11.1299 0.00716156 -0.00544957 -0.0135577
1592 1 17.0576 12.9868 9.67457 -0.0076553 0.0100103 0.0070963
1593 1 18.2196 12.6633 11.8723 -0.00149204 -0.00196449 -0.00217463
1594 1 15.7385 12.6044 11.8794 0.00282313 -0.0011794 -0.00704111
1595 1 17.0757 10.6851 10.7915 0.00450353 -0.00481392 0.0031107
1596 1 16.9944 12.2595 11.0752 0.00135609 0.00163562 -0.00178538
1597 1 18.1471 11.8983 13.2688 0.00552932 -0.00379257 -0.000628348
1598 1 15.6526 11.8913 13.1747 0.00717914 0.0074137 -0.00731545
1599 1 16.99 9.94418 12.1481 0.00325968 -0.00619468 0.00820141
1600 1 14.5369 10.68 10.83 0.00894511 -0.00262352 -0.00573351
1601 1 15.6886 10.3458 13.0289 0.000341158 -0.00121791 -0.00480712
1602 1 13.1665 10.3554 13.0455 -0.000522787 -0.000269117 -0.000391402
1603 1 14.5041 8.41651 11.8799 0.00428591 -0.00195462 0.013103
1604 1 14.4957 9.93767 12.2185 0.00189386 0.00696495 -0.00429601
1605 1 15.5514 9.63153 14.3334 0.00320312 0.0012991 0.00294507
1606 1 13.0685 9.59763 14.3174 -0.00129037 0.00975171 -0.00725558
1607 1 14.3538 7.68683 13.2604 0.00128378 -0.00577839 -0.00325812
1608 1 11.9427 8.4267 11.8984 0.000323247 0.0081234 -0.00786565
1609 1 13.0726 8.07305 14.0989 0.00045993 -0.00410936 -0.00763902
1610 1 10.4997 8.12737 14.1766 -0.000484478 0.0015067 0.000970376
1611 1 11.8155 6.21778 13.0558 0.00535979 -0.00532559 -0.00118665
1612 1 11.8639 7.66633 13.2833 0.00441443 -0.000592241 0.000460412
1613 1 12.9967 7.41516 15.4618 -0.00168232 -0.000104136 0.00124602
1614 1 10.4695 7.39939 15.4648 0.00127483 0.0134871 0.00317122
1615 1 11.7694 5.50981 14.3909 -0.000900866 -0.00361801 -0.00290991
1616 1 9.2781 6.17126 13.0204 0.00294621 0.00536614 0.00655244
1617 1 10.4708 5.89079 15.2185 -0.00403532 0.00126945 -0.0124108
1618 1 7.95816 5.89216 15.1495 -0.00266886 0.00635582 -0.0047007
1619 1 9.30728 3.96975 14.0702 0.00395084 0.00643575 0.00995317
1620 1 9.19749 5.45951 14.3864 0.000221934 -0.00177014 0.00410268
1621 1 10.3787 5.11236 16.5316 0.00556977 -0.00602445 -0.00471443
1622 1 7.83878 5.1407 16.5804 0.000283365 -0.000528877 -0.00341962
1623 1 9.21529 3.19175 15.4963 -0.0107374 -0.00636598 -0.00833968
1624 1 6.7373 3.93854 14.1087 0.00373863 -0.00167408 0.00136693
1625 1 7.87135 3.6257 16.2433 -0.000535871 0.00773038 0.00231557
1626 1 5.41309 3.60742 16.2578 0.00193078 -0.011293 -0.000307558
1627 1 6.65889 1.57931 15.2096 -0.00512612 -0.0026496 -0.0079314
1628 1 6.65737 3.23054 15.4134 -0.0137336 -0.005081 0.00245073
1629 1 7.83797 3.02282 17.6256 0.00115277 -0.00344958 -0.00124184
1630 1 5.3694 2.86627 17.5307 0.000549845 -0.00162695 0.00444268
1631 1 6.54605 0.960027 16.5781 0.000553387 -4.90946e-05 -0.00518353
1632 1 4.17532 1.66101 15.1831 0.00752563 0.00178993 0.00679027
1633 1 5.21146 1.36786 17.4633 -0.00103732 0.00776973 -0.00238577
1634 1 2.74712 1.32201 17.4948 0.00197984 0.00305614 -0.00144168
1635 1 3.9984 0.982035 16.5083 -0.00268025 -0.0110327 0.00791469
1636 1 20.7935 12.6115 11.9182 0.00575273 0.00027269 0.00491859
1637 1 20.6633 11.8285 13.2534 0.00577155 -0.0107198 0.00539511
1638 1 19.576 10.6914 10.8575 0.00383299 0.00235147 0.00127155
1639 1 20.8154 10.3294 12.956 -0.00191438 0.00692101 -0.00395775
1640 1 18.2116 10.3397 13.0283 -0.00496237 0.000977729 -0.01681
1641 1 19.5296 8.41889 11.9316 -0.00672495 -0.0070987 -0.00346069
1642 1 19.5276 9.92267 12.2479 0.00428819 0.000718315 -0.00959707
1643 1 20.5697 9.59999 14.3904 -0.00374035 0.00540148 -0.00629868
1644 1 18.0224 9.65263 14.4272 -0.00593353 -0.0020183 -0.00350361
1645 1 19.394 7.71908 13.2281 -0.00107619 0.000187034 -0.00660679
1646 1 16.9712 8.42675 11.9611 -0.0013612 -0.00260609 -0.00120414
1647 1 18.0772 8.12003 14.0495 0.0103071 -0.00320221 -0.00600569
1648 1 15.5376 8.09089 14.1158 0.00413971 -0.0100662 0.00156795
1649 1 16.934 6.18796 12.9919 0.00069482 -0.0113868 0.00359596
1650 1 16.8745 7.66411 13.3031 0.00561255 -0.00319258 0.00588379
1651 1 17.9855 7.3557 15.3555 -0.000270438 0.000340224 0.00208454
1652 1 15.447 7.42053 15.5032 0.00414753 0.00521655 -0.00313844
1653 1 16.7839 5.46306 14.3339 0.00492417 0.000411687 0.00480888
1654 1 14.3656 6.18445 12.9309 -0.000238982 -0.00842243 0.00297078
1655 1 15.4143 5.87112 15.2081 -0.00231881 0.00676764 -0.0010567
1656 1 12.9351 5.88677 15.2229 -0.00648359 -0.00370929 -0.000952376
1657 1 14.2947 3.99559 14.0446 0.00015997 0.00411331 -0.00348662
1658 1 14.2559 5.46517 14.351 -0.00606586 0.00772778 -0.00495737
1659 1 15.4005 5.11045 16.6035 -0.000336613 -0.00319236 0.00365911
1660 1 12.8316 5.10024 16.5778 -0.00369207 -0.000569685 -0.0134248
1661 1 14.2027 3.23654 15.3648 -0.00190137 -0.000403358 0.00495508
1662 1 11.7789 3.95259 14.1014 0.00417056 -0.00378001 0.000604007
1663 1 12.9538 3.56223 16.1907 -0.000612991 -0.00499761 -0.00251318
1664 1 10.4264 3.61801 16.2657 0.00383475 -0.00879533 0.0049404
1665 1 11.7493 1.71495 15.14 -0.00456911 -0.00233356 -0.0102685
1666 1 11.7524 3.22127 15.4335 -0.0067527 -0.000910026 -0.000827845
1667 1 12.8544 2.94439 17.5353 -0.00732589 -0.00277208 -0.00169084
1668 1 10.3317 2.95177 17.5753 0.000843147 -0.00152382 0.000390886
1669 1 11.5592 0.915078 16.5771 0.00416416 0.00289491 -0.00681641
1670 1 9.19755 1.66038 15.2637 0.00457232 -0.000646321 -0.00790638
1671 1 10.3045 1.35668 17.4973 0.00381804 0.00627754 -0.00234177
1672 1 7.76452 1.3267 17.5027 -0.00213518 -0.00138311 -0.0057187
1673 1 9.05407 0.966048 16.578 0.00464195 -0.00544736 -0.0151272
1674 1 20.6414 8.08969 14.0673 0.00494933 -0.00387973 0.00350187
1675 1 20.5706 7.34129 15.3902 0.00221721 -0.00292239 -0.000671176
1676 1 19.4426 6.16409 12.923 -0.00149172 -0.00409102 -0.0096642
1677 1 20.5044 5.86246 15.1652 0.0103635 0.00145031 -0.00705066
1678 1 17.9569 5.84004 15.1493 -0.00152615 -0.00290627 -0.00838985
1679 1 19.3402 3.86455 14.1037 -0.00218365 0.00466666 -0.00650198
1680 1 19.3084 5.43834 14.3186 -0.00616614 0.00724281 -0.00660661
1681 1 20.4373 5.22608 16.6137 0.00484856 0.00240268 -0.00312855
1682 1 17.8993 5.13392 16.4749 0.00173326 -0.00751626 0.000455624
1683 1 19.2648 3.18053 15.4783 0.00116419 -0.00657674 0.00677764
1684 1 16.8202 3.88319 14.0587 -0.00626193 -0.00844472 0.00132187
1685 1 17.9112 3.65531 16.2661 0.000236627 0.00281321 0.0102564
1686 1 15.4166 3.61961 16.2887 -0.00294443 0.00315575 0.00362552
1687 1 16.7363 1.70814 15.1944 0.00509356 -0.00266154 0.00364459
1688 1 16.7176 3.25207 15.4425 -0.00905519 0.00680113 -0.00928135
1689 1 17.9003 2.98901 17.5679 0.0143253 0.00245063 0.000547777
1690 1 15.3159 3.01537 17.6372 -0.00264645 0.00746799 0.00120356
1691 1 16.5709 0.970849 16.548 -0.00163122 0.000279328 0.005458
1692 1 14.237 1.72825 15.181 0.00187328 -0.00616401 -0.00279294
1693 1 15.3051 1.29546 17.456 0.000846887 0.00682018 -0.00197996
1694 1 12.8049 1.32464 17.468 -0.00603675 0.00222167 -0.00687041
1695 1 14.0625 0.953897 16.5413 0.00163989 -0.000189845 -0.00221192
1696 1 20.453 3.67127 16.3046 0.00655592 0.00289726 0.00240381
1697 1 20.4183 2.98996 17.6039 -0.00548578 0.00577866 -0.00242667
1698 1 19.2605 1.69388 15.2649 0.00260609 0.001369 0.00405421
1699 1 20.383 1.36407 17.5214 -0.00282669 0.000185235 -0.00539309
1700 1 17.8281 1.35347 17.4871 0.00381669 0.000924788 0.0125448
1701 1 19.1303 0.940174 16.5889 0.00570417 -1.6132e-05 -0.000128302
1702 1 22.2271 23.6591 8.67137 0.00512995 -0.0071161 -0.00228507
1703 1 0.68124 24.8216 11.0797 -0.00331084 -0.000484363 0.00183032
1704 1 22.0687 22.8714 10.0175 0.00260887 0.000905343 0.00351309
1705 1 4.554 23.5914 8.60756 0.0109322 -0.00022879 0.00193253
1706 1 5.68243 24.7434 11.0752 0.000254702 -0.00206928 0.00554045
1707 1 3.18198 24.7465 11.1454 0.005194 -0.00627995 -0.000342269
1708 1 4.46793 22.8805 10.0292 -0.00518577 0.00868118 -0.000741588
1709 1 1.98941 23.6327 8.67308 -0.012135 0.00395687 0.00152008
1710 1 3.18691 23.2249 10.869 0.00277938 -0.00655201 0.000597655
1711 1 0.597656 23.2536 10.8731 -3.10207e-05 8.61153e-05 -0.00385252
1712 1 1.98326 21.3628 9.76541 -0.00488694 0.00482193 0.00442466
1713 1 1.90626 22.9119 10.0553 0.00137051 0.00091365 0.00449111
1714 1 3.05605 22.4894 12.242 0.000570971 0.00776306 -0.0019989
1715 1 0.515132 22.5394 12.1896 -0.00503794 0.00596806 0.00632018
1716 1 1.90438 20.5757 11.1222 -0.0036472 -0.00668209 0.00273849
1717 1 22.1723 21.3406 9.76107 0.000672837 -0.00519333 8.18425e-05
1718 1 0.618096 20.9722 11.9131 0.00371387 -0.00698231 -0.00554547
1719 1 22.1474 19.09 10.8424 -0.00677447 0.00469774 0.00690904
1720 1 22.1104 20.5695 11.1126 0.000755076 0.00488607 0.00543002
1721 1 0.489946 20.2101 13.2898 0.00879101 -0.00785124 0.0049937
1722 1 22.0322 18.3788 12.2247 0.0107043 0.00103758 0.00767802
1723 1 9.59273 23.6727 8.59633 0.0045401 0.00632626 -0.00412223
1724 1 10.7815 24.7759 11.1112 0.000614526 0.00438945 0.00170377
1725 1 8.21499 24.8086 11.1051 -0.00364628 -0.00518997 7.69691e-06
1726 1 9.55428 22.8949 10.0067 0.00348618 -0.000866788 -0.00342025
1727 1 7.08773 23.5949 8.56913 0.00183705 -0.00368887 -0.00294959
1728 1 8.28291 23.2799 10.8188 0.00607647 0.00936846 0.00301481
1729 1 5.69101 23.2196 10.8264 0.00714865 0.00740828 0.0017096
1730 1 7.12314 21.3415 9.73496 -0.00614128 -0.00035381 -0.00183599
1731 1 7.06181 22.9046 9.98004 -0.00364972 -0.00111532 -0.00310032
1732 1 8.21758 22.5341 12.2008 0.0014171 0.0014496 0.003845
1733 1 5.66906 22.5243 12.1672 -0.00248625 -0.000883435 -0.00141874
1734 1 7.02437 20.5941 11.0931 0.00188207 0.00583957 -0.00342676
1735 1 4.5064 21.3632 9.77808 -0.00979665 -0.000980743 -0.00387754
1736 1 5.66575 21.0196 11.9153 0.00281489 -0.0050761 0.00163878
1737 1 3.09771 21.016 11.9072 0.00687776 0.00188142 -0.00128432
1738 1 4.47669 19.1019 10.8144 -0.002121 -0.00764864 0.00118205
1739 1 4.47846 20.6441 11.1355 -0.00332945 -0.00446042 0.00254932
1740 1 5.53095 20.3249 13.3525 -0.00273042 0.00366272 0.000111844
1741 1 3.02506 20.2254 13.3166 0.00467613 0.000423134 0.00497486
1742 1 4.37106 18.2825 12.2017 -0.000471669 0.0108221 -0.000784387
1743 1 1.96635 19.076 10.827 -0.00885513 0.00459179 0.00617323
1744 1 3.07705 18.6867 13.0268 0.000560051 -0.000145819 0.00575339
1745 1 0.52756 18.7084 13.0085 0.00295943 0.00314795 -3.50478e-05
1746 1 1.85728 16.8252 11.9587 0.00401367 -0.00532981 -0.0104505
1747 1 1.82587 18.2853 12.2397 0.0116807 -0.0101916 0.000193226
1748 1 2.93283 17.9437 14.3717 0.00912147 0.00453144 0.00219836
1749 1 0.364372 18.0107 14.4368 -0.000992668 -0.00103689 0.00604965
1750 1 1.70844 16.0337 13.3073 0.00437873 0.00077812 0.00222352
1751 1 22.0285 16.7827 11.9302 -0.00264307 -0.00245356 -0.00444925
1752 1 0.452575 16.4178 14.0919 -0.00289626 -0.00395009 0.00306258
1753 1 22.0653 14.5551 12.9898 -0.00618283 -0.0024187 0.00329744
1754 1 21.9686 16.0522 13.2554 0.000809122 0.00383523 -0.00268583
1755 1 0.367657 15.7368 15.4773 -0.000863759 -0.00378637 -0.000721762
1756 1 21.8409 13.8041 14.311 0.00303854 -0.011392 0.00736246
1757 1 14.605 23.6181 8.67591 -0.000714946 -0.00096663 0.00289166
1758 1 15.8041 24.7903 11.1191 0.00810566 -0.00782389 -0.00395141
1759 1 13.264 24.7557 11.096 -0.00408945 0.00489306 -0.00219441
1760 1 14.5883 22.8301 10.0205 0.000510693 -0.00223047 0.00715615
1761 1 12.1514 23.5853 8.66966 -0.00326349 0.00770538 0.00275812
1762 1 13.3057 23.2391 10.8169 0.00201286 -0.000621284 -0.00148866
1763 1 10.7784 23.2693 10.81 -0.00264132 0.00268224 0.00175196
1764 1 12.0851 21.327 9.78625 -2.36165e-05 0.00297095 -0.00479808
1765 1 12.0547 22.8674 10.0219 0.0027082 -0.00461451 -0.00262786
1766 1 13.224 22.5444 12.1871 0.000214119 -0.00282069 0.00062052
1767 1 10.7054 22.5115 12.2216 0.008459 -0.00944122 0.000704191
1768 1 12.0722 20.5851 11.1176 -0.00242086 0.00685355 0.00312548
1769 1 9.55224 21.3704 9.73953 -0.00551287 -0.000585975 -0.00323403
1770 1 10.721 20.9739 11.9671 -0.00195931 -0.00159633 -0.00480949
1771 1 8.20662 20.9566 11.9653 -0.00794461 9.8252e-05 -2.70498e-05
1772 1 9.49951 19.0718 10.7669 0.00820981 -0.00576482 0.00178105
1773 1 9.51965 20.5677 11.0819 0.00272838 -0.00460724 -0.00219976
1774 1 10.613 20.2242 13.2608 0.00540428 0.00184003 0.00330986
1775 1 8.07777 20.2488 13.2979 -0.00518514 0.00115657 -0.00487141
1776 1 9.38711 18.2911 12.1654 -0.00380879 -0.000150759 -0.00566229
1777 1 6.96022 19.056 10.8509 0.000545894 0.00512487 0.00131559
1778 1 8.14029 18.7458 12.9586 0.0019564 0.00314343 -0.00588306
1779 1 5.53202 18.7695 13.0424 -0.00261975 0.00305671 -0.0137055
1780 1 6.89802 16.8146 11.8883 -0.00352221 0.00499153 0.00226985
1781 1 6.91091 18.3247 12.2057 0.00258392 -0.00166987 -0.00862254
1782 1 7.99155 18.0098 14.3886 -0.00342645 0.00182027 -0.004848
1783 1 5.40172 18.0256 14.382 0.00439844 0.000626936 0.00531636
1784 1 6.73542 16.1212 13.257 0.000313169 -0.00501904 -0.00642657
1785 1 4.3165 16.7998 11.9355 -0.000293289 0.00290768 -0.00289464
1786 1 5.48325 16.4933 14.0655 -0.00325433 -0.00213136 0.00118849
1787 1 2.94694 16.4417 14.1091 -0.00714965 -0.00851434 -0.00435414
1788 1 4.34137 14.59 12.9756 -0.00103007 -3.02131e-05 0.00419137
1789 1 4.27012 16.0676 13.293 0.000563354 -0.00485103 -0.00697849
1790 1 5.41833 15.733 15.468 -0.00103762 0.00619399 0.0025234
1791 1 2.94037 15.7375 15.4844 0.00208465 -0.00489577 -0.00868499
1792 1 4.22946 13.81 14.3659 0.00505812 0.00217449 0.00340376
1793 1 1.84933 14.5417 12.9997 0.0063321 0.000901518 0.000200384
1794 1 2.92953 14.2047 15.2057 -0.00339215 -0.0100142 -0.00345791
1795 1 0.401771 14.1668 15.2071 -0.00387848 0.0017373 -0.00885805
1796 1 1.71523 12.303 14.0781 -0.00311106 -0.00398896 0.00727725
1797 1 1.74553 13.7797 14.3631 0.00300448 -0.00566545 -0.00236905
1798 1 2.82619 13.5316 16.5898 0.00952483 0.00389332 -0.00272992
1799 1 0.335383 13.441 16.5599 -0.0067162 -0.000276334 0.00152773
1800 1 1.66248 11.5008 15.4253 -0.000642762 -7.79525e-06 0.00295321
1801 1 21.8038 12.2908 14.0599 0.00823733 -0.00606128 0.000480582
1802 1 0.31428 11.9656 16.21 0.00511119 -0.00334688 -0.00119745
1803 1 21.7602 10.006 15.2226 0.00635003 -0.00401043 -0.00065242
1804 1 21.8108 11.5647 15.4373 -0.00525126 -0.00632462 0.0095892
1805 1 0.306442 11.3228 17.522 0.00459049 0.0046051 0.00428859
1806 1 21.6765 9.29003 16.5929 -0.0021592 -0.00859196 0.00292416
1807 1 19.6627 23.6192 8.69422 -0.00532121 -0.0115224 -0.000526997
1808 1 20.7843 24.7605 11.1014 0.0110648 0.00251205 -0.00300683
1809 1 18.2826 24.7997 11.1779 -0.0019817 -0.0043008 -0.0097018
1810 1 19.6258 22.8544 10.029 -0.000259709 0.0013606 -0.0115702
1811 1 17.1806 23.5783 8.72145 0.000654344 -0.0101194 -0.00477025
1812 1 18.3467 23.2101 10.8824 0.0067265 0.0077367 -0.00339899
1813 1 15.8379 23.2582 10.8052 -0.00448274 0.00391627 -0.000651652
1814 1 17.1443 21.2945 9.83482 0.00504763 0.00122503 0.000444072
1815 1 17.101 22.8149 10.097 -0.00638981 0.00125072 0.00476512
1816 1 18.2416 22.4788 12.2092 0.00146807 -0.00393846 0.000674233
1817 1 15.7517 22.5458 12.1998 -0.00771076 -0.00382283 -0.00447912
1818 1 17.0675 20.583 11.1439 -0.0041894 -0.00817569 -0.00261232
1819 1 14.717 21.3569 9.74031 -0.00505823 -0.0109692 -0.000684384
1820 1 15.7964 21.0273 11.973 -0.00192397 -0.00234334 -0.00169891
1821 1 13.257 20.9915 11.9176 -0.0020945 0.00199576 0.00165852
1822 1 14.6082 19.1003 10.8688 0.00129651 -0.000732385 -0.00490168
1823 1 14.5783 20.6617 11.1571 -0.00280813 0.000378369 -4.41981e-05
1824 1 15.6799 20.2234 13.2375 0.00281874 0.0072186 -0.00407367
1825 1 13.1087 20.2744 13.3026 -0.00181773 0.000467837 0.000549975
1826 1 14.5218 18.3582 12.2105 0.0101478 -0.00411077 -0.00599356
1827 1 12.0362 19.0699 10.8011 -0.00403744 -0.00274633 -0.00674336
1828 1 13.1863 18.7245 12.9897 -0.00742851 0.0129556 -0.00140186
1829 1 10.6173 18.7341 12.9611 -0.000956555 -0.00258187 -0.00880427
1830 1 11.9722 16.803 11.8896 0.00494447 0.00303541 0.000960656
1831 1 11.9171 18.3449 12.1726 -0.005312 0.00213069 -0.0094008
1832 1 13.0059 17.995 14.3351 -0.00141437 -0.00304142 0.00330475
1833 1 10.5346 17.9873 14.3608 0.00419438 0.00153633 0.0060217
1834 1 11.7964 16.0951 13.2528 -0.00195515 -0.00741424 -0.00582927
1835 1 9.46962 16.7916 11.9241 -0.00762439 0.00107503 -0.00106553
1836 1 10.5476 16.4584 14.0406 -0.00770777 -0.00173626 0.00365647
1837 1 7.94343 16.4404 14.0873 0.0123468 -0.000864643 -0.00256655
1838 1 9.38089 14.5163 13.0023 1.75155e-05 -0.00184019 -0.00111877
1839 1 9.31236 16.0727 13.2826 -0.00676676 -0.00603987 -0.00475182
1840 1 10.4247 15.7497 15.4428 0.00552328 -0.0044752 0.00131613
1841 1 7.94526 15.7395 15.4367 0.00172223 -0.00598792 0.00259784
1842 1 9.29536 13.805 14.3604 -0.00625258 0.00186584 0.00680693
1843 1 6.85321 14.5417 12.9831 -0.00090747 -0.00226362 0.00284166
1844 1 7.94454 14.2097 15.1778 -0.00300964 -0.0104723 0.000417997
1845 1 5.40866 14.1834 15.251 0.0105413 0.0108362 -0.0012445
1846 1 6.76263 12.3165 14.068 0.000990054 -0.00430393 0.00380742
1847 1 6.71926 13.8258 14.3638 0.00877019 0.00499058 -0.00177338
1848 1 7.78929 13.5111 16.4862 -0.000203939 -0.0111466 0.00132842
1849 1 5.3569 13.5236 16.5873 -0.0039058 0.00429493 0.00521882
1850 1 6.66551 11.5785 15.4356 0.00176576 -0.0028588 -0.00281308
1851 1 4.23433 12.2553 14.1464 0.00318051 -0.00368265 -0.0090153
1852 1 5.37978 11.9639 16.2235 -0.00647648 -0.00539854 -0.00207915
1853 1 2.90098 12.0021 16.2617 0.00472659 -0.00503202 0.00271282
1854 1 4.13257 10.0151 15.2378 -0.00376164 0.00179627 -0.00390548
1855 1 4.1668 11.5786 15.457 0.00735477 -0.00408177 0.00599875
1856 1 5.36724 11.2918 17.5455 -0.00311931 -0.00389184 0.00238508
1857 1 2.81451 11.3217 17.6191 -0.00234357 -0.00127421 -0.00391608
1858 1 4.07574 9.3119 16.5321 -0.00490007 0.00140112 0.00595235
1859 1 1.60707 10.0057 15.1822 -8.25134e-05 -0.00351132 -0.00188684
1860 1 2.72914 9.67222 17.4956 0.00646299 0.00623842 0.0034278
1861 1 0.216164 9.7137 17.4314 0.0012376 -0.00417136 0.00325002
1862 1 1.62366 7.76722 16.3263 -0.00746122 -0.00326533 0.00095598
1863 1 1.49411 9.30989 16.6259 0.00442997 -6.98274e-05 -0.00347489
1864 1 1.51561 7.10343 17.62 -0.00579238 0.000352555 0.000581564
1865 1 21.7208 7.75504 16.2506 0.00513386 -0.000142866 0.00232937
1866 1 21.5946 5.58664 17.5128 -0.0020137 -0.00130381 -0.00101038
1867 1 21.7498 7.0814 17.4862 -0.00095078 -0.00775095 0.00168338
1868 1 20.8006 23.2537 10.8334 0.00209737 0.00225966 -0.00395546
1869 1 20.7125 22.5054 12.1543 0.00684015 -0.00106734 -0.00325874
1870 1 19.6529 21.2557 9.74273 0.00366172 -0.00774419 0.0033601
1871 1 20.8116 20.9724 11.9528 0.00287419 -0.00443794 -0.00888557
1872 1 18.2798 20.9491 11.9703 -0.00876099 -0.00376432 -0.00637332
1873 1 19.5917 19.0651 10.8417 0.000849778 -0.0137546 -0.00653911
1874 1 19.6029 20.5469 11.0949 -2.2423e-05 -0.00649405 0.00426005
1875 1 20.6907 20.2827 13.2823 0.000439684 0.000215436 0.0045229
1876 1 18.1577 20.2034 13.2844 0.00752489 -0.00582981 -0.00929095
1877 1 19.5083 18.3549 12.2726 0.00195363 -0.000153583 0.004637
1878 1 17.0868 19.0518 10.8448 -0.00282725 0.00512883 -0.00425082
1879 1 18.1964 18.7377 12.9956 -0.00325395 0.00350951 -0.00880619
1880 1 15.6851 18.7631 13.0227 0.00204171 -0.00323253 -0.00424128
1881 1 17.0331 16.7789 11.9261 0.00729339 0.00652233 -0.000691354
1882 1 17.015 18.3264 12.1622 -0.00365567 0.0123645 -0.00672286
1883 1 18.0353 18.0125 14.3459 -0.000545877 0.00513533 0.00186908
1884 1 15.5401 17.9697 14.4437 0.0117823 0.00122118 0.00545381
1885 1 16.8315 16.1103 13.3131 0.0010816 -0.00617654 -0.00627593
1886 1 14.5064 16.7755 11.931 -0.00212573 -0.00543285 -0.0010752
1887 1 15.5143 16.4837 14.1367 -0.00167564 0.00528686 0.000424879
1888 1 13.0047 16.489 14.0885 0.00710898 -0.00413105 -0.000125836
1889 1 14.3086 14.5748 13.0108 0.0035305 0.00019308 -0.0129344
1890 1 14.2848 16.0215 13.2675 -0.0019376 0.00362525 0.00348786
1891 1 15.4569 15.7648 15.4938 0.0020008 -0.00347162 0.00356443
1892 1 12.926 15.7672 15.4574 0.00380546 0.00593039 -0.0029434
1893 1 14.2892 13.7834 14.3338 0.000335456 0.00120504 -0.00230999
1894 1 11.8222 14.5344 13.0665 0.00536928 -0.00190648 0.00123013
1895 1 13.0123 14.194 15.1875 -0.00255767 0.0105372 -0.00674653
1896 1 10.4671 14.2423 15.2258 0.000847707 -0.00108755 -0.00267073
1897 1 11.8057 12.2644 14.0825 -0.00390596 0.00294646 0.00863755
1898 1 11.7557 13.7887 14.3857 0.00168437 -0.00173916 0.00319899
1899 1 12.8174 13.4833 16.5697 0.00875711 0.00256339 0.00122301
1900 1 10.3756 13.5097 16.5474 0.000166642 -0.00241998 0.00105204
1901 1 11.7027 11.5231 15.4175 -0.00252615 0.000622194 -0.00145901
1902 1 9.30436 12.2888 14.059 0.000986192 -0.00483298 -0.00275376
1903 1 10.3977 11.9797 16.1614 -0.00157974 -0.00279317 0.0022812
1904 1 7.86129 11.9282 16.2173 -0.00378345 -0.00409457 -0.00796814
1905 1 9.13223 10.0184 15.2338 0.00250585 0.00212929 -0.00189134
1906 1 9.15541 11.5286 15.419 -3.95775e-05 -0.00385544 -0.00282173
1907 1 10.3041 11.3612 17.5605 0.00158896 0.00841424 0.00745554
1908 1 7.84076 11.2874 17.5632 -0.00989029 -7.69348e-05 -0.00675507
1909 1 9.0575 9.2956 16.5717 -0.00137085 0.00602109 -0.00810903
1910 1 6.64395 9.98889 15.1603 -0.00483378 0.00387752 -0.00308909
1911 1 7.76905 9.70075 17.4509 0.00160734 -0.00121319 -0.00741889
1912 1 5.21837 9.71263 17.4844 0.000960145 -0.00203 0.00727779
1913 1 6.57766 7.7926 16.2808 -0.00684307 -0.000563757 0.0114031
1914 1 6.50558 9.32692 16.5238 -0.00325168 2.80464e-05 -0.00523037
1915 1 6.62132 7.14372 17.5363 0.00100746 0.00581812 -0.000909103
1916 1 4.18227 7.75555 16.2549 0.00600292 -0.00206049 0.00185461
1917 1 3.96901 5.49439 17.4942 0.00417647 -0.00268649 -0.00153091
1918 1 4.12337 7.1056 17.5291 0.00574619 0.00277783 0.00719627
1919 1 1.42292 5.50123 17.5006 -0.00200298 -0.000404598 0.00268991
1920 1 20.7498 18.6957 13.071 -0.00122041 -0.00428956 -0.00537607
1921 1 20.554 17.9935 14.3845 -0.00274258 0.00178475 -0.00212443
1922 1 19.4931 16.8068 11.8822 -0.000721928 6.63487e-05 -0.000263844
1923 1 20.5744 16.4548 14.0977 -4.87949e-05 0.00104297 0.00832719
1924 1 18.0529 16.4454 14.0997 0.00527783 -0.00224213 -0.00865732
1925 1 19.4416 14.4933 13.0524 0.0115284 -0.00482245 0.00184994
1926 1 19.3559 16.0751 13.2803 -0.00116043 -0.000403969 -0.000343703
1927 1 20.4805 15.6866 15.4522 0.00671722 -0.00336006 1.99089e-05
1928 1 17.9705 15.7039 15.4238 0.00340208 -0.00308264 -0.00733877
1929 1 19.2473 13.815 14.4138 -0.00626494 0.00121928 -0.00497085
1930 1 16.8887 14.5976 12.998 0.00116069 0.00381265 -0.00623214
1931 1 18.009 14.2219 15.2522 0.000828821 0.00284505 -0.00457758
1932 1 15.5176 14.1997 15.2699 0.000932298 0.00387243 -0.00340264
1933 1 16.8716 12.2767 14.062 -0.000498797 -0.00369397 0.00286108
1934 1 16.7741 13.7955 14.4113 0.0106222 -0.00120486 0.00173699
1935 1 17.9167 13.5178 16.6068 -0.00253857 0.0016745 0.000917371
1936 1 15.3817 13.4787 16.5853 0.00541395 -0.00201 0.00135364
1937 1 16.7412 11.5457 15.4112 -0.000922723 -0.00301356 0.00588764
1938 1 14.311 12.2964 14.0666 0.00439954 -0.00267355 -0.00684162
1939 1 15.4278 11.963 16.2552 0.00274897 -0.00908797 -0.00478251
1940 1 12.8887 11.9696 16.2242 -0.00300668 0.000182462 -0.00357163
1941 1 14.2597 10.0179 15.194 0.00413185 0.00191786 -0.00288491
1942 1 14.2146 11.5333 15.4768 0.0040474 -0.00471325 0.0119911
1943 1 15.4203 11.2506 17.4996 -0.00223323 -0.00907236 0.00759617
1944 1 12.8113 11.2988 17.5794 -0.000892048 0.000254434 -0.00335594
1945 1 14.0578 9.29029 16.5804 0.000216956 0.00527871 0.00272949
1946 1 11.7133 10.058 15.1837 0.00257601 0.00102603 0.000222184
1947 1 12.7224 9.70748 17.5234 0.00346576 0.000300384 -0.000767401
1948 1 10.2718 9.73017 17.4666 0.0046007 -0.0015022 0.0032722
1949 1 11.7177 7.82113 16.2697 -0.000354675 -0.00404427 -0.00218242
1950 1 11.5892 9.325 16.6457 0.00531927 -0.00574257 -0.00452257
1951 1 11.6197 7.09188 17.5953 0.00778429 -0.000387938 -0.00468588
1952 1 9.12847 7.78712 16.2915 0.0064124 0.0026136 -0.0010039
1953 1 8.96642 5.50999 17.5194 -0.00337114 -0.00593352 -0.00272067
1954 1 9.11725 7.12504 17.6396 0.00285977 0.0122474 0.00358915
1955 1 6.44234 5.52114 17.5116 -0.00255496 -0.00101489 -0.00404372
1956 1 20.4868 14.1819 15.1988 0.00158311 0.00337177 0.00621355
1957 1 20.4983 13.4886 16.5915 -0.00349669 0.000201104 -0.00206767
1958 1 19.3839 12.3097 14.0939 -0.00187901 0.00551916 0.00374532
1959 1 20.4921 11.9401 16.2375 0.00202746 0.00813226 -0.00304606
1960 1 17.9516 11.9851 16.2493 -0.00690219 -0.00446858 0.00479785
1961 1 19.2357 9.99397 15.2473 -0.00431659 0.00058286 0.00221163
1962 1 19.2692 11.5292 15.4534 0.00219891 -0.00285809 -0.00373783
1963 1 20.4696 11.2835 17.5397 0.00270122 -0.0011331 -0.010899
1964 1 17.987 11.2479 17.5059 -0.0063432 -0.00411859 -0.00751103
1965 1 19.1774 9.28877 16.6129 0.010767 0.00167522 0.00726636
1966 1 16.7166 9.99302 15.2219 0.00556065 0.000911202 0.000105926
1967 1 17.7963 9.69249 17.4333 -0.00469481 -0.00292966 -0.00154484
1968 1 15.2624 9.68594 17.4751 -0.0109813 0.000442643 0.00548854
1969 1 16.7384 7.77722 16.2505 0.00314882 -0.00513111 0.0045248
1970 1 16.6448 9.28212 16.5821 0.00166143 -0.00648127 -0.00240162
1971 1 16.7528 7.03864 17.5221 0.00402894 -0.00170511 -0.000370616
1972 1 14.2244 7.81646 16.3051 0.00387519 -0.00765294 -0.00027591
1973 1 14.0549 5.45407 17.476 0.00248946 -0.00445904 0.00434701
1974 1 14.218 7.05059 17.5639 -0.0006526 -0.00374208 0.00127928
1975 1 11.5282 5.49056 17.4704 -0.000947855 -0.00368141 -0.00354602
1976 1 20.3682 9.68715 17.4977 0.00249986 0.00220522 -0.00887396
1977 1 19.2141 7.84319 16.2202 -0.00508771 0.00894214 0.000476433
1978 1 19.0236 5.53331 17.5162 -0.00438402 0.000789511 -0.00215655
1979 1 19.2187 7.1548 17.548 -0.00390522 0.00381331 -0.000363354
1980 1 16.5419 5.47293 17.4529 -0.00283931 0.00160736 -0.00506497
1981 1 21.9297 24.4574 13.259 -0.0053939 -0.0125191 0.00572607
1982 1 4.26366 24.4084 13.3542 0.00337282 -0.00703199 -0.00577527
1983 1 2.96069 24.8316 14.0647 0.0052194 -0.000872857 0.000674441
1984 1 0.475717 24.887 14.059 -0.00736908 -0.00730484 -0.000413705
1985 1 1.75477 22.8423 13.019 -0.000876165 0.00199135 0.00277742
1986 1 1.7716 24.4212 13.2517 0.0029218 0.00624416 -0.00200749
1987 1 2.91858 24.135 15.4349 -0.00352853 -0.00164176 -0.00442364
1988 1 0.369288 24.1749 15.4179 0.00201569 -0.00804862 -0.000575669
1989 1 1.66313 22.1699 14.3755 -0.00528005 -0.00366721 -0.00853106
1990 1 21.95 22.9901 12.9876 0.00586234 -0.000251351 0.00425811
1991 1 0.372505 22.5651 15.1711 -0.00492542 0.00567976 -0.00658039
1992 1 21.8902 20.6618 14.1125 7.40847e-06 -0.0123508 0.00570061
1993 1 21.833 22.1954 14.361 -0.000472723 -0.00748276 0.000148226
1994 1 0.298836 21.8278 16.5218 0.00110374 -0.00707121 -0.00187178
1995 1 21.7311 19.9459 15.5077 0.00906904 0.00231249 -0.00517919
1996 1 9.33692 24.4882 13.2686 -0.00219825 -0.00208065 0.0043946
1997 1 8.08735 24.7965 14.0724 0.00577611 -0.00141005 -0.00289033
1998 1 5.53488 24.7835 14.1469 -0.00326425 -0.00210118 0.00405487
1999 1 6.91423 22.9406 13.0058 -0.000443012 0.00747058 0.001061
2000 1 6.81266 24.4468 13.2494 -0.00668913 -0.00397255 -0.00593308
2001 1 7.94457 24.1024 15.4605 0.00560557 0.000244435 -0.00512045
2002 1 5.45783 24.1234 15.4046 0.0119938 0.00709595 0.00431237
2003 1 6.79667 22.2293 14.4195 -0.00373326 0.00767115 0.00389744
2004 1 4.29624 22.9031 12.9874 0.00486322 -0.00461701 0.00458097
2005 1 5.41676 22.5734 15.2263 0.00526362 -0.00717807 -0.00648736
2006 1 2.87169 22.6358 15.2303 0.00982067 -0.00111315 -0.00610472
2007 1 4.21813 20.6096 14.1257 -0.00113246 -0.00231252 -0.0052995
2008 1 4.17504 22.185 14.3883 0.0065854 0.00298243 0.00163044
2009 1 5.24825 21.885 16.5696 0.00203988 -0.0101581 -0.000544965
2010 1 2.75608 21.9012 16.605 -0.00176559 0.00710447 -4.0449e-05
2011 1 4.15029 19.8992 15.4404 0.000620668 0.00700412 0.000703699
2012 1 1.73701 20.6476 14.0811 -0.00100985 0.00170974 -0.00503872
2013 1 2.82652 20.4425 16.2453 -0.000418606 0.0108843 -0.0058759
2014 1 0.277654 20.3224 16.2324 -0.00429892 0.00454035 -0.00619155
2015 1 1.65115 18.4352 15.1943 -0.00272887 0.00282474 0.0015994
2016 1 1.65846 19.9358 15.4157 0.00235466 -0.00549851 -0.00472588
2017 1 2.83441 19.7733 17.5452 0.00111402 -0.0100075 -0.000646429
2018 1 0.337074 19.6395 17.4891 0.00254097 0.00384974 0.00624626
2019 1 1.53899 17.6575 16.5875 0.00624886 0.00151877 0.00959827
2020 1 21.7441 18.3973 15.2583 0.00477888 0.00541689 -0.0077842
2021 1 0.227265 18.0849 17.4498 -0.00320103 -0.00199867 0.000630894
2022 1 21.7756 16.1494 16.2589 0.0101813 0.00664406 -0.00275961
2023 1 21.7157 17.7165 16.5811 -0.00393314 -0.0108884 0.00161682
2024 1 21.7763 15.4487 17.5454 0.00386214 -0.00316315 0.00664796
2025 1 14.3255 24.4635 13.239 0.00224882 -0.00347148 0.000693321
2026 1 13.0561 24.8544 14.1228 0.00141917 -0.00821648 -0.0028213
2027 1 10.5329 24.8935 14.0429 0.00274674 -0.00270813 0.00386686
2028 1 11.9327 22.921 13.0272 0.00244487 -0.00858965 0.000707601
2029 1 11.8715 24.5158 13.2889 -0.00157737 -0.00681519 0.00478825
2030 1 12.9459 24.1486 15.4525 0.0103956 -0.00640561 -0.00556099
2031 1 10.4371 24.1618 15.5232 -0.00180533 0.00731992 0.00326787
2032 1 11.8041 22.2139 14.3714 -0.00186584 -1.62448e-05 0.00187302
2033 1 9.41904 22.9362 13.0277 0.00275155 -0.00702818 -0.00299463
2034 1 10.4642 22.5655 15.2133 0.00485322 -0.00202713 0.00515463
2035 1 7.94698 22.6245 15.2223 0.00860261 -0.00970075 -0.00368405
2036 1 9.26192 20.6549 14.1597 -0.00175209 0.00205382 -0.00489636
2037 1 9.2731 22.1682 14.3972 -0.0062938 0.0015643 0.00431921
2038 1 10.3733 21.7667 16.6206 0.0012609 -0.00733249 0.000188999
2039 1 7.83522 21.8621 16.5876 -0.00972045 -0.00407979 0.00350381
2040 1 9.1705 19.9234 15.4821 0.00289158 0.00240402 -0.0033773
2041 1 6.7322 20.7084 14.1333 0.00108956 -0.00710922 -0.00104671
2042 1 7.86539 20.4045 16.3559 -0.00204832 -0.00368033 -0.00101334
2043 1 5.3535 20.347 16.2815 0.00101047 -0.00231393 0.00411513
2044 1 6.65579 18.3927 15.2342 0.00138955 0.00229939 -0.000419849
2045 1 6.60763 19.9431 15.486 -0.00436928 0.00341597 -0.0038881
2046 1 7.75678 19.7539 17.624 0.0037492 -0.00885751 0.00381145
2047 1 5.32454 19.5981 17.5951 -0.00243866 -0.00130197 0.00154345
2048 1 6.56602 17.6835 16.5857 0.00421034 -0.00572909 0.00237737
2049 1 4.16321 18.3422 15.2109 -0.000989613 0.000916767 0.00204634
2050 1 5.23766 18.0269 17.5044 0.00319649 -0.00724779 -0.00233109
2051 1 2.7352 18.0181 17.524 -0.00358527 -0.00199849 -0.0117261
2052 1 4.14698 16.1714 16.2407 0.002258 0.00786982 0.00864429
2053 1 4.10541 17.6993 16.5653 0.00406104 -0.00492025 -0.00181481
2054 1 4.11758 15.4806 17.5853 -0.00122375 -7.75579e-05 -0.00283926
2055 1 1.63934 16.1718 16.2775 0.00730903 -0.00560068 0.00524933
2056 1 1.51586 13.79 17.5089 -0.00695919 -0.00441408 -0.00627484
2057 1 1.58486 15.4482 17.6 0.000758971 -7.08436e-05 -0.00125376
2058 1 21.6783 13.8461 17.464 0.000457275 0.00494997 -0.00294793
2059 1 19.4244 24.384 13.3462 -0.00106802 -0.00236307 -0.00166907
2060 1 18.0831 24.8061 14.1315 -0.0032573 0.0113077 0.00619226
2061 1 15.5988 24.8859 14.0933 0.00286861 -0.00410544 0.00583847
2062 1 16.934 22.884 13.0267 0.00538403 0.00126454 -0.00496462
2063 1 16.9111 24.4025 13.3003 -0.00712115 0.00455935 -0.0021763
2064 1 17.9666 24.1234 15.489 0.00461829 -0.0054223 -0.00281976
2065 1 15.4631 24.0609 15.4381 -0.00470006 -0.00118105 0.00702527
2066 1 16.818 22.1237 14.3558 0.00408678 -0.00124418 0.000927454
2067 1 14.4552 22.9424 12.9716 -0.00304243 2.55346e-05 -0.00168869
2068 1 15.5171 22.6283 15.1737 -0.00169303 0.00270605 -0.00503262
2069 1 13.0059 22.6653 15.2403 0.00261535 0.000737289 0.000135882
2070 1 14.3358 20.6982 14.1029 -0.0037932 0.00325971 0.000728147
2071 1 14.2882 22.241 14.3888 -0.00192384 0.00352908 0.00083657
2072 1 15.3676 21.9251 16.584 -0.00542833 -0.00101521 0.00636236
2073 1 12.8726 21.8836 16.5686 -0.00128878 0.00259862 -0.00395694
2074 1 14.2394 19.9098 15.4624 0.00978803 0.0028438 -0.00723772
2075 1 11.8174 20.6725 14.1379 0.00507677 0.000446981 0.00440802
2076 1 12.8696 20.3851 16.2809 -0.00383513 -0.0102805 -0.00282698
2077 1 10.4163 20.3506 16.2639 0.00473371 0.00187842 0.000127337
2078 1 11.7341 18.4153 15.1793 -0.00595148 -0.0014844 0.00176202
2079 1 11.6823 19.9268 15.4836 0.00253743 -0.00655561 -0.00224324
2080 1 12.8638 19.7359 17.5463 0.00652507 -0.00327491 -0.000619933
2081 1 10.3858 19.6715 17.5511 -0.00183473 0.00400569 0.00230623
2082 1 11.5065 17.6794 16.5612 -0.0027278 -0.005907 0.00432567
2083 1 9.16609 18.3957 15.2046 0.00320389 0.000341959 -0.000253749
2084 1 10.1891 18.1258 17.4962 -0.0122092 0.00327077 0.00681404
2085 1 7.71326 18.125 17.5124 0.000828132 -0.00590085 -0.00147969
2086 1 9.10517 16.152 16.2331 0.00587157 0.000918122 0.00253542
2087 1 9.03187 17.6829 16.6311 0.00452692 0.0019533 0.00133628
2088 1 9.09754 15.4359 17.5838 0.00311817 0.00574984 0.00358668
2089 1 6.69745 16.151 16.284 -0.00016548 0.00137731 0.00275228
2090 1 6.55034 13.9305 17.4895 -0.00167689 0.00356823 0.00576102
2091 1 6.64992 15.4662 17.5904 0.00300776 0.00459737 -0.00870151
2092 1 3.99384 13.8617 17.5067 0.000512962 0.00357552 0.00316878
2093 1 20.6087 24.8679 14.0987 -0.00722171 -0.00480906 -0.00448022
2094 1 20.5238 24.1033 15.4544 0.00423923 0.00969381 0.00135722
2095 1 19.4838 22.9015 13.0433 -0.00225601 -0.00636237 -0.00385887
2096 1 20.5319 22.5727 15.2356 -0.00451131 0.00288867 0.00610088
2097 1 18.0356 22.5522 15.1972 -0.00367646 0.00775959 -0.00554648
2098 1 19.3311 20.6412 14.0941 0.00898098 0.00575872 -0.00279188
2099 1 19.3192 22.1474 14.4012 -0.00146517 0.00214799 -0.00347832
2100 1 20.3901 21.9371 16.6328 0.000630929 -0.00589311 -0.000204685
2101 1 17.9052 21.8915 16.5788 0.00285907 -0.00224588 0.000533227
2102 1 19.2071 19.925 15.4492 -0.00140153 -0.00947861 0.00472789
2103 1 16.8606 20.6489 14.1172 -0.00068764 0.00235151 -0.00223115
2104 1 17.9909 20.3512 16.3284 -0.00576853 -0.00657173 -0.000595229
2105 1 15.4094 20.4055 16.2938 -4.49165e-05 0.0043178 -0.000246007
2106 1 16.7083 18.4445 15.2452 0.00689186 -0.00556133 -0.00168082
2107 1 16.7727 19.9501 15.5034 0.00688466 -0.00244242 -0.00247643
2108 1 17.9144 19.6364 17.5951 -0.00283558 -0.00193788 -0.000744333
2109 1 15.3735 19.7262 17.6017 -0.00413195 0.00227012 -0.00545672
2110 1 16.5596 17.7001 16.5937 -0.00359046 0.00340711 -0.00352593
2111 1 14.1869 18.3595 15.2751 -0.00605261 -0.00420053 -0.0047475
2112 1 15.2751 18.0885 17.5103 -0.00601226 0.000531833 -0.0104037
2113 1 12.7432 18.1133 17.4796 0.00268008 -0.00784841 0.012063
2114 1 14.1821 16.132 16.2446 0.00266878 -0.00631816 0.00310768
2115 1 14.0834 17.6785 16.5827 0.00363912 0.00189715 -0.00565476
2116 1 14.117 15.5117 17.5622 -0.00809686 -0.00376775 -0.00846765
2117 1 11.6511 16.1596 16.3304 0.000799175 -0.00230991 0.00400905
2118 1 11.5064 13.9449 17.4174 -0.00373077 0.00127915 0.000349959
2119 1 11.573 15.4583 17.5762 0.00215761 0.0045442 0.000915272
2120 1 9.00894 13.8654 17.4715 0.00398797 0.000840257 0.00682398
2121 1 20.4268 20.3361 16.2777 0.00455071 0.00575319 0.00581484
2122 1 20.3944 19.6906 17.6087 -0.00960821 0.00477733 0.0100542
2123 1 19.2901 18.3976 15.1421 0.000171633 -0.00700506 0.00735742
2124 1 20.3424 18.0488 17.5301 0.00206236 -0.0079705 0.00481106
2125 1 17.7471 18.0924 17.523 -0.00686878 0.00219077 0.00362563
2126 1 19.1638 16.16 16.2456 0.00327288 -0.00029192 -0.00190648
2127 1 19.1354 17.6698 16.5262 0.00317705 0.0074651 -0.00921893
2128 1 19.2346 15.4705 17.5255 -0.00407028 0.00613473 0.00434572
2129 1 16.645 16.1747 16.2999 -0.0169089 -0.00464021 -0.00388512
2130 1 16.5043 13.8433 17.4876 -0.00176427 0.00344825 0.00586508
2131 1 16.6603 15.4709 17.5922 0.00319523 -0.00271409 -0.00493937
2132 1 14.0285 13.8755 17.4668 0.00342117 0.00359136 -0.00146891
2133 1 19.2025 13.8885 17.4982 0.00507751 -0.00227951 -0.00616123
2134 1 1.60499 24.5343 16.2456 0.00130134 -0.00216487 0.00358159
2135 1 1.54145 23.8634 17.5313 0.00374159 8.72573e-05 -0.00187362
2136 1 21.7186 24.5438 16.2679 -0.00157241 -0.00161813 -0.00874531
2137 1 21.5737 22.2332 17.509 0.00182788 0.00801419 0.0088668
2138 1 21.7196 23.8457 17.5999 -0.00852412 0.00561229 0.000719027
2139 1 6.6466 24.5362 16.2432 -0.000624234 -0.000554064 -0.00538638
2140 1 6.51511 23.9287 17.5809 -4.76712e-05 0.00223397 0.00182798
2141 1 4.18765 24.5253 16.2341 -2.97466e-05 0.00748907 -0.000126276
2142 1 3.92213 22.2646 17.4957 5.87329e-05 0.00224406 0.00736573
2143 1 4.08636 23.8914 17.5371 0.000232196 0.00144302 0.00480037
2144 1 1.41048 22.2854 17.4682 0.000903457 0.00754226 -0.0134351
2145 1 11.6477 24.4938 16.3538 -0.000749944 0.000877103 0.0150015
2146 1 11.5846 23.8403 17.6318 0.000534325 0.00100709 0.0046624
2147 1 9.13138 24.5344 16.3275 0.00197104 -0.00479151 0.00409018
2148 1 9.07104 22.2475 17.551 0.000798539 0.000786784 -0.00406678
2149 1 9.11123 23.8051 17.5735 -0.00711732 0.00432751 0.000873532
2150 1 6.51743 22.2819 17.4919 -0.00622941 -0.0024361 -0.00145243
2151 1 16.6756 24.4573 16.2264 0.00261805 -0.00542408 0.001748
2152 1 16.6159 23.784 17.5634 0.0107371 0.000972952 7.56322e-05
2153 1 14.18 24.5549 16.2556 0.00856505 -0.000341703 0.00313129
2154 1 14.0862 22.2881 17.5491 0.00747075 -0.00276952 0.00576993
2155 1 14.1288 23.8563 17.5898 -0.00264328 0.00441798 0.0028438
2156 1 11.6015 22.2478 17.5025 -0.0109563 0.00388908 0.00112955
2157 1 19.1993 24.5499 16.3274 -0.00524663 -0.00189113 0.000222465
2158 1 19.1134 22.3247 17.5089 -0.00410868 -0.00397927 0.00473374
2159 1 19.107 23.9474 17.6062 -0.00231306 -0.0028767 0.00403517
2160 1 16.5606 22.2245 17.5047 -0.00259882 0.00315248 0.00360284
2161 3 1.26055 5.34778 18.7663 0 0 0
2162 3 6.30277 5.34778 18.7663 0 0 0
2163 3 3.78167 5.34778 18.7663 0 0 0
2164 3 3.78166 3.15075 18.3643 0 0 0
2165 3 1.26055 3.15075 18.3643 0 0 0
2166 3 2.52111 1.167 18.7663 0 0 0
2167 3 22.69 1.167 18.7663 0 0 0
2168 3 11.345 5.34778 18.7663 0 0 0
2169 3 8.82388 5.34778 18.7663 0 0 0
2170 3 8.82388 3.15075 18.3643 0 0 0
2171 3 6.30277 3.15075 18.3643 0 0 0
2172 3 7.56333 1.167 18.7663 0 0 0
2173 3 5.04222 1.167 18.7663 0 0 0
2174 3 16.3872 5.34778 18.7663 0 0 0
2175 3 13.8661 5.34778 18.7663 0 0 0
2176 3 13.8661 3.15075 18.3642 0 0 0
2177 3 11.345 3.15075 18.3643 0 0 0
2178 3 12.6055 1.167 18.7663 0 0 0
2179 3 10.0844 1.167 18.7663 0 0 0
2180 3 21.4294 5.34778 18.7663 0 0 0
2181 3 18.9083 5.34778 18.7663 0 0 0
2182 3 18.9083 3.15075 18.3643 0 0 0
2183 3 16.3872 3.15075 18.3643 0 0 0
2184 3 17.6478 1.16699 18.7663 0 0 0
2185 3 15.1267 1.16699 18.7663 0 0 0
2186 3 21.4294 3.15075 18.3643 0 0 0
2187 3 20.1689 1.16699 18.7663 0 0 0
2188 3 3.78166 13.7094 18.7663 0 0 0
2189 3 1.26055 13.7094 18.7663 0 0 0
2190 3 1.26055 11.5123 18.3642 0 0 0
2191 3 22.69 9.52857 18.7663 0 0 0
2192 3 8.82388 13.7094 18.7663 0 0 0
2193 3 6.30277 13.7094 18.7663 0 0 0
2194 3 6.30277 11.5123 18.3643 0 0 0
2195 3 3.78166 11.5123 18.3643 0 0 0
2196 3 5.04222 9.52857 18.7663 0 0 0
2197 3 2.52111 7.33154 18.3643 0 0 0
2198 3 2.52111 9.52857 18.7663 0 0 0
2199 3 1.1373e-08 7.33154 18.3643 0 0 0
2200 3 13.8661 13.7094 18.7663 0 0 0
2201 3 11.345 13.7094 18.7663 0 0 0
2202 3 11.345 11.5123 18.3643 0 0 0
2203 3 8.82388 11.5123 18.3643 0 0 0
2204 3 10.0844 9.52857 18.7663 0 0 0
2205 3 7.56333 7.33154 18.3643 0 0 0
2206 3 7.56333 9.52857 18.7663 0 0 0
2207 3 5.04222 7.33154 18.3643 0 0 0
2208 3 18.9083 13.7094 18.7663 0 0 0
2209 3 16.3872 13.7094 18.7663 0 0 0
2210 3 16.3872 11.5123 18.3643 0 0 0
2211 3 13.8661 11.5123 18.3643 0 0 0
2212 3 15.1267 9.52857 18.7663 0 0 0
2213 3 12.6055 7.33154 18.3643 0 0 0
2214 3 12.6055 9.52857 18.7663 0 0 0
2215 3 10.0844 7.33154 18.3643 0 0 0
2216 3 21.4294 13.7094 18.7663 0 0 0
2217 3 21.4294 11.5123 18.3643 0 0 0
2218 3 18.9083 11.5123 18.3642 0 0 0
2219 3 20.1689 9.52857 18.7663 0 0 0
2220 3 17.6478 7.33154 18.3643 0 0 0
2221 3 17.6478 9.52857 18.7663 0 0 0
2222 3 15.1267 7.33154 18.3643 0 0 0
2223 3 20.1689 7.33154 18.3643 0 0 0
2224 3 1.26055 22.0709 18.7663 0 0 0
2225 3 6.30277 22.0709 18.7663 0 0 0
2226 3 3.78167 22.0709 18.7663 0 0 0
2227 3 3.78166 19.8739 18.3643 0 0 0
2228 3 1.26055 19.8739 18.3643 0 0 0
2229 3 2.52111 17.8901 18.7663 0 0 0
2230 3 22.69 15.6931 18.3642 0 0 0
2231 3 1.7913e-07 17.8901 18.7663 0 0 0
2232 3 11.345 22.0709 18.7663 0 0 0
2233 3 8.82388 22.0709 18.7663 0 0 0
2234 3 8.82388 19.8739 18.3643 0 0 0
2235 3 6.30277 19.8739 18.3643 0 0 0
2236 3 7.56333 17.8901 18.7663 0 0 0
2237 3 5.04222 15.6931 18.3643 0 0 0
2238 3 5.04222 17.8901 18.7663 0 0 0
2239 3 2.52111 15.6931 18.3643 0 0 0
2240 3 16.3872 22.0709 18.7663 0 0 0
2241 3 13.8661 22.0709 18.7663 0 0 0
2242 3 13.8661 19.8739 18.3643 0 0 0
2243 3 11.345 19.8739 18.3642 0 0 0
2244 3 12.6055 17.8901 18.7663 0 0 0
2245 3 10.0844 15.6931 18.3643 0 0 0
2246 3 10.0844 17.8901 18.7663 0 0 0
2247 3 7.56333 15.6931 18.3643 0 0 0
2248 3 21.4294 22.0709 18.7663 0 0 0
2249 3 18.9083 22.0709 18.7663 0 0 0
2250 3 18.9083 19.8739 18.3643 0 0 0
2251 3 16.3872 19.8739 18.3643 0 0 0
2252 3 17.6478 17.8901 18.7663 0 0 0
2253 3 15.1267 15.6931 18.3643 0 0 0
2254 3 15.1267 17.8901 18.7663 0 0 0
2255 3 12.6055 15.6931 18.3643 0 0 0
2256 3 21.4294 19.8739 18.3643 0 0 0
2257 3 20.1689 15.6931 18.3643 0 0 0
2258 3 20.1689 17.8901 18.7663 0 0 0
2259 3 17.6478 15.6931 18.3643 0 0 0
2260 3 2.52111 24.0547 18.3643 0 0 0
2261 3 22.69 24.0547 18.3643 0 0 0
2262 3 7.56333 24.0547 18.3643 0 0 0
2263 3 5.04222 24.0547 18.3643 0 0 0
2264 3 12.6055 24.0547 18.3643 0 0 0
2265 3 10.0844 24.0547 18.3643 0 0 0
2266 3 17.6478 24.0547 18.3643 0 0 0
2267 3 15.1267 24.0547 18.3643 0 0 0
2268 3 20.1689 24.0547 18.3643 0 0 0
