ITEM: TIMESTEP
0
ITEM: NUMBER OF ATOMS
1890
ITEM: BOX BOUNDS pp pp mm
0.0000000000000000e+00 2.1833448247381568e+01
0.0000000000000000e+00 2.2689985001334318e+01
-3.8596448281022617e+00 4.9403453799708949e+01
ITEM: ATOMS id type x y z vx vy vz
1 1 13.7397 7.56608 16.6393 0.0115093 -0.00236604 0.00406283
2 1 0.632972 22.6889 16.638 -0.00580325 0.000627377 -0.000166469
3 1 0.0333728 15.1415 15.0342 0.00541426 0.00276796 0.009123
4 1 19.6501 21.4294 -3.38328 0 0 0
5 1 21.8263 22.6891 15.1092 0.00620435 -0.000455971 0.00050644
6 1 19.6501 21.4294 -2.04973 0 0 0
7 1 0.0125668 10.1366 8.86486 0.0100713 0.00500149 0.00165061
8 1 0.687717 5.01943 16.5462 -0.0043536 0.00136694 -0.000149706
9 1 13.1068 7.55176 15.1632 0.000817729 0.00580972 -0.0138413
10 1 5.04419 12.6197 16.5509 0.00466359 0.00865566 0.000509618
11 1 21.789 4.99236 15.0878 0.00476779 0.0019606 -0.000713944
12 1 10.2458 8.86669 16.6489 0.00315922 -0.00119599 0.00960978
13 1 17.4668 17.6478 -3.38328 0 0 0
14 1 19.6501 16.3872 -3.38328 0 0 0
15 1 19.6501 18.9083 -3.38328 0 0 0
16 1 17.4668 17.6478 -2.04973 0 0 0
17 1 19.6501 16.3872 -2.04973 0 0 0
18 1 19.6501 18.9083 -2.04973 0 0 0
19 1 4.97136 2.516 16.5967 -0.00363113 0.00917175 -0.000640439
20 1 20.3779 17.6478 -1.46015 0 0 0
21 1 10.2753 6.3109 16.5356 -0.00065811 -0.00566881 0.00279121
22 1 20.3885 17.6599 0.0876033 0.00639481 0.00501782 -0.00690735
23 1 13.1001 20.1689 -3.38328 0 0 0
24 1 15.2834 18.9083 -3.38328 0 0 0
25 1 15.2834 21.4294 -3.38328 0 0 0
26 1 13.1001 20.1689 -2.04973 0 0 0
27 1 15.2834 18.9083 -2.04973 0 0 0
28 1 15.2834 21.4294 -2.04973 0 0 0
29 1 17.4668 20.1689 -3.38328 0 0 0
30 1 16.0112 20.1689 -1.46015 0 0 0
31 1 18.1945 18.9083 -1.46015 0 0 0
32 1 18.1945 21.4294 -1.46015 0 0 0
33 1 17.4668 20.1689 -2.04973 0 0 0
34 1 16.0537 20.1813 0.111182 0.0043266 -0.00236383 -0.000821075
35 1 18.2391 18.9335 0.105079 -0.00376129 0.0108294 -0.00128762
36 1 18.2274 21.4005 0.149889 -0.00136638 -0.00134262 0.00577674
37 1 20.3779 20.1689 -1.46015 0 0 0
38 1 18.9083 20.1824 0.645031 -0.00293702 -0.000317055 -0.00332364
39 1 21.142 18.9096 0.547015 0.00947083 -0.000223863 0.00279373
40 1 21.1347 21.4274 0.603862 -0.000399021 -0.0014178 0.0103849
41 1 20.4258 20.1515 0.0840088 0.00570386 0.00512082 -0.00523775
42 1 18.9994 20.1811 2.14012 -0.00433536 -0.00150683 0.0024502
43 1 21.0861 18.9093 2.12075 0.0121553 0.00502884 -0.00164334
44 1 21.168 21.4408 2.12704 -0.00243922 0.00552358 -0.00241216
45 1 4.38118 12.5747 15.0736 -0.00108337 0.000126842 0.00209193
46 1 9.35675 7.59126 16.6125 0.000319488 -0.00506379 0.00332707
47 1 4.37851 2.56089 15.079 0.00615621 -0.00317638 -0.00410437
48 1 10.9167 21.4294 -3.38328 0 0 0
49 1 1.50072 3.74544 16.4152 -0.000525411 -0.00257245 0.00911219
50 1 10.9167 21.4294 -2.04973 0 0 0
51 1 1.59931 1.26245 16.5517 -0.000234378 0.00207962 -0.00372262
52 1 0.756414 2.53243 16.6347 -0.00554358 -0.00456207 -0.000821307
53 1 13.8278 21.4294 -1.46015 0 0 0
54 1 1.44891 2.51592 14.4658 -0.00327957 0.00391515 0.00831783
55 1 2.0605 3.75014 15.0124 0.00764496 -0.00360293 -0.00340521
56 1 13.824 21.3621 0.0636451 -0.00473073 0.00587481 -0.00383963
57 1 2.14897 1.30419 15.1165 -0.00344717 -0.00877907 -0.00238321
58 1 0.0073244 2.49298 15.1282 -0.0006486 -0.00149953 -0.00151093
59 1 16.781 21.3807 0.606938 0.00889404 -0.00279191 -0.00953512
60 1 1.45795 2.48254 13.0072 0.000244634 0.00306646 -0.00322707
61 1 10.1567 7.57312 14.4964 -0.00838265 0.00866285 -0.000616735
62 1 16.7503 21.4244 2.13418 0.0077025 -0.00378546 -0.0010601
63 1 9.41181 0.0625953 16.6395 0.000374801 0.000820396 0.00913554
64 1 1.50979 13.8926 16.457 -4.42847e-06 -0.00827029 0.00725267
65 1 19.7533 21.4445 2.66882 0.001356 -0.00883445 0.00340167
66 1 10.8246 8.85432 15.0463 0.00170239 0.00181839 -0.0132754
67 1 8.73171 22.6604 15.1353 -0.00589915 -0.00722894 0.000502397
68 1 19.7282 21.4608 4.16605 0.00518654 -0.000881193 0.00492895
69 1 5.81161 1.28659 16.5556 0.00483947 0.00174094 -0.0037328
70 1 4.99634 0.101498 16.6365 0.00308464 -0.00312418 0.00723977
71 1 5.83739 22.6356 14.4566 -0.00120917 0.00234162 0.00206807
72 1 6.46764 1.2501 15.0634 0.00683296 -0.00924043 -0.00746716
73 1 4.40489 0.0554827 15.0702 -0.00549275 -0.00122266 -0.00104122
74 1 17.4668 12.6055 -3.38328 0 0 0
75 1 19.6501 11.345 -3.38328 0 0 0
76 1 19.6501 13.8661 -3.38328 0 0 0
77 1 17.4668 12.6055 -2.04973 0 0 0
78 1 19.6501 11.345 -2.04973 0 0 0
79 1 19.6501 13.8661 -2.04973 0 0 0
80 1 5.79973 22.6046 13.0272 -0.00795655 0.00306694 -5.502e-05
81 1 20.3779 12.6055 -1.46015 0 0 0
82 1 3.65407 1.27939 14.6884 0.0100542 -0.00271855 -0.0012561
83 1 20.3827 12.5403 0.0589752 0.00470114 0.0102548 -0.0063362
84 1 13.1001 15.1267 -3.38328 0 0 0
85 1 15.2834 13.8661 -3.38328 0 0 0
86 1 15.2834 16.3872 -3.38328 0 0 0
87 1 13.1001 15.1267 -2.04973 0 0 0
88 1 15.2834 13.8661 -2.04973 0 0 0
89 1 15.2834 16.3872 -2.04973 0 0 0
90 1 17.4668 15.1267 -3.38328 0 0 0
91 1 16.0112 15.1267 -1.46015 0 0 0
92 1 18.1945 13.8661 -1.46015 0 0 0
93 1 18.1945 16.3872 -1.46015 0 0 0
94 1 17.4668 15.1267 -2.04973 0 0 0
95 1 16.0216 15.1106 0.0412052 0.00889795 0.0030371 0.00831512
96 1 18.1589 13.8261 0.0932576 0.00105796 0.00506646 0.00341557
97 1 18.2174 16.3931 0.0398074 -0.00275851 0.00436515 -0.00140761
98 1 20.3779 15.1267 -1.46015 0 0 0
99 1 18.8916 15.1546 0.58543 -0.00246495 -0.00163074 -0.0045239
100 1 21.1414 13.8362 0.569374 0.00227884 0.00271714 -0.00186137
101 1 21.0731 16.3831 0.532942 0.0014492 0.00730607 -0.00602702
102 1 20.3757 15.1426 0.00107707 0.00328457 0.00224532 -0.00116402
103 1 18.9283 15.1167 2.13465 0.00265148 0.00267947 -0.0101462
104 1 21.111 13.8445 2.08615 -0.0053222 0.000428698 -0.00139534
105 1 21.0989 16.3877 2.1309 0.00440051 -0.00263478 0.0110785
106 1 1.45214 22.6519 14.5285 0.00591322 -0.0101522 -0.0107559
107 1 8.73338 17.6478 -3.38328 0 0 0
108 1 10.9167 16.3872 -3.38328 0 0 0
109 1 10.9167 18.9083 -3.38328 0 0 0
110 1 8.73338 17.6478 -2.04973 0 0 0
111 1 10.9167 16.3872 -2.04973 0 0 0
112 1 10.9167 18.9083 -2.04973 0 0 0
113 1 13.1001 17.6478 -3.38328 0 0 0
114 1 11.6445 17.6478 -1.46015 0 0 0
115 1 13.8278 16.3872 -1.46015 0 0 0
116 1 13.8278 18.9083 -1.46015 0 0 0
117 1 13.1001 17.6478 -2.04973 0 0 0
118 1 11.6672 17.6349 0.0185342 -0.0120602 -0.00374423 0.00528639
119 1 13.8216 16.4378 0.0693365 -8.08742e-05 0.000536586 -0.00157775
120 1 13.8712 18.8995 0.060991 0.00114793 -0.00375454 0.00172621
121 1 16.0112 17.6478 -1.46015 0 0 0
122 1 14.5689 17.7274 0.573497 -0.00258934 0.00589573 0.00370058
123 1 16.7199 16.3645 0.566762 -0.000206331 -0.00717226 0.000728081
124 1 16.787 18.8726 0.612819 -0.00248486 -0.00253248 0.00806697
125 1 16.016 17.6713 0.0748289 0.00605921 0.000151637 0.00274154
126 1 14.5294 17.7033 2.11861 -0.000163227 -0.00849454 0.00414483
127 1 16.7084 16.4612 2.14911 -0.0122657 5.64871e-05 -0.00083329
128 1 16.7856 18.9013 2.20032 -0.000413824 -0.00281543 -0.00521287
129 1 18.9435 17.6355 0.604322 -0.00096937 0.00460546 0.00599107
130 1 17.5117 17.6318 2.66886 0.00060489 0.00395913 -0.00794449
131 1 19.6456 16.3886 2.66784 0.000745814 -0.00348001 -0.00715864
132 1 19.6636 18.9073 2.66793 0.00771841 0.00289073 0.00201198
133 1 18.9469 17.6473 2.11837 0.00307882 -0.00107094 -0.00179682
134 1 17.4943 17.6911 4.22776 0.000364698 0.000158023 0.0105702
135 1 19.6926 16.3886 4.18461 -0.00381624 0.000895925 0.0115626
136 1 19.7088 18.9138 4.28024 0.00165364 0.00735948 0.00535879
137 1 2.91117 0.0333778 12.5757 0.00052456 0.00484612 0.00380136
138 1 20.4486 17.6171 4.75494 -0.00800002 0.00576257 0.00320194
139 1 3.64251 1.28523 13.0634 -0.000413983 -0.00665829 -0.00127333
140 1 20.3859 17.6113 6.24456 -0.000721667 0.00118962 -0.00129631
141 1 4.36669 20.1689 -3.38328 0 0 0
142 1 6.55003 18.9083 -3.38328 0 0 0
143 1 6.55003 21.4294 -3.38328 0 0 0
144 1 4.36669 20.1689 -2.04973 0 0 0
145 1 6.55003 18.9083 -2.04973 0 0 0
146 1 6.55003 21.4294 -2.04973 0 0 0
147 1 8.73338 20.1689 -3.38328 0 0 0
148 1 7.27782 20.1689 -1.46015 0 0 0
149 1 9.46116 18.9083 -1.46015 0 0 0
150 1 9.46116 21.4294 -1.46015 0 0 0
151 1 8.73338 20.1689 -2.04973 0 0 0
152 1 7.31286 20.1853 0.0102424 -0.00981903 -0.0052451 0.00381936
153 1 9.50179 18.9493 0.0803575 -0.00224624 -0.000902266 7.18977e-05
154 1 9.42681 21.4419 0.0554169 -0.00331678 0.0124636 0.00547318
155 1 11.6445 20.1689 -1.46015 0 0 0
156 1 10.2295 20.2101 0.632645 -0.00582336 -0.00102246 -0.00386364
157 1 12.3432 18.845 0.606724 0.010139 0.00423472 -0.000701689
158 1 12.3762 21.3889 0.581064 0.00328345 -0.00126348 0.00708205
159 1 11.6775 20.1191 0.0462731 0.00351481 -0.00131823 0.00386702
160 1 10.2037 20.1761 2.17623 -0.00384964 0.00125402 -0.00112368
161 1 12.3801 18.9145 2.10549 -0.00310951 0.00126132 -0.000746476
162 1 12.35 21.4034 2.15817 -0.000474653 0.000702735 -7.13636e-05
163 1 14.6082 20.1462 0.603915 0.00266056 -0.000599449 0.00299114
164 1 13.1167 20.1388 2.68225 -0.00221403 0.00145934 -0.00115355
165 1 15.2914 18.9481 2.7044 -4.93687e-05 -0.000819967 0.00497215
166 1 15.3165 21.4196 2.66998 -0.00991387 0.000678339 -0.00355689
167 1 14.5428 20.1574 2.16999 0.00102554 0.0123286 -0.00591307
168 1 13.1373 20.1555 4.18014 -0.0047382 0.00105931 0.00478602
169 1 15.2465 18.9317 4.23213 0.00506234 -0.0045206 0.000316034
170 1 15.2897 21.4813 4.23224 -0.00829764 0.00487375 0.000894436
171 1 17.5274 20.1859 2.67668 0.00250755 0.00479169 0.00457018
172 1 16.0507 20.2309 4.72661 0.00396712 -0.00349583 0.00354111
173 1 18.2116 18.9754 4.79918 0.00353557 0.00345869 -0.000347979
174 1 18.2858 21.3897 4.69764 -0.00637519 0.00460577 -0.0117243
175 1 17.4978 20.2076 4.23679 -0.0106646 0.00222804 -0.00788874
176 1 15.9886 20.1653 6.26602 0.00167333 -0.000737074 0.0041071
177 1 18.1874 18.9301 6.32731 -0.00864737 0.00754919 -0.00711846
178 1 18.145 21.4566 6.29809 -0.00343394 0.00366448 -0.00337109
179 1 20.4185 20.1382 4.76368 0.00471474 -0.00460488 0.00457097
180 1 18.9348 20.2084 6.81848 0.00109954 -0.00317417 -0.005294
181 1 21.1301 18.8913 6.78585 -0.00955233 -0.00295772 0.00425994
182 1 21.1193 21.4094 6.80281 -0.00352116 0.00481479 0.00370679
183 1 20.3748 20.1582 6.2816 -0.000100363 0.0111152 -0.00474435
184 1 18.9698 20.1331 8.39409 0.00301204 -0.000254941 0.00788039
185 1 21.106 18.8685 8.33612 0.00149015 -0.00234427 -0.0111758
186 1 21.0997 21.3653 8.37693 0.00761178 -0.00400437 -0.000897717
187 1 1.45809 22.6846 13.0261 0.000860086 -0.00716976 -0.00180438
188 1 2.95189 0.0294937 11.0014 0.00834961 -0.00605606 -0.00662729
189 1 0.772786 1.21666 12.4648 0.00652134 0.000682155 -0.00403961
190 1 2.18334 21.4294 -3.38328 0 0 0
191 1 0.0314226 22.6428 10.3773 0.00166064 0.00372395 -0.0127494
192 1 2.18334 21.4294 -2.04973 0 0 0
193 1 0.702609 1.23424 10.9172 0.00218913 -0.00326121 -0.00267232
194 1 0.0178173 22.6462 8.88131 0.00103391 0.00619541 0.00194491
195 1 5.09447 21.4294 -1.46015 0 0 0
196 1 10.8551 6.36024 15.048 -0.003887 0.0042809 -0.00906164
197 1 0.539285 10.1433 16.6648 -1.02276e-05 0.00771133 7.86979e-05
198 1 5.07881 21.4658 0.0614293 -0.00517727 0.00356103 0.00349557
199 1 1.41518 11.386 16.5318 -0.00161248 -0.00975789 7.61076e-05
200 1 0.649087 12.6929 16.53 0.000125013 -0.00474909 -0.00786889
201 1 8.0009 21.4183 0.590073 -0.00311319 -0.000296277 0.00568096
202 1 21.8083 10.1175 15.071 -0.00445218 -0.00187298 0.0020211
203 1 8.73037 7.58867 15.144 -0.000300233 0.00195892 0.00558673
204 1 7.96935 21.408 2.1487 -0.00411389 -0.00594136 -0.00991773
205 1 4.92509 7.60163 16.5673 0.00425503 0.000999366 0.000567979
206 1 1.51398 12.5094 14.4515 -0.00903912 0.0039992 0.00162096
207 1 10.9046 21.411 2.64323 -0.000839219 -0.00603807 -0.00475141
208 1 2.15537 13.8443 15.076 0.00399445 -0.00470483 0.00100409
209 1 10.1823 7.59805 12.9905 0.00661919 0.00137834 -0.00119416
210 1 10.9291 21.3952 4.23145 0.000861808 0.0106475 0.00134284
211 1 4.42375 7.57892 15.0886 0.00637517 -0.00319165 0.00278757
212 1 1.40505 8.84986 16.5112 -0.00128892 0.000745868 0.00460342
213 1 13.8238 21.4391 4.75976 -0.00313436 -0.00972437 -0.00919007
214 1 1.49294 6.29584 16.5489 -0.00232781 -0.00490475 0.00321289
215 1 0.612681 7.50264 16.6599 0.00128747 -0.00432698 0.000288613
216 1 13.8517 21.4281 6.29138 0.0023451 0.00571266 3.89657e-05
217 1 1.36189 7.53789 14.5206 0.000365026 0.00131546 0.000658474
218 1 2.05117 8.81201 15.0791 -0.00189648 -0.00992798 -0.00160038
219 1 16.7523 21.4228 6.72549 0.000397338 0.00591112 0.00160299
220 1 2.09175 6.25115 15.0845 -0.000710165 0.00578701 0.000927341
221 1 21.7493 7.54961 15.1634 -0.00472109 0.00358422 0.0012533
222 1 16.704 21.4084 8.27214 -0.00150652 -0.00481415 -0.00399267
223 1 1.38553 7.55003 12.9839 -0.00319304 0.01114 0.00459732
224 1 7.98536 8.79101 14.6799 -0.0159493 -0.00107245 0.000625325
225 1 19.7062 21.4117 8.86378 -0.00101255 0.00320109 -0.000532709
226 1 9.37108 5.08474 16.5639 0.00250624 -0.00281171 -0.00458355
227 1 2.11189 11.312 15.0801 0.00117413 0.00265786 -0.00988802
228 1 19.6892 21.3424 10.4027 0.00583125 -0.00796027 -0.000351687
229 1 0.0444357 12.6212 15.0646 -0.00215593 -0.00149376 -0.00209145
230 1 7.99785 6.28941 14.6436 0.000527392 0.00198953 -0.00274536
231 1 8.72953 5.03983 15.0836 -0.000396663 -0.00979038 -0.0110149
232 1 5.82294 6.33066 16.5385 -0.00408749 0.000555157 -0.00104851
233 1 5.86107 3.79864 16.5058 -0.00779756 -0.00716456 0.00777922
234 1 5.10331 5.07436 16.5632 0.00201766 0.00321312 -0.00302217
235 1 17.4668 7.56333 -3.38328 0 0 0
236 1 19.6501 6.30277 -3.38328 0 0 0
237 1 19.6501 8.82388 -3.38328 0 0 0
238 1 17.4668 7.56333 -2.04973 0 0 0
239 1 19.6501 6.30277 -2.04973 0 0 0
240 1 19.6501 8.82388 -2.04973 0 0 0
241 1 5.81863 5.00914 14.4582 -0.0096692 -0.000628191 0.0152829
242 1 20.3779 7.56333 -1.46015 0 0 0
243 1 20.4378 7.54515 0.137479 0.00222975 0.00303842 0.00437555
244 1 13.1001 10.0844 -3.38328 0 0 0
245 1 15.2834 8.82388 -3.38328 0 0 0
246 1 15.2834 11.345 -3.38328 0 0 0
247 1 13.1001 10.0844 -2.04973 0 0 0
248 1 15.2834 8.82388 -2.04973 0 0 0
249 1 15.2834 11.345 -2.04973 0 0 0
250 1 17.4668 10.0844 -3.38328 0 0 0
251 1 16.0112 10.0844 -1.46015 0 0 0
252 1 18.1945 8.82388 -1.46015 0 0 0
253 1 18.1945 11.345 -1.46015 0 0 0
254 1 17.4668 10.0844 -2.04973 0 0 0
255 1 15.9998 10.0555 0.0845044 0.00628763 -0.0038799 0.00221979
256 1 18.1833 8.80492 0.0592912 -0.00578878 -0.00808611 -0.00945684
257 1 18.1993 11.35 0.131105 0.00376295 -0.002424 -0.00218509
258 1 20.3779 10.0844 -1.46015 0 0 0
259 1 18.8942 10.074 0.59702 0.00374868 0.00559855 0.00466043
260 1 21.077 8.79613 0.605215 -0.00753677 0.00470237 -0.00257669
261 1 21.1102 11.3393 0.579346 -0.00192483 0.0106897 0.00517261
262 1 20.348 10.0262 0.103714 0.00369099 0.00183272 0.00576158
263 1 18.924 10.0988 2.18207 -0.00307409 0.00649816 0.0068424
264 1 21.0959 8.83717 2.14316 -0.00484933 0.00320128 0.00341025
265 1 21.1316 11.2981 2.13296 -0.000573689 -0.00957934 -0.00469263
266 1 6.47032 6.32117 15.0389 0.00231587 -0.000846465 -0.000765705
267 1 6.46416 3.81742 15.0763 -0.00409217 0.00290639 0.0137935
268 1 8.73338 12.6055 -3.38328 0 0 0
269 1 10.9167 11.345 -3.38328 0 0 0
270 1 10.9167 13.8661 -3.38328 0 0 0
271 1 8.73338 12.6055 -2.04973 0 0 0
272 1 10.9167 11.345 -2.04973 0 0 0
273 1 10.9167 13.8661 -2.04973 0 0 0
274 1 13.1001 12.6055 -3.38328 0 0 0
275 1 11.6445 12.6055 -1.46015 0 0 0
276 1 13.8278 11.345 -1.46015 0 0 0
277 1 13.8278 13.8661 -1.46015 0 0 0
278 1 13.1001 12.6055 -2.04973 0 0 0
279 1 11.629 12.6379 0.0714006 -0.00691206 -0.00726931 0.00305937
280 1 13.8071 11.335 0.0421209 -0.00282164 -0.00912316 -0.00233238
281 1 13.8306 13.9236 0.0522542 -0.00778145 -0.00188675 -0.00205296
282 1 16.0112 12.6055 -1.46015 0 0 0
283 1 14.5533 12.64 0.600477 0.00676772 0.00607488 -0.00858594
284 1 16.7926 11.3109 0.555239 0.00285408 -0.00335629 0.0051762
285 1 16.6983 13.8952 0.60066 -0.000813329 0.004332 -0.00421173
286 1 15.9912 12.577 0.082382 -0.00351717 0.00042091 -0.00197856
287 1 14.5348 12.6276 2.12661 0.00110531 0.00558504 -0.00603518
288 1 16.7628 11.3745 2.09837 -0.000297988 -0.00477061 0.00106613
289 1 16.7431 13.8786 2.1607 0.00862631 0.00125389 -0.00578267
290 1 18.9315 12.5887 0.640262 -0.00338756 0.0115103 -0.000106069
291 1 17.4267 12.6027 2.66342 0.00279844 0.00671281 0.00192888
292 1 19.6019 11.3829 2.71973 0.0070296 0.00314624 -0.00610356
293 1 19.6225 13.8251 2.61697 0.00637057 0.00674755 0.00114678
294 1 18.8876 12.6162 2.15593 -0.00280779 -0.00116479 -0.00537528
295 1 17.4175 12.5767 4.24 -0.00130698 0.00369056 -0.00391343
296 1 19.6286 11.4271 4.26702 -0.00241592 -0.00353027 -0.00798399
297 1 19.6153 13.8791 4.23427 0.00384719 -0.0044377 0.00356898
298 1 4.39983 5.10773 15.0846 -0.000801328 0.00317587 0.00387556
299 1 20.3652 12.6776 4.75946 0.00207941 -0.00650732 -0.0118754
300 1 20.4115 12.5936 6.33341 -0.00705077 0.00115824 -0.000153215
301 1 4.36669 15.1267 -3.38328 0 0 0
302 1 6.55003 13.8661 -3.38328 0 0 0
303 1 6.55003 16.3872 -3.38328 0 0 0
304 1 4.36669 15.1267 -2.04973 0 0 0
305 1 6.55003 13.8661 -2.04973 0 0 0
306 1 6.55003 16.3872 -2.04973 0 0 0
307 1 8.73338 15.1267 -3.38328 0 0 0
308 1 7.27782 15.1267 -1.46015 0 0 0
309 1 9.46116 13.8661 -1.46015 0 0 0
310 1 9.46116 16.3872 -1.46015 0 0 0
311 1 8.73338 15.1267 -2.04973 0 0 0
312 1 7.2715 15.1104 0.11838 -0.00255943 -0.0118281 -0.00588482
313 1 9.46189 13.8286 0.0851369 0.00462415 0.00534266 0.00663705
314 1 9.4362 16.3874 0.0650145 0.00596415 0.0010076 -0.000665802
315 1 11.6445 15.1267 -1.46015 0 0 0
316 1 10.1516 15.1218 0.581917 -0.00290949 -0.00185236 -0.00135014
317 1 12.3767 13.8666 0.583317 0.00719657 0.00125232 -0.000230766
318 1 12.3121 16.4409 0.609142 -0.00105395 -0.0048668 -0.00675928
319 1 11.637 15.1998 0.12013 0.00213838 -0.00942513 0.0053914
320 1 10.1764 15.1745 2.10351 0.00830707 -0.000306641 0.0058101
321 1 12.3577 13.8248 2.14 0.00722105 0.00767052 0.000599611
322 1 12.3903 16.4247 2.14012 -5.08493e-05 0.00307071 -0.000829103
323 1 14.5329 15.1562 0.611894 -0.00297005 -2.51536e-05 0.000387561
324 1 13.1201 15.1245 2.64619 -0.00250889 -0.00539235 -0.00232803
325 1 15.2677 13.9127 2.66231 0.00770132 0.000288693 0.00180955
326 1 15.2943 16.3922 2.64442 -0.00189688 2.86679e-05 -0.00921363
327 1 14.525 15.1458 2.11541 0.0036145 0.00650561 -0.000339351
328 1 13.0759 15.1498 4.22302 -0.00731193 -0.0121045 -0.00339565
329 1 15.2851 13.8733 4.21737 -0.00451787 0.00230528 -0.00505891
330 1 15.3169 16.4485 4.20349 -0.00484958 0.00261723 -0.00358599
331 1 17.4622 15.1317 2.63609 0.00233204 0.00096186 -0.00127933
332 1 16.0076 15.1725 4.75981 0.00232136 -0.00353925 -0.00387747
333 1 18.1706 13.8636 4.75216 6.78639e-05 0.00494745 0.00329823
334 1 18.2171 16.4445 4.73722 -0.00289204 -0.00905839 -0.00679414
335 1 17.5119 15.1861 4.22431 -0.00497332 0.00225327 -0.00546568
336 1 16.006 15.1036 6.27136 -0.00970813 -0.0102348 -0.00821161
337 1 18.1817 13.827 6.26073 -0.00478448 -0.00272866 -0.00136962
338 1 18.2118 16.3684 6.28881 0.00440143 0.0049389 -0.00160497
339 1 20.3569 15.1495 4.70922 -0.00452979 0.00567485 -0.00292503
340 1 18.9038 15.0638 6.80527 -0.00555335 -0.000540807 0.000964233
341 1 21.0336 13.8825 6.80738 -0.00110245 0.00270334 -0.00575668
342 1 21.1044 16.3951 6.80278 0.00642392 -0.00149478 -0.0127443
343 1 20.3542 15.1242 6.22743 -0.0146531 0.00562114 0.00571539
344 1 18.9538 15.1162 8.35236 0.00142817 0.00415107 -0.00212043
345 1 21.034 13.8964 8.33202 0.00329665 -0.00537796 -0.00145195
346 1 21.1247 16.4152 8.36949 0.00447368 -0.00604022 -0.00335484
347 1 5.80302 5.04646 13.015 0.00784236 -0.0107664 0.00663663
348 1 3.57092 6.35529 14.6484 -0.00129374 -0.0090156 0.00070595
349 1 2.81169e-08 17.6478 -3.38328 0 0 0
350 1 2.18334 16.3872 -3.38328 0 0 0
351 1 2.18334 18.9083 -3.38328 0 0 0
352 1 1.89638e-07 17.6478 -2.04973 0 0 0
353 1 2.18334 16.3872 -2.04973 0 0 0
354 1 2.18334 18.9083 -2.04973 0 0 0
355 1 4.36669 17.6478 -3.38328 0 0 0
356 1 2.91113 17.6478 -1.46015 0 0 0
357 1 5.09447 16.3872 -1.46015 0 0 0
358 1 5.09447 18.9083 -1.46015 0 0 0
359 1 4.36669 17.6478 -2.04973 0 0 0
360 1 2.88689 17.6227 0.0340463 0.00978481 0.00239357 -0.000743104
361 1 5.0492 16.4045 0.103045 0.00163055 -0.00268799 -0.000746917
362 1 5.13337 18.9036 0.022272 -0.00444844 0.0105403 -0.00167524
363 1 7.27782 17.6478 -1.46015 0 0 0
364 1 5.88764 17.6287 0.535924 0.00618955 -0.00111832 -0.00618639
365 1 7.9819 16.3511 0.579286 -0.00459055 0.00170412 -0.00680636
366 1 8.05591 18.9857 0.567142 -0.00180377 -0.00519527 -0.00121906
367 1 7.34086 17.6508 0.0425454 0.00133312 0.0020275 0.00788344
368 1 5.79045 17.5911 2.04761 0.00180646 0.0031761 -0.00881687
369 1 7.98222 16.4442 2.1313 0.00521485 -0.00476538 0.000524827
370 1 7.9875 18.9192 2.14987 0.00217629 -0.00148169 -0.00177266
371 1 10.142 17.6392 0.581191 -0.009942 0.00296597 -0.00839447
372 1 8.73693 17.6692 2.59676 -0.00599034 0.00299543 0.00193657
373 1 10.9166 16.361 2.65451 0.00426753 0.00420086 -0.000910109
374 1 10.9017 18.8946 2.63751 0.0011099 0.00264914 -0.00875407
375 1 10.1883 17.6846 2.11449 -0.00437022 0.00681962 -0.000431943
376 1 8.72434 17.7003 4.22629 0.00012481 0.00237868 0.00108938
377 1 10.888 16.308 4.22067 -0.00514913 0.00283804 -0.00569242
378 1 10.9053 18.8709 4.18575 -0.00113257 -0.00338701 -0.00801899
379 1 13.1023 17.6813 2.65891 0.00489644 0.00291887 -0.000645328
380 1 11.6362 17.5764 4.74517 0.0044681 0.00748957 0.00238699
381 1 13.8535 16.3806 4.73787 0.00131261 -0.00796247 -7.9085e-05
382 1 13.85 18.9149 4.76933 0.00364422 -0.00311852 -0.00052846
383 1 13.1037 17.6753 4.29031 -0.00371084 0.00236993 -0.00234804
384 1 11.5636 17.632 6.29609 0.00804753 0.00118897 0.00498857
385 1 13.8049 16.3837 6.31727 -0.00177184 0.00717376 0.00134078
386 1 13.7907 18.9232 6.30952 0.003286 0.00175673 0.00929568
387 1 16.0175 17.6742 4.68575 -0.00269559 -0.00629359 0.00249118
388 1 14.5723 17.6245 6.81893 0.00264254 -0.00125389 0.00094158
389 1 16.7343 16.4125 6.77476 -0.0028313 0.0019041 0.0009253
390 1 16.7249 18.9664 6.78703 0.00392949 -0.00145754 -0.00920336
391 1 16.03 17.6913 6.17222 0.00456421 -0.00715014 -0.0058042
392 1 14.616 17.5609 8.28485 -0.00347874 -0.000229549 0.00230317
393 1 16.7638 16.3344 8.33236 0.00592139 0.00167904 -0.000314792
394 1 16.7457 18.9553 8.3654 0.00853349 -1.03887e-05 0.000535891
395 1 18.9335 17.6578 6.75722 -0.00253774 -0.00510329 -0.00156947
396 1 17.503 17.6115 8.85735 0.0041087 -0.00195874 -0.00452279
397 1 19.6618 16.3653 8.85809 -0.00789935 -0.00237314 0.00681608
398 1 19.6537 18.8895 8.9181 -0.00555797 -0.00845165 0.00430125
399 1 18.9124 17.6048 8.35951 -0.0086755 0.0050769 -0.00287399
400 1 17.4428 17.657 10.3895 -0.00287404 -0.00667921 -0.00537336
401 1 19.7178 16.3961 10.4665 0.00843993 0.0123962 -0.0149257
402 1 19.6916 18.8706 10.4903 -0.00128089 0.00494169 -0.00468211
403 1 3.5826 3.85132 14.6201 -0.00382447 0.00519043 0.00441382
404 1 20.4016 17.6452 10.9489 -0.00986589 0.000204423 0.00475509
405 1 1.4357 5.06078 14.4509 0.00457879 -0.0111552 -0.00473215
406 1 20.4179 17.6733 12.5085 -0.00209565 -0.00191768 0.0056293
407 1 2.82209e-08 20.1689 -3.38328 0 0 0
408 1 0.727781 18.9083 -1.46015 0 0 0
409 1 0.727781 21.4294 -1.46015 0 0 0
410 1 1.89579e-07 20.1689 -2.04973 0 0 0
411 1 0.755839 18.848 0.0406051 0.00257064 -0.000586063 -0.0121362
412 1 0.773608 21.3842 0.089924 0.00547629 0.00021615 -0.000267025
413 1 2.91113 20.1689 -1.46015 0 0 0
414 1 1.47076 20.1521 0.567329 -0.00550003 -0.000162566 0.0108152
415 1 3.60982 18.9075 0.576741 -0.00165985 -0.00729939 -0.00524803
416 1 3.65226 21.4345 0.582688 0.00139545 -0.00779038 -0.00219724
417 1 2.92122 20.1794 0.0944687 0.00412994 -0.00699437 0.00137368
418 1 1.44587 20.1508 2.18196 0.00218605 -0.000505992 0.000646167
419 1 3.61621 18.9105 2.03045 0.00663976 -0.00362353 0.00376284
420 1 3.63199 21.3481 2.06227 -0.0043263 -0.00989497 -0.000211617
421 1 5.81232 20.1622 0.530532 0.0039247 -0.00431083 -0.00534846
422 1 4.36449 20.1258 2.56016 -0.00385156 -0.00178375 0.00206619
423 1 6.55881 18.8691 2.59666 -0.00323082 0.00430922 0.00334829
424 1 6.51596 21.419 2.65691 0.00167581 -0.00422078 0.0103986
425 1 5.81109 20.1799 2.06256 0.00502632 0.00122681 -0.00198061
426 1 4.35921 20.1552 4.13342 -0.00133405 -0.00174137 0.00466519
427 1 6.53875 18.877 4.10776 -0.00687032 0.00600186 0.00219305
428 1 6.50614 21.4075 4.22029 -0.00413017 -0.0061598 -0.0145758
429 1 8.72539 20.1617 2.69306 0.00229971 0.00113157 -0.00144672
430 1 7.23473 20.134 4.66283 0.00246241 -0.00202767 0.00569549
431 1 9.41475 18.8893 4.67385 0.0103552 -0.00120635 0.00156829
432 1 9.41725 21.397 4.73924 -0.0110935 -0.0051404 0.0038575
433 1 8.68502 20.1765 4.23856 -0.00184005 -0.00731263 -0.00119852
434 1 7.25633 20.1841 6.21789 -0.00692858 0.00579259 0.00829413
435 1 9.41696 18.9166 6.25943 -0.00472407 0.00298134 -0.00382841
436 1 9.42083 21.3836 6.22543 0.000361988 0.00391004 -7.55354e-05
437 1 11.6074 20.1285 4.72866 -0.00318031 -0.00107203 -0.00483717
438 1 10.0815 20.1069 6.75112 0.00776843 0.00261378 0.00953112
439 1 12.3623 18.9003 6.81847 0.00354915 0.000755731 0.00544509
440 1 12.3517 21.411 6.78774 0.00356702 -0.00147895 0.0010278
441 1 11.6015 20.1053 6.27536 -0.00100186 0.000933257 -0.00671845
442 1 10.135 20.1339 8.37371 0.00601241 -0.00229497 -0.0062488
443 1 12.3444 18.8651 8.31784 -0.00873437 -0.00648577 -0.00611557
444 1 12.4197 21.4033 8.27365 -0.00304222 0.00624999 0.0044732
445 1 14.5151 20.2053 6.84006 0.000537344 -0.00233737 -0.00184588
446 1 13.118 20.1838 8.86082 -0.00366579 0.00765024 0.00155177
447 1 15.3423 18.8889 8.8529 -0.00364953 0.0046345 0.000950446
448 1 15.2709 21.4177 8.869 0.00578367 -0.00423619 0.00227854
449 1 14.5773 20.1374 8.35466 0.000204486 -0.0172853 -0.000241524
450 1 13.1325 20.1529 10.4282 -0.00751996 0.00567033 0.0120532
451 1 15.2961 18.8818 10.4219 -0.00244203 -0.00385322 0.00302095
452 1 15.2768 21.3973 10.4075 0.00547771 0.00748859 0.00490755
453 1 17.4863 20.1683 8.84932 -0.00164194 -0.000273469 -0.00690814
454 1 16.0151 20.1657 10.9695 0.00187422 -0.00544126 -0.00723617
455 1 18.2244 18.9141 10.9396 0.00168256 0.00903165 0.00686798
456 1 18.2128 21.407 10.9335 0.00384838 0.00237337 0.00441873
457 1 17.4647 20.1936 10.4227 0.00232433 0.00562844 -0.00245784
458 1 16.0463 20.2051 12.537 -0.00113081 0.00232412 -0.00921625
459 1 18.2038 18.9539 12.4701 -0.00291535 0.00344766 0.0024322
460 1 18.2306 21.4351 12.5266 0.000310507 0.00241495 0.00517835
461 1 20.4231 20.1416 10.943 -0.00170858 -0.00265459 0.00206884
462 1 18.9578 20.1924 12.9755 -0.00696069 0.00317585 0.00492951
463 1 21.1194 18.9438 12.9823 -0.00118026 0.0120453 -0.00269916
464 1 21.1747 21.4325 13.0139 -0.00280646 0.000938523 0.00398434
465 1 20.4312 20.159 12.4837 0.00461054 -0.00633152 0.00528295
466 1 18.9769 20.1195 14.4861 0.00193134 -0.00155826 0.0147828
467 1 21.1256 18.825 14.6738 0.0014767 -0.00180268 0.00144393
468 1 21.0662 21.3895 14.6599 0.00327949 0.00791189 0.000727887
469 1 2.91947 5.08102 12.434 -0.00681896 -0.00433928 -0.00194348
470 1 3.65033 6.24566 13.0295 -0.00601703 -0.00205122 -0.00423536
471 1 3.61647 3.77786 12.9838 -0.00193371 0.00341769 0.00386192
472 1 1.4561 5.03568 12.963 -0.00810842 -0.00051038 -0.000217704
473 1 2.18795 21.4288 2.63964 0.00916951 0.00133746 -0.00190852
474 1 2.87428 5.03692 10.9344 0.00269174 -0.00270413 0.00498896
475 1 0.716588 6.30599 12.4514 0.00590776 -0.00386234 -0.00537226
476 1 2.16833 21.4537 4.19183 -0.00553563 -0.00029972 0.0115614
477 1 0.698654 3.8204 12.43 0.0043973 0.00020267 0.00934108
478 1 21.8013 5.0028 10.4272 0.0135125 0.000237249 0.00237866
479 1 5.01384 21.4318 4.67101 0.000247572 -0.00293201 -0.00322906
480 1 0.661352 6.27219 10.8639 -0.000652432 0.00259261 1.69627e-05
481 1 0.73126 3.75004 10.9501 0.00386781 -0.0100116 0.00128812
482 1 5.06836 21.403 6.24223 -0.00453895 -0.00239992 0.00239048
483 1 21.8271 5.00672 8.8772 -0.00291994 0.00457854 -0.00582271
484 1 5.75307 7.51526 14.469 -0.000618922 -0.00164979 0.00181245
485 1 7.95776 21.4437 6.81238 0.00171039 -0.000278716 0.0057727
486 1 13.8261 2.50916 16.5992 -0.0023966 0.00839332 -0.00182302
487 1 1.46146 12.5798 12.9391 0.00884931 -0.0029139 -0.000504062
488 1 8.06448 21.457 8.33732 -0.00940975 0.000290281 0.00169309
489 1 7.299 7.54676 12.549 0.000660769 0.00446749 0.00505724
490 1 7.94111 8.83806 13.0474 -0.00196797 -0.00853061 0.00718271
491 1 10.9422 21.3847 8.82178 -0.00481255 -0.00260411 0.0105272
492 1 13.1079 2.51765 15.1205 -0.00283997 0.012999 0.00140873
493 1 10.2997 3.82413 16.4466 0.00618181 -0.00636973 -0.00230184
494 1 10.9461 21.4071 10.3762 -0.00376335 0.0133115 -0.0010717
495 1 10.3264 1.26946 16.478 -0.00125955 -0.00041865 -0.00521428
496 1 9.46983 2.49843 16.5645 -0.00349711 0.0065843 0.00627848
497 1 13.78 21.4197 10.8971 0.00503691 -0.00674158 -0.0015329
498 1 10.2461 2.54954 14.4312 0.000955252 -0.00880684 0.00115998
499 1 10.8995 3.80531 15.059 0.000430929 -0.00393171 0.00307051
500 1 13.8383 21.3341 12.5062 -0.00114835 -0.000781262 0.00420037
501 1 10.9266 1.25984 15.0068 -0.00293031 0.00217572 6.42397e-05
502 1 8.7346 2.52626 15.1186 0.000312198 0.00772622 0.00570584
503 1 16.7763 21.4524 13.0992 -0.00363972 4.88334e-05 -0.00165344
504 1 10.1885 2.4948 12.9275 -0.00398917 0.00461301 0.00442479
505 1 8.02157 3.76305 14.6566 0.00378381 0.00211527 0.00746315
506 1 16.7176 21.4905 14.6901 0.00403326 -0.00157541 -0.000165726
507 1 7.98939 1.23403 14.6609 0.00370055 -0.00946057 0.000524914
508 1 5.80189 2.55847 14.4268 0.00222762 0.00244096 -0.00081277
509 1 19.5564 21.4284 15.1113 0.00320216 -0.00398231 3.02393e-05
510 1 7.26732 2.51193 12.5317 -0.00146985 0.00264605 -0.00950397
511 1 8.01715 3.76949 13.0743 -0.00844156 -0.00256184 0.000654927
512 1 18.9956 21.3716 16.5324 -0.00209605 0.00116303 0.00911205
513 1 7.96811 1.23645 13.0259 0.00548488 -0.00515596 0.0071414
514 1 5.82458 2.54266 12.988 -0.000660272 0.000597721 -0.000270673
515 1 7.24371 2.52191 10.9597 -0.00927529 0.00328382 -0.00408239
516 1 5.03346 3.74727 12.5099 0.00944255 -0.00617423 -0.00618667
517 1 17.4668 2.52111 -3.38328 0 0 0
518 1 19.6501 1.26055 -3.38328 0 0 0
519 1 19.6501 3.78166 -3.38328 0 0 0
520 1 17.4668 2.52111 -2.04973 0 0 0
521 1 19.6501 1.26055 -2.04973 0 0 0
522 1 19.6501 3.78166 -2.04973 0 0 0
523 1 20.3779 2.52111 -1.46015 0 0 0
524 1 5.09303 1.23657 12.5281 0.00267465 0.00136498 0.00817744
525 1 20.3278 2.53599 0.0535253 -0.00168976 0.0111638 0.00507495
526 1 13.1001 5.04222 -3.38328 0 0 0
527 1 15.2834 3.78166 -3.38328 0 0 0
528 1 15.2834 6.30277 -3.38328 0 0 0
529 1 13.1001 5.04222 -2.04973 0 0 0
530 1 15.2834 3.78166 -2.04973 0 0 0
531 1 15.2834 6.30277 -2.04973 0 0 0
532 1 17.4668 5.04222 -3.38328 0 0 0
533 1 16.0112 5.04222 -1.46015 0 0 0
534 1 18.1945 3.78166 -1.46015 0 0 0
535 1 18.1945 6.30277 -1.46015 0 0 0
536 1 17.4668 5.04222 -2.04973 0 0 0
537 1 16.0596 5.04105 0.0378563 0.000506838 0.00638938 -0.00119683
538 1 18.1927 3.79037 0.106562 0.00835419 -0.00328949 -0.000470431
539 1 18.2716 6.30464 0.0565232 -0.0136746 0.000398776 0.00750338
540 1 20.3779 5.04222 -1.46015 0 0 0
541 1 18.9355 5.0502 0.599019 -0.000845451 0.00028643 -0.0076873
542 1 21.1203 3.80454 0.582304 -0.00309921 0.00288533 -0.00911487
543 1 21.1229 6.2764 0.577875 0.000764688 -0.00706891 0.00910496
544 1 20.3873 5.02583 0.0891804 -0.00401007 0.00381294 0.00382656
545 1 18.8846 5.05908 2.18971 -0.00192322 -0.00254732 0.00469955
546 1 21.1034 3.80879 2.12136 0.000210321 -0.00301865 0.00406215
547 1 21.0832 6.35374 2.11683 -0.0130539 -0.00521726 0.000961233
548 1 2.91292 2.4949 12.4683 9.22177e-05 -0.000966535 0.00288407
549 1 8.73338 7.56333 -3.38328 0 0 0
550 1 10.9167 6.30277 -3.38328 0 0 0
551 1 10.9167 8.82388 -3.38328 0 0 0
552 1 8.73338 7.56333 -2.04973 0 0 0
553 1 10.9167 6.30277 -2.04973 0 0 0
554 1 10.9167 8.82388 -2.04973 0 0 0
555 1 13.1001 7.56333 -3.38328 0 0 0
556 1 11.6445 7.56333 -1.46015 0 0 0
557 1 13.8278 6.30277 -1.46015 0 0 0
558 1 13.8278 8.82388 -1.46015 0 0 0
559 1 13.1001 7.56333 -2.04973 0 0 0
560 1 11.5708 7.5475 0.0436179 -0.00542619 -0.000296677 0.00331992
561 1 13.8879 6.28888 0.0379504 -0.000225599 0.000728193 -0.000350737
562 1 13.7672 8.84801 0.0340709 -0.00622281 0.00762899 0.000714555
563 1 16.0112 7.56333 -1.46015 0 0 0
564 1 14.5323 7.56093 0.608994 0.00675325 -0.00810079 0.0141275
565 1 16.7594 6.23831 0.541653 -0.00103949 0.0127921 0.00184848
566 1 16.7315 8.79982 0.586455 -0.00705347 -0.000114239 -0.00364094
567 1 16.0184 7.5608 0.0552395 0.00761021 -0.00163324 -0.0025411
568 1 14.5611 7.49434 2.14764 0.00155395 0.0055861 -0.00488853
569 1 16.769 6.30085 2.15993 0.000914514 0.000228827 -0.00280669
570 1 16.6728 8.84967 2.11487 0.000796639 0.00768295 -0.00860417
571 1 18.9852 7.54785 0.594639 0.00643217 0.0044727 -0.00356292
572 1 17.4812 7.56345 2.6337 -0.00818433 -0.00811915 -0.00602837
573 1 19.6492 6.34813 2.70415 0.00358503 0.000612726 -0.00176878
574 1 19.6706 8.84381 2.72508 -0.00294816 -0.0140277 -0.00274466
575 1 18.9566 7.59575 2.185 -0.00769053 0.0128904 -0.000408831
576 1 17.4786 7.62001 4.29689 0.0113152 0.00547899 0.00250774
577 1 19.686 6.36383 4.24386 0.000335927 0.00302645 0.00281304
578 1 19.6795 8.88401 4.22551 0.000723695 0.00261648 0.000483132
579 1 20.4704 7.63898 4.79056 -0.0120721 0.00939387 0.00224242
580 1 4.37453 2.55668 10.4624 0.00259763 -7.68834e-05 0.00218128
581 1 20.4454 7.56586 6.3094 -0.00682925 -0.00236921 -0.00392645
582 1 4.36669 10.0844 -3.38328 0 0 0
583 1 6.55003 8.82388 -3.38328 0 0 0
584 1 6.55003 11.345 -3.38328 0 0 0
585 1 4.36669 10.0844 -2.04973 0 0 0
586 1 6.55003 8.82388 -2.04973 0 0 0
587 1 6.55003 11.345 -2.04973 0 0 0
588 1 8.73338 10.0844 -3.38328 0 0 0
589 1 7.27782 10.0844 -1.46015 0 0 0
590 1 9.46116 8.82388 -1.46015 0 0 0
591 1 9.46116 11.345 -1.46015 0 0 0
592 1 8.73338 10.0844 -2.04973 0 0 0
593 1 7.24675 10.0646 0.0895913 0.000851893 -0.00458429 0.00131969
594 1 9.43127 8.85559 0.124556 -0.000944191 0.000431711 -0.00707582
595 1 9.41307 11.3069 0.053868 0.00429926 0.0047241 0.00267764
596 1 11.6445 10.0844 -1.46015 0 0 0
597 1 10.1874 10.0622 0.626418 0.000623143 0.00204045 -0.00165511
598 1 12.3109 8.83154 0.567191 -0.00193192 0.000457917 -0.00416175
599 1 12.3856 11.3754 0.592275 -0.00450526 0.0119341 -0.00131948
600 1 11.6575 10.0864 0.0605554 -0.000819221 0.00682268 -0.000120419
601 1 10.1655 10.0737 2.17617 -0.00013915 -0.00171988 0.00274455
602 1 12.3635 8.80448 2.16492 -0.00466924 -0.0060168 -0.00157495
603 1 12.3338 11.3706 2.15811 0.00883218 -0.00861912 0.000658937
604 1 14.5145 10.0473 0.600803 0.00415894 -0.00392035 -0.00473338
605 1 13.0513 10.0849 2.63445 -0.000611814 0.00782004 -0.0029171
606 1 15.2178 8.83402 2.66171 -0.00032063 0.000953772 -0.00746701
607 1 15.2714 11.3355 2.61081 0.00101395 0.00744769 6.73429e-05
608 1 14.543 10.105 2.13529 -0.00165148 -0.00491852 0.00064101
609 1 13.048 10.0269 4.16914 0.00321512 -0.00328701 0.00561299
610 1 15.2977 8.79341 4.20099 -0.00636259 -0.00555502 -0.00312848
611 1 15.2486 11.3491 4.22905 0.000316919 -0.00629073 0.00380667
612 1 17.4446 10.0607 2.71868 0.00311351 -0.00898034 0.00506114
613 1 15.9415 10.0854 4.72325 -0.00382249 -0.00340774 0.002243
614 1 18.2061 8.86857 4.7719 0.00458692 -0.00696889 -0.0121609
615 1 18.1086 11.3145 4.76991 -0.00319381 0.00218403 0.00381177
616 1 17.4385 10.0825 4.25999 0.00259511 -0.00796889 0.00530984
617 1 15.9655 10.128 6.25917 -0.00422763 -0.000255233 -0.00784305
618 1 18.1759 8.8854 6.33939 -0.00426404 -0.00330777 0.00314527
619 1 18.1708 11.3431 6.34595 -0.00058408 -0.00805766 -0.00772723
620 1 20.3866 10.1363 4.7576 -0.00356938 0.0008967 -0.0015567
621 1 18.9221 10.1436 6.84729 -0.00197876 0.00099211 -0.00221894
622 1 21.1134 8.8618 6.80241 0.00196433 -0.00047491 -0.00460699
623 1 21.0992 11.374 6.84184 7.11333e-05 0.0110162 0.00570562
624 1 20.3734 10.118 6.29371 0.00271679 0.000732702 -0.00285099
625 1 18.935 10.0776 8.39968 0.0024031 -0.000685476 0.00674537
626 1 21.0983 8.87946 8.37782 -0.00040375 -0.00470259 0.00985955
627 1 21.0921 11.3839 8.33147 -0.000211114 0.00421634 0.00542857
628 1 5.09043 3.82807 10.993 0.00611369 -0.005687 -0.00220266
629 1 5.09197 1.27143 10.9341 0.00212798 0.00515317 0.00163569
630 1 2.82279e-08 12.6055 -3.38328 0 0 0
631 1 2.18334 11.345 -3.38328 0 0 0
632 1 2.18334 13.8661 -3.38328 0 0 0
633 1 1.89488e-07 12.6055 -2.04973 0 0 0
634 1 2.18334 11.345 -2.04973 0 0 0
635 1 2.18334 13.8661 -2.04973 0 0 0
636 1 4.36669 12.6055 -3.38328 0 0 0
637 1 2.91113 12.6055 -1.46015 0 0 0
638 1 5.09447 11.345 -1.46015 0 0 0
639 1 5.09447 13.8661 -1.46015 0 0 0
640 1 4.36669 12.6055 -2.04973 0 0 0
641 1 2.94052 12.6301 0.0836862 -0.0112973 -0.000913097 -0.00833862
642 1 5.09018 11.3055 0.0608948 -0.000745708 0.00719323 0.0011471
643 1 5.07042 13.8374 0.0735871 0.000632349 0.00211465 -0.00287086
644 1 7.27782 12.6055 -1.46015 0 0 0
645 1 5.79242 12.5558 0.585833 -0.00502133 0.00280325 -0.00824489
646 1 7.99557 11.2731 0.570726 -0.00337161 0.0104893 -0.0067971
647 1 7.99969 13.8186 0.638512 -0.0043853 0.00371147 0.00976411
648 1 7.32141 12.6196 0.0958271 -0.00219307 0.00846338 -0.00214681
649 1 5.81037 12.5936 2.11777 0.0122055 -0.0101344 0.00434183
650 1 8.0106 11.3307 2.18238 0.00285112 0.000738781 0.00562295
651 1 7.98765 13.9105 2.12374 0.00409512 -0.00287667 0.0101397
652 1 10.1855 12.5537 0.566716 0.00809724 0.00538362 0.00148436
653 1 8.68018 12.6057 2.63576 0.00263907 0.000936242 0.00777697
654 1 10.8334 11.3213 2.65764 0.000222431 0.00186241 -0.00767279
655 1 10.862 13.8412 2.63484 0.00554684 -0.0088657 0.00283324
656 1 10.1438 12.5829 2.14382 -0.0056928 0.000649434 0.00326272
657 1 8.73508 12.5698 4.18435 0.00352545 -0.00543079 0.0036413
658 1 10.9213 11.3199 4.1871 -0.00209623 0.00137386 -0.00360883
659 1 10.8934 13.845 4.19828 0.00522518 0.00794077 0.00564405
660 1 13.1021 12.5709 2.66835 -0.00526131 7.80058e-05 -0.00726854
661 1 11.6312 12.6144 4.72216 -0.00297065 0.0066263 0.00622404
662 1 13.7977 11.3112 4.69096 0.00658613 -0.00739957 -0.00380936
663 1 13.8196 13.8984 4.75386 -0.00145817 -0.000317962 0.00151546
664 1 13.1193 12.5841 4.1923 -0.00402762 0.000214856 -0.00593742
665 1 11.6404 12.5354 6.26794 0.000739106 0.00953337 -0.000992763
666 1 13.7985 11.3148 6.28494 0.0116104 -0.005985 0.00802055
667 1 13.7787 13.8529 6.29041 -0.000829745 0.00306103 0.00227972
668 1 15.9948 12.5852 4.7715 0.00736427 0.00100678 -0.00854641
669 1 14.528 12.5843 6.78111 -0.00455149 0.00159029 -0.00813602
670 1 16.6643 11.3439 6.85109 0.00211052 -0.0118023 0.00310567
671 1 16.7137 13.8458 6.83194 -0.00378711 -0.00300733 0.000267671
672 1 16.0234 12.5936 6.28293 -0.00581357 0.00309121 -0.00375783
673 1 14.5481 12.5949 8.31944 -0.0129563 -0.00447036 0.00675841
674 1 16.6911 11.328 8.3862 -0.00280574 -0.00300584 0.000576022
675 1 16.7278 13.8527 8.341 -0.000808634 -0.000307506 -0.00418182
676 1 18.8706 12.5712 6.87723 0.000302642 -0.00578801 0.00103392
677 1 17.4164 12.5996 8.88715 0.00111425 0.00393039 0.00164249
678 1 19.6219 11.3594 8.90453 -0.00019321 0.00284495 -0.00195538
679 1 19.636 13.8927 8.95252 0.00314514 -0.00524963 0.000740163
680 1 18.8981 12.6094 8.4275 0.00187135 0.00229679 -0.00424656
681 1 17.4923 12.6869 10.4526 0.00572255 0.00362955 -0.00715058
682 1 19.6393 11.3848 10.3951 0.00448611 -0.00131711 0.000906469
683 1 19.6208 13.8891 10.4427 0.000669235 -0.0032285 -0.00429186
684 1 2.91982 2.5038 10.9547 -0.00373519 -0.00600913 0.00242234
685 1 20.344 12.6617 10.9464 -0.00275603 -0.0157738 -0.00602101
686 1 4.38767 2.51205 8.95336 0.00612072 0.00440402 0.0096407
687 1 20.375 12.6447 12.5071 -0.00798549 -0.00221438 -0.00378882
688 1 2.81216e-08 15.1267 -3.38328 0 0 0
689 1 0.727781 13.8661 -1.46015 0 0 0
690 1 0.727781 16.3872 -1.46015 0 0 0
691 1 1.89602e-07 15.1267 -2.04973 0 0 0
692 1 0.778003 13.8499 0.106631 0.000875369 -0.000769316 0.00251819
693 1 0.728855 16.3648 0.0645334 0.00369396 0.000600653 0.000767373
694 1 2.91113 15.1267 -1.46015 0 0 0
695 1 1.47335 15.0911 0.659617 0.00261368 1.23241e-05 -0.0038784
696 1 3.66031 13.8151 0.603747 0.00155004 -0.0115806 0.00358624
697 1 3.65085 16.4104 0.606654 -0.00172012 -0.00782325 0.000557163
698 1 2.98215 15.1023 0.0841245 -0.00555108 0.000572792 -0.00138961
699 1 1.45078 15.0935 2.1572 -0.00203596 -0.00312906 -0.00170385
700 1 3.64251 13.8178 2.09759 0.00129117 0.000161693 -0.000612985
701 1 3.65413 16.4295 2.09106 -0.0025741 -0.000171495 -0.00229518
702 1 5.8149 15.1088 0.544245 0.0048341 -0.000915952 0.00154433
703 1 4.34897 15.1429 2.66599 0.00011672 0.00279201 -0.00100977
704 1 6.47174 13.844 2.65789 0.00585616 0.00111272 0.00402132
705 1 6.55269 16.3726 2.64947 0.00799237 -0.00265451 -0.00165279
706 1 5.76901 15.094 2.20105 -0.00661591 -0.00979049 0.00525394
707 1 4.37836 15.0971 4.25264 0.00348109 0.00351367 0.00922205
708 1 6.50926 13.8158 4.19472 0.0029139 0.00927177 -0.00549739
709 1 6.67181 16.3807 4.24599 -0.00315428 0.0069342 -0.000719057
710 1 8.71795 15.17 2.67413 0.00776659 0.00572265 -0.0051018
711 1 7.287 15.022 4.74537 -0.00144412 0.00246934 0.00927913
712 1 9.48553 13.8523 4.73403 -0.0023351 -0.00133909 0.0058224
713 1 9.42865 16.3849 4.69941 -0.00346617 -0.00114195 -0.00142927
714 1 8.73702 15.1117 4.19924 -0.00834294 0.00450584 0.00105163
715 1 7.27674 15.0852 6.29851 0.00113638 0.00224392 0.000967616
716 1 9.46787 13.8235 6.30511 0.00161558 0.0015934 -0.00298632
717 1 9.45395 16.317 6.254 0.00184024 -0.00304906 -0.000814681
718 1 11.6116 15.112 4.75244 0.000587729 0.00856305 -0.000839495
719 1 10.1363 15.0792 6.78253 0.00341884 0.00658394 -0.00393624
720 1 12.3515 13.849 6.80315 -0.00228748 -0.00414734 -0.0065105
721 1 12.3359 16.3649 6.76349 -0.00652175 0.000153329 -0.000781562
722 1 11.6156 15.0734 6.30431 0.00503449 0.00216471 -0.00364212
723 1 10.1741 15.1441 8.37148 0.00228955 -0.00164427 0.0028511
724 1 12.3093 13.8678 8.37495 -0.00307884 -0.0015123 0.0092494
725 1 12.3609 16.387 8.33869 0.000994991 0.00387524 -0.00183082
726 1 14.4996 15.1465 6.75532 0.00800539 0.00590015 -0.0061516
727 1 13.0296 15.1111 8.86245 -0.00110622 0.00483819 -0.008833
728 1 15.2383 13.8515 8.87295 -0.00131432 -0.000260272 -0.00458186
729 1 15.3067 16.3373 8.81757 -0.0106524 -0.000275282 0.00336262
730 1 14.5409 15.1046 8.34463 -0.00572226 -0.00588746 -0.00146383
731 1 13.0853 15.1606 10.3963 -0.00252829 0.00295229 0.00429698
732 1 15.2532 13.9182 10.4173 0.000906541 0.00678861 -0.0033734
733 1 15.2857 16.3839 10.4247 -0.00470889 -0.00346352 -0.00673728
734 1 17.4615 15.1192 8.87887 0.0051673 0.000106394 0.00206118
735 1 16.0443 15.1801 10.928 0.00117111 0.00111789 -0.00504824
736 1 18.2088 13.9381 11.0158 -0.000672016 -0.000855369 0.00959959
737 1 18.162 16.4281 10.9837 -0.00547399 -0.00585451 -0.00261713
738 1 17.4992 15.1436 10.4694 -0.00716099 -0.00234004 0.00619273
739 1 15.9946 15.1203 12.4422 -0.00313972 -0.00144441 0.000672858
740 1 18.1896 13.9023 12.5237 0.00774498 0.00719912 -0.00752836
741 1 18.2052 16.4425 12.5253 -0.000110135 -0.00391476 0.000523087
742 1 20.4121 15.1456 10.9499 -0.00925058 0.00125699 0.00574921
743 1 18.9653 15.15 13.0004 0.0017448 -0.0077902 -0.000833914
744 1 21.1157 13.8189 13.054 -0.00540572 -0.00441361 -0.00199031
745 1 21.0875 16.379 13.0277 -0.00303687 0.00398406 -0.00261468
746 1 20.4034 15.0989 12.5072 -0.00175562 0.00708505 0.000221438
747 1 18.9375 15.1058 14.4924 0.000814898 0.00398015 -0.00325007
748 1 21.1247 13.8838 14.6407 -0.000324843 -0.00827765 -0.00467091
749 1 21.0974 16.3301 14.5821 0.00456734 0.00788434 0.00217983
750 1 2.20667 3.71132 10.4327 -0.00431479 -0.00075888 0.0069632
751 1 2.16733 1.25546 10.4207 0.00130897 -0.011409 0.00243336
752 1 1.46235 17.6145 0.559313 -0.00718648 0.00356247 0.00829731
753 1 21.7901 17.6425 2.64146 -0.00703269 0.00239638 -0.00585297
754 1 2.21144 16.4129 2.66798 0.00254546 0.00445336 -0.00321129
755 1 2.16294 18.9012 2.6205 0.00243308 0.00638859 -0.00522048
756 1 1.38948 17.6519 2.12104 0.00813213 0.00136128 0.003322
757 1 0.0289377 17.598 4.24787 -0.000951583 -0.00135864 -0.00532098
758 1 2.22699 16.3501 4.21297 -0.00651555 0.00715205 0.000858598
759 1 2.17478 18.8838 4.16847 -0.00398455 -0.00644361 0.00422321
760 1 4.38968 17.6835 2.60842 0.0100531 -0.00327585 -0.00317631
761 1 2.94183 17.6688 4.7037 -0.00677373 -0.0160273 0.000948965
762 1 5.12704 16.348 4.76878 -0.00963931 0.00218271 -9.32006e-05
763 1 5.12381 18.8539 4.67606 0.00675462 0.00532495 -0.00241846
764 1 4.38559 17.6504 4.1615 -0.00272774 -0.00205122 0.00362039
765 1 2.91275 17.6221 6.26894 -0.000913808 -0.0126326 0.00739102
766 1 5.10465 16.3447 6.31091 -0.00191326 0.0044021 -0.0011022
767 1 5.15013 18.8913 6.23676 0.00358732 0.00340404 0.00308222
768 1 7.3041 17.6874 4.75747 -0.00574711 0.00646882 0.000103592
769 1 5.80093 17.6107 6.80162 -0.000393378 0.00264997 0.000816745
770 1 7.97983 16.3669 6.75626 0.0106733 0.00253881 0.00146142
771 1 8.00196 18.8996 6.76841 0.000975242 0.00736843 0.000619342
772 1 7.25489 17.6615 6.24893 0.00829929 0.000470096 -0.000418344
773 1 5.89318 17.5987 8.31762 0.00599842 0.00429389 0.00467045
774 1 8.02229 16.3713 8.37488 -0.00820476 -0.00662847 -0.00614574
775 1 7.99189 18.8712 8.37697 -0.000141096 -0.00237173 -0.00257105
776 1 10.1762 17.658 6.7985 -0.000700795 -0.00368972 -0.00271393
777 1 8.74049 17.6311 8.89691 -0.00178904 -0.00639583 0.00340506
778 1 10.9064 16.3963 8.86644 0.00648198 -0.00296568 0.00878342
779 1 10.9659 18.8952 8.89766 0.00443175 -0.00452969 -0.00278834
780 1 10.2077 17.5952 8.36876 -0.00369661 -0.00553661 0.00602034
781 1 8.81038 17.6632 10.4342 -0.00165182 0.000534897 0.000472503
782 1 10.9169 16.3474 10.4457 0.00443331 0.0010936 0.00935638
783 1 10.9877 18.8589 10.3607 0.000739222 -0.00604417 -0.0031454
784 1 13.1615 17.6549 8.78181 -0.00314711 0.00609542 -0.00111865
785 1 11.7186 17.6608 10.9522 -0.00619029 0.0114945 0.00390444
786 1 13.84 16.4002 10.9103 -0.00295233 0.00648299 -0.000361167
787 1 13.8171 18.9182 10.9317 0.00121023 -0.0033155 -0.00738664
788 1 13.1177 17.6444 10.4322 0.000301357 0.000245821 0.00256522
789 1 11.6465 17.6559 12.4536 0.00145171 -0.00657896 -0.00233876
790 1 13.8321 16.3112 12.4806 -0.00408679 0.00267773 -0.000612539
791 1 13.8489 18.8617 12.4891 0.00430213 -0.00505151 -0.00516177
792 1 16.0698 17.6765 10.9187 -0.00212667 -0.00415119 0.00347099
793 1 14.6005 17.5841 12.9928 0.000583177 0.00572373 0.00547122
794 1 16.747 16.3896 13.0386 -0.00502141 0.0102061 -0.00079717
795 1 16.7876 18.9492 13.0962 -0.00110291 0.00579672 -0.000213426
796 1 16.0663 17.6917 12.4431 0.00238685 0.00515212 -0.00248786
797 1 14.6063 17.6673 14.4005 0.00471397 0.00151775 -0.00372641
798 1 16.7481 16.3706 14.5927 0.00314723 -0.00213579 -0.000236299
799 1 16.8025 18.866 14.7049 0.00369306 0.00264083 -0.00317371
800 1 18.9201 17.6885 12.9981 0.00216373 -0.00270717 -0.0118815
801 1 17.555 17.6237 15.1591 0.00479391 0.00087153 0.00644231
802 1 19.6378 16.2943 15.0638 0.00265335 -0.00436288 -0.00575943
803 1 19.6512 18.8149 15.1781 -0.00195181 0.0031669 0.00330193
804 1 18.9778 17.623 14.516 -0.001739 0.00198928 0.00589743
805 1 18.1593 17.6259 16.6579 0.00640751 0.0057813 -0.000850342
806 1 19.0068 16.3691 16.5483 -0.00634435 -0.00421681 0.00614542
807 1 19.0975 18.9174 16.6573 0.000776313 -0.00849415 0.00202496
808 1 8.01026 6.28829 13.1051 -5.36075e-05 -0.000708133 -0.00286926
809 1 0.0233084 2.47075 10.4306 -0.00521528 -0.00371627 0.00127952
810 1 21.8293 20.1907 2.64973 0.000713203 -0.0123476 -0.00632856
811 1 0.730509 18.8882 4.74274 -0.00418567 -0.00637222 -0.00384886
812 1 0.709513 21.4446 4.71906 0.00557531 -0.00973288 -0.000520494
813 1 0.016791 20.164 4.24223 0.0125537 0.0109078 -0.00353912
814 1 0.758935 18.897 6.31379 0.00633601 0.00477454 -0.00322637
815 1 0.724891 21.4263 6.28728 -0.00298241 0.00133768 0.00412102
816 1 2.90049 20.1424 4.67262 -0.00191955 -0.00787463 -0.00228909
817 1 1.47853 20.1654 6.79449 -0.00227655 0.00189254 -0.00103727
818 1 3.68103 18.9306 6.71616 -0.00345391 -0.00955531 0.00398441
819 1 3.60496 21.3992 6.78308 -0.00269747 0.00597324 0.00617201
820 1 2.88928 20.1319 6.24755 -0.000737064 -0.00738269 -0.000815952
821 1 1.48329 20.1042 8.37973 0.00390809 -0.00258074 -0.00324085
822 1 3.69398 18.9275 8.345 0.00657741 0.00235633 -0.00027574
823 1 3.62821 21.4245 8.38926 0.00144639 -0.00228749 0.00778428
824 1 5.84649 20.1523 6.83211 -0.00578215 0.00252023 0.00532402
825 1 4.41714 20.2109 8.89672 -0.00478431 0.00854153 -0.00369524
826 1 6.53098 18.8709 8.88408 -0.0025025 0.0082762 -0.00734166
827 1 6.58874 21.413 8.91388 0.00186706 -0.00137327 0.00493325
828 1 5.84722 20.1674 8.33818 -0.00268976 0.00666858 -0.008177
829 1 4.42403 20.1644 10.4448 0.000861235 0.00763624 0.00583316
830 1 6.5924 18.9471 10.4117 0.00526761 0.00383738 0.00585867
831 1 6.55191 21.4308 10.4602 -0.00310363 -0.00637564 -0.00656686
832 1 8.70934 20.2021 8.84861 -0.00739984 -0.00299807 -0.00609483
833 1 7.27906 20.1649 10.9703 -0.000370576 0.00286804 -0.00240181
834 1 9.50398 18.8839 10.9075 0.00512564 0.0101939 -0.00583096
835 1 9.45604 21.471 10.8956 0.00370096 0.000329454 -0.0015301
836 1 8.75547 20.1589 10.4093 -0.00225126 0.00805662 0.0127471
837 1 7.30766 20.1639 12.5018 -0.00256782 -0.0059755 -0.00642585
838 1 9.4937 18.9238 12.4782 0.00232199 -0.0138013 0.00293162
839 1 9.48235 21.4267 12.4492 0.0122396 0.00487874 -0.0052907
840 1 11.6667 20.1573 10.891 -0.00539195 0.00680144 -0.0066893
841 1 10.2657 20.2063 12.9792 0.00118273 -0.00522029 0.00800086
842 1 12.4156 18.8735 13.0411 0.00470094 -0.000865384 -0.00609668
843 1 12.3664 21.4518 13.0135 -0.00449313 0.00536487 0.00613364
844 1 11.6778 20.148 12.4921 0.00606446 0.00988952 -0.00365039
845 1 10.2565 20.133 14.4588 0.00277831 -0.00390118 -0.00170895
846 1 12.3908 18.8909 14.6338 0.00447208 0.00854179 0.00942009
847 1 12.3659 21.4799 14.5493 -0.00674818 0.00341928 0.00148946
848 1 14.5969 20.1353 12.9769 -0.00245601 -0.00274811 0.00360993
849 1 13.1647 20.1678 15.0948 -0.00308929 0.00355629 -0.00904618
850 1 15.2906 18.953 15.102 4.69803e-05 -0.00481486 0.0058221
851 1 15.2391 21.4586 15.058 0.000800348 0.00456383 0.00323343
852 1 14.5818 20.1918 14.4681 0.00161725 0.00219425 0.00495189
853 1 13.8094 20.1414 16.6508 0.00185678 -0.00785703 -0.00367813
854 1 14.673 18.954 16.4854 -0.00151989 0.00372603 0.00274376
855 1 14.5829 21.4516 16.5431 0.00269299 0.00846256 0.00230487
856 1 17.4665 20.1895 15.1395 0.00152808 -0.00157392 0.0070412
857 1 5.81358 7.57168 12.9814 0.00469978 -0.00884396 -0.00112423
858 1 9.42242 10.1739 16.6662 -0.00124022 -0.00532182 -0.00337032
859 1 7.29746 7.50033 11.0035 -0.00259448 0.00329703 -0.00407417
860 1 18.145 20.1477 16.6713 -0.000828269 -0.00920671 -0.00059388
861 1 5.10914 8.81485 12.5061 0.00141334 -0.00272053 -0.00217687
862 1 1.48887 2.47772 8.39824 0.0084123 0.000828362 0.00924577
863 1 2.20332 3.71121 8.87094 -0.00799631 0.00169515 0.00425528
864 1 2.21409 21.409 8.86372 0.0047171 0.00822269 0.00448864
865 1 2.19512 1.23992 8.88805 -0.00266098 0.00296383 0.00210973
866 1 21.8315 2.4588 8.90419 0.00607333 -0.00503743 -0.00191767
867 1 2.27476 21.437 10.4462 -0.00220455 -9.96004e-05 -0.00424669
868 1 1.44662 2.49943 6.8411 -0.00292979 0.0048962 0.00203835
869 1 5.08551 6.32374 12.5295 -0.00138441 0.000314728 0.0037092
870 1 5.13548 21.4269 10.9714 -0.00794747 -0.0113837 -0.0013218
871 1 18.1829 22.6386 16.5601 0.000381263 -0.000399148 -0.00101937
872 1 8.74368 10.0569 15.1057 -0.00832773 0.00276995 0.00732876
873 1 5.11716 21.4093 12.5256 -0.00537592 0.00639226 -7.5621e-05
874 1 2.9073 7.53749 12.5364 -0.00300698 -0.00838561 0.00163738
875 1 17.455 22.6591 15.1279 0.00740782 0.00276025 3.07119e-05
876 1 8.07103 21.3758 13.0831 -0.00335454 0.0023277 0.00376868
877 1 14.5834 1.24373 16.4935 -0.00786644 -0.00487294 0.00570802
878 1 13.7046 22.632 16.5651 -0.00199017 -0.00526524 -0.00530474
879 1 8.03872 21.4341 14.6498 -0.00234629 0.00811991 0.00773583
880 1 14.5852 22.6647 14.4311 -0.00615052 0.0035116 -0.00851279
881 1 15.2198 1.29324 15.0071 -0.00546488 0.0138014 -0.00351093
882 1 10.8199 21.4346 15.0462 -0.0045085 0.00202001 -0.000644621
883 1 13.0969 22.6871 15.0752 -0.002735 -0.000360267 -0.00502119
884 1 14.6116 22.6548 12.9856 0.00671883 -0.00452438 -0.00417552
885 1 10.2435 21.4519 16.5071 -0.000466307 -0.00474172 -0.000834681
886 1 12.4287 1.25795 14.5945 0.00140341 -0.000884506 0.00300674
887 1 10.1396 22.6581 14.4043 0.0120155 -0.00270085 -0.00722582
888 1 5.89156 11.3366 16.514 0.00345898 0.00178 0.00104926
889 1 11.6694 22.6452 12.4063 -0.00485436 0.00200964 -0.00453355
890 1 12.3885 1.21155 12.9782 0.00244811 -0.00428576 0.00206973
891 1 13.1001 7.14016e-10 -3.38328 0 0 0
892 1 15.2834 1.26055 -3.38328 0 0 0
893 1 13.1001 22.69 -2.04973 0 0 0
894 1 15.2834 1.26055 -2.04973 0 0 0
895 1 17.4668 3.78416e-10 -3.38328 0 0 0
896 1 16.0112 5.05521e-11 -1.46015 0 0 0
897 1 18.1945 1.26055 -1.46015 0 0 0
898 1 17.4668 22.69 -2.04973 0 0 0
899 1 16.0171 22.6635 0.0916435 -0.00390773 -0.00541849 -0.00833889
900 1 18.1803 1.23034 0.0725952 0.0100792 0.00746895 -0.00365759
901 1 20.3779 4.19408e-10 -1.46015 0 0 0
902 1 18.9361 22.6771 0.598873 -0.003257 -0.0069869 -0.00308816
903 1 21.1215 1.29398 0.588864 -0.00954654 0.000656468 -0.00156251
904 1 20.4139 0.0287341 0.119297 -0.00241486 -0.0034344 0.00225275
905 1 18.9365 0.0767487 2.14267 0.00350918 0.000930023 0.00115789
906 1 21.0775 1.33249 2.13298 -0.0015999 -0.00248354 0.00232934
907 1 10.1613 0.0134149 12.9609 -0.00304519 -0.00464801 0.0039139
908 1 8.73338 2.52111 -3.38328 0 0 0
909 1 10.9167 1.26055 -3.38328 0 0 0
910 1 10.9167 3.78166 -3.38328 0 0 0
911 1 8.73338 2.52111 -2.04973 0 0 0
912 1 10.9167 1.26055 -2.04973 0 0 0
913 1 10.9167 3.78166 -2.04973 0 0 0
914 1 13.1001 2.52111 -3.38328 0 0 0
915 1 11.6445 2.52111 -1.46015 0 0 0
916 1 13.8278 1.26055 -1.46015 0 0 0
917 1 13.8278 3.78166 -1.46015 0 0 0
918 1 13.1001 2.52111 -2.04973 0 0 0
919 1 11.6274 2.50632 0.0437021 0.00216636 0.00301664 0.000851626
920 1 13.8464 1.22634 0.0665726 0.00600509 0.00337699 0.00591445
921 1 13.8506 3.75487 0.0826054 -0.00213553 0.000756079 -0.0109172
922 1 16.0112 2.52111 -1.46015 0 0 0
923 1 14.5997 2.4508 0.505968 0.00575853 -0.00134374 0.00973883
924 1 16.7514 1.18891 0.585509 0.00193548 0.00364644 0.00293955
925 1 16.7729 3.77046 0.607517 -0.00381975 0.00247543 -0.00272868
926 1 16.024 2.5081 0.0634693 0.00216256 -0.00252266 0.00450155
927 1 14.5697 2.4589 2.13626 -0.00702956 0.00773282 -0.00119505
928 1 16.7479 1.2978 2.16172 -0.00345563 0.013441 -0.00248643
929 1 16.7542 3.8039 2.18369 -0.00611316 0.00305916 -0.00725757
930 1 18.9318 2.46554 0.613655 -0.00219859 -0.004397 -0.0016639
931 1 17.4792 2.53456 2.66964 -0.00426947 -0.00389087 -0.00757484
932 1 19.6768 1.29491 2.6494 0.00427703 -2.34034e-05 -0.00333814
933 1 19.6413 3.84283 2.62943 0.00317852 0.00383239 0.00417556
934 1 18.9396 2.58258 2.11916 -0.000304169 0.00549968 0.000881793
935 1 17.461 2.51163 4.20565 0.00196499 0.0029486 0.00216745
936 1 19.6775 1.27084 4.2297 0.00375162 -0.0102274 0.00259156
937 1 19.6658 3.76602 4.17252 0.0118529 0.0041604 0.00253808
938 1 11.6524 22.6188 10.9111 -0.0121317 0.00339045 -0.00482349
939 1 20.3928 2.51763 4.76375 0.00656836 -0.00720569 -0.00268001
940 1 9.43552 1.2632 12.4552 0.00869664 -0.00222236 0.00607885
941 1 20.4369 2.54397 6.34034 -0.00592143 0.001762 -0.00479976
942 1 4.36669 5.04222 -3.38328 0 0 0
943 1 6.55003 3.78166 -3.38328 0 0 0
944 1 6.55003 6.30277 -3.38328 0 0 0
945 1 4.36669 5.04222 -2.04973 0 0 0
946 1 6.55003 3.78166 -2.04973 0 0 0
947 1 6.55003 6.30277 -2.04973 0 0 0
948 1 8.73338 5.04222 -3.38328 0 0 0
949 1 7.27782 5.04222 -1.46015 0 0 0
950 1 9.46116 3.78166 -1.46015 0 0 0
951 1 9.46116 6.30277 -1.46015 0 0 0
952 1 8.73338 5.04222 -2.04973 0 0 0
953 1 7.31278 5.01104 0.106622 -0.00717193 -0.00673092 -0.0105071
954 1 9.52898 3.78893 0.0897394 -0.000842742 -0.0048548 -0.00563504
955 1 9.48026 6.31082 0.0817443 0.00421572 -0.00126056 0.000285913
956 1 11.6445 5.04222 -1.46015 0 0 0
957 1 10.2095 5.0539 0.607163 -0.00513962 0.00199256 -0.00421992
958 1 12.3768 3.73451 0.585106 -0.00120522 -0.000260697 0.00475982
959 1 12.3577 6.21928 0.509678 0.00117373 4.67358e-05 0.00466954
960 1 11.6524 4.99856 0.10017 0.0027287 -0.000619932 0.011226
961 1 10.2155 4.9949 2.18229 -0.00179287 -0.00043499 0.000984086
962 1 12.358 3.68963 2.17324 -0.00179359 0.00480606 -0.000244242
963 1 12.3659 6.29642 2.05246 0.00030823 -0.00299107 0.00206614
964 1 14.5604 5.04161 0.586833 0.00926779 -0.005258 0.00305371
965 1 13.088 5.05576 2.68504 3.90792e-05 -0.00155928 0.0020173
966 1 15.2686 3.7576 2.66254 0.00564028 -0.00352851 0.00217715
967 1 15.2924 6.28955 2.64744 -0.00366535 -0.000680622 0.00237383
968 1 14.493 5.05583 2.13987 0.00575156 0.00188023 -0.00603393
969 1 13.1235 4.99864 4.18613 0.00465558 -0.00413086 0.00916537
970 1 15.3148 3.73794 4.20186 -0.00460217 -0.0139202 0.00133998
971 1 15.2142 6.26089 4.22494 -0.00408007 0.000768038 -0.00382817
972 1 17.4653 5.07025 2.68901 0.00544076 -0.00798686 0.00280736
973 1 16.033 5.0174 4.76093 -0.00382232 0.0033016 -0.00996729
974 1 18.247 3.77774 4.72144 0.00450005 0.00615814 -0.00091625
975 1 18.1865 6.3469 4.75283 -0.00102995 0.00468955 -0.00318077
976 1 17.4345 5.06906 4.27503 0.00279036 0.00117127 0.0027359
977 1 16.0639 5.07283 6.29699 0.00685831 0.00223178 -0.00374234
978 1 18.2647 3.77381 6.25785 -0.00190185 -0.00336383 0.00456006
979 1 18.2764 6.30325 6.32688 0.0077948 0.0085049 -0.00410604
980 1 20.3954 5.07837 4.75184 0.00490133 0.00159325 0.00226197
981 1 18.9222 5.0191 6.74879 -0.00126825 -0.00405738 -0.00184746
982 1 21.1786 3.78132 6.83817 -0.00321621 -0.00167446 0.000955067
983 1 21.1057 6.30298 6.76199 0.00139099 0.0103139 -0.000551496
984 1 20.3809 4.99515 6.26557 -0.0115587 -0.0091358 0.00432146
985 1 18.9448 4.99998 8.28952 0.000708351 0.00109613 -0.000317959
986 1 21.1438 3.76103 8.40364 -0.00263562 0.0156732 0.0032308
987 1 21.0511 6.29438 8.41507 0.00540565 -0.00402414 0.00303143
988 1 7.28595 22.6586 12.4816 0.00262577 0.00258984 0.0103809
989 1 8.72988 22.6751 10.3959 -0.00360366 0.00866785 0.00263254
990 1 2.87375e-08 7.56333 -3.38328 0 0 0
991 1 2.18334 6.30277 -3.38328 0 0 0
992 1 2.18334 8.82388 -3.38328 0 0 0
993 1 1.89223e-07 7.56333 -2.04973 0 0 0
994 1 2.18334 6.30277 -2.04973 0 0 0
995 1 2.18334 8.82388 -2.04973 0 0 0
996 1 4.36669 7.56333 -3.38328 0 0 0
997 1 2.91113 7.56333 -1.46015 0 0 0
998 1 5.09447 6.30277 -1.46015 0 0 0
999 1 5.09447 8.82388 -1.46015 0 0 0
1000 1 4.36669 7.56333 -2.04973 0 0 0
1001 1 2.89782 7.57909 0.0652486 -0.00164332 -0.00478615 0.00989842
1002 1 5.18516 6.26244 0.105609 0.00617646 0.00190149 -0.004722
1003 1 5.09686 8.82992 0.084347 0.000144271 0.00915376 -0.00311936
1004 1 7.27782 7.56333 -1.46015 0 0 0
1005 1 5.84286 7.56323 0.601237 0.00143419 -0.00743463 -0.000945529
1006 1 8.0307 6.28727 0.590175 0.0109152 0.0031795 -0.00440052
1007 1 7.9967 8.80986 0.592604 0.00512541 0.0056081 -0.00138688
1008 1 7.31672 7.56493 0.0856712 -0.00334189 0.00215515 -0.0136516
1009 1 5.81994 7.51955 2.15814 0.00319991 -0.00495756 -0.00618676
1010 1 8.02577 6.34684 2.18355 0.0012332 -0.00442108 0.000992826
1011 1 8.04989 8.8443 2.18821 -2.31198e-05 0.00378944 -1.7112e-05
1012 1 10.1662 7.64307 0.587523 -0.00599785 -0.000224247 -0.00484686
1013 1 8.73571 7.58182 2.67922 -0.00226175 -0.00662248 0.00155988
1014 1 10.9125 6.26697 2.6435 -0.0123944 0.00416271 0.00186961
1015 1 10.8474 8.82776 2.68732 -0.00387801 0.00406214 -0.00278256
1016 1 10.1549 7.54213 2.17299 -0.0165017 -0.00402955 0.00168387
1017 1 8.78854 7.58358 4.23252 -0.000891109 0.00337445 0.00531015
1018 1 10.9254 6.27205 4.17517 0.00411162 -0.00694439 -0.000761695
1019 1 10.8991 8.80192 4.22495 0.00598753 -0.000957615 0.00184665
1020 1 13.0968 7.54884 2.6097 0.000460459 0.00357195 -2.67062e-05
1021 1 11.603 7.49858 4.7175 0.0100929 -0.00021956 -0.0220024
1022 1 13.7672 6.2626 4.68573 0.00495408 0.0080712 0.00333257
1023 1 13.8223 8.74578 4.74686 -0.00251458 0.00233441 -0.00520751
1024 1 13.0673 7.51224 4.20033 -0.000178551 -0.00509184 -0.00310911
1025 1 11.6592 7.51878 6.3394 0.00217139 -0.00365228 0.00672683
1026 1 13.8169 6.2363 6.29927 -0.00826394 -0.00132906 -0.00300453
1027 1 13.7649 8.79942 6.27054 -0.00103655 0.00602258 -0.0025606
1028 1 16.0264 7.56134 4.71117 -0.000294277 -0.00466746 -0.0084764
1029 1 14.5398 7.52714 6.79473 -0.00349078 -0.00206771 0.00453777
1030 1 16.7918 6.30471 6.81571 0.00197798 -0.00460071 -0.00810528
1031 1 16.6543 8.83999 6.81202 -0.00370383 -0.00165871 -0.00375017
1032 1 15.9885 7.55274 6.29159 0.00286266 -0.00323278 0.00411436
1033 1 14.5164 7.55532 8.32381 -0.00137386 0.00403669 0.00500384
1034 1 16.7342 6.31499 8.39836 0.00773256 0.00340458 -0.00679657
1035 1 16.6695 8.79399 8.34686 0.00829965 0.000709434 -0.00195289
1036 1 18.9589 7.55362 6.84714 0.00184631 -0.00554732 -0.000553139
1037 1 17.4555 7.53025 8.93087 -0.00966233 0.00261273 -0.00138784
1038 1 19.6147 6.26055 8.86416 0.00436469 -0.00603267 -5.55114e-05
1039 1 19.6475 8.83137 8.93382 -0.00264574 -0.00137786 -0.0006142
1040 1 18.9533 7.58352 8.36085 0.00888191 -0.0125487 0.00949051
1041 1 17.4285 7.54505 10.4821 -0.0012029 -0.00412507 0.000819144
1042 1 19.624 6.2612 10.4428 0.00784507 0.00711782 -0.00560558
1043 1 19.7063 8.83272 10.4802 -0.00204604 0.00358588 -0.00172333
1044 1 9.46896 1.28902 10.9439 0.000359775 -0.0034154 0.00852192
1045 1 20.3649 7.56735 10.9235 5.91887e-05 -0.00281999 0.000449341
1046 1 7.24096 22.6298 10.946 -0.000998543 0.00596312 -0.00356823
1047 1 20.4558 7.5181 12.4943 -0.00765343 -0.00102377 0.0116602
1048 1 2.84561e-08 10.0844 -3.38328 0 0 0
1049 1 0.727781 8.82388 -1.46015 0 0 0
1050 1 0.727781 11.345 -1.46015 0 0 0
1051 1 1.89342e-07 10.0844 -2.04973 0 0 0
1052 1 0.732212 8.84817 0.0425191 0.00629796 0.00871226 -0.00674446
1053 1 0.765858 11.3662 -0.00828375 -0.00824459 -0.00460489 0.00199466
1054 1 2.91113 10.0844 -1.46015 0 0 0
1055 1 1.43531 10.1436 0.610664 -0.00442982 0.00122722 -0.000446269
1056 1 3.61163 8.82321 0.560734 -0.00951382 0.00527276 0.000939284
1057 1 3.64217 11.3464 0.594873 -0.00144305 -0.00511906 -0.00366657
1058 1 2.86753 10.1003 0.0844279 0.0136665 0.00181012 0.00147642
1059 1 1.50944 10.0794 2.21123 0.00761928 0.00628988 0.000367132
1060 1 3.63993 8.8258 2.08464 0.00755393 0.00615361 -0.00419945
1061 1 3.65948 11.3005 2.15713 0.0041396 -0.00307936 0.0128617
1062 1 5.80383 10.0323 0.555681 0.000909351 -0.0126396 0.00683649
1063 1 4.35355 10.0701 2.68203 0.00207614 -0.0020965 -0.0021977
1064 1 6.58172 8.82562 2.64594 -0.00687069 0.00538075 -0.0018785
1065 1 6.52619 11.2967 2.68035 0.00532305 -0.00501753 0.00494231
1066 1 5.83373 10.1004 2.12422 0.00322454 0.00672461 -0.0117202
1067 1 4.37149 10.0718 4.20648 -0.000623556 -0.00673866 0.00514532
1068 1 6.56809 8.85832 4.25153 -0.000801001 -0.00855103 -0.00911182
1069 1 6.48762 11.3495 4.1623 0.0122425 0.00908873 -0.00591892
1070 1 8.75323 10.0768 2.71534 0.00589962 -0.00848022 -0.00645518
1071 1 7.28934 10.1245 4.76648 -0.00851524 0.000278201 0.00711749
1072 1 9.42559 8.8218 4.82313 -0.0017543 0.00761127 0.00516393
1073 1 9.45498 11.3238 4.68288 -0.00789631 0.00134606 -0.00210556
1074 1 8.74879 10.0979 4.24443 -3.60384e-05 -0.0127069 -0.00272326
1075 1 7.2414 10.1005 6.3042 0.00580392 -0.000774553 -0.00284027
1076 1 9.4315 8.84191 6.30656 0.00153599 -0.00395778 0.00306056
1077 1 9.48533 11.346 6.31014 -0.000654897 0.00304702 -0.00328784
1078 1 11.6441 10.0415 4.73074 -0.00394089 0.00232486 -0.00401927
1079 1 10.1695 10.0824 6.85059 -0.00335136 -0.00307987 -0.00700545
1080 1 12.3697 8.7822 6.83512 -0.00285835 -0.00118652 0.00152213
1081 1 12.3852 11.284 6.78598 0.00862225 -0.0012146 -0.00221112
1082 1 11.6166 10.0589 6.33909 0.00849372 0.000562223 -0.000343684
1083 1 10.1697 10.0219 8.39592 -0.0125481 0.00273999 0.00108319
1084 1 12.3209 8.82612 8.3839 -0.00092805 -0.00273206 0.00196333
1085 1 12.4009 11.2786 8.35851 5.18791e-05 0.00631131 0.000574492
1086 1 14.5225 10.1082 6.78811 0.00352673 -0.00367615 0.0054883
1087 1 13.1076 10.0474 8.86539 0.00117486 0.0122421 -0.00395921
1088 1 15.2655 8.76379 8.89991 0.00120453 -0.0059556 -0.00126005
1089 1 15.2487 11.351 8.87466 -0.00389688 -0.00534327 0.000760356
1090 1 14.5589 10.026 8.33618 -0.00591666 -0.00490801 -0.00458949
1091 1 13.1251 10.0842 10.4292 0.002809 -0.00630818 0.00587529
1092 1 15.2443 8.80474 10.4262 -0.00633636 0.00133994 0.00335122
1093 1 15.2215 11.3104 10.4382 -0.0124116 0.00635254 0.00371767
1094 1 17.4455 10.0214 8.85587 -0.0065242 0.00385216 -0.00104626
1095 1 16.0129 10.0584 10.9134 -0.00221057 0.00896116 0.00221924
1096 1 18.1748 8.83525 10.9285 -0.018887 0.00365518 -0.00286333
1097 1 18.1795 11.3972 10.9604 -0.000199307 -0.000472043 0.00253104
1098 1 17.4851 10.0668 10.3964 0.00637512 -0.00333888 -0.0026714
1099 1 16.0304 10.0583 12.4643 -0.00251657 -0.00618958 0.00299071
1100 1 18.2355 8.77565 12.4812 -4.35745e-05 0.000687044 -0.00822932
1101 1 18.1314 11.3754 12.4877 -0.00644932 -0.00134686 0.00134303
1102 1 20.4186 10.1005 10.9481 -0.00367192 -0.0067011 -0.00590526
1103 1 18.8873 10.0583 12.9677 0.00605198 -0.00239859 0.000502278
1104 1 21.1159 8.81342 12.9881 0.00912681 0.00182915 -0.00176059
1105 1 21.0703 11.3712 12.9933 0.00367294 0.0041641 0.00181512
1106 1 20.3803 10.0835 12.4834 0.00288416 0.000819021 -0.0044313
1107 1 18.9663 10.0632 14.4859 0.00401965 -0.000675756 0.000407891
1108 1 21.0455 8.82537 14.6589 -0.00401424 -0.00902393 -0.00482198
1109 1 21.1188 11.3439 14.6053 0.00245355 -0.00947274 -8.96829e-05
1110 1 8.74942 22.6575 8.85058 0.00485471 -0.000851858 -0.00458409
1111 1 1.41588 12.6424 0.605456 0.00163399 0.00317739 0.00338825
1112 1 21.7845 12.6461 2.698 -0.00977475 -0.00212329 -0.00331137
1113 1 2.15414 11.358 2.69591 -0.000274517 -0.00294741 0.000883503
1114 1 2.15655 13.8033 2.671 -0.00498165 -0.00186903 -0.00577933
1115 1 1.379 12.6079 2.17034 -0.00649256 -0.0101592 0.0055933
1116 1 21.8044 12.6955 4.23924 -0.00326048 2.46132e-05 0.00861488
1117 1 2.20748 11.3202 4.2171 -0.00243159 0.00355206 -0.00607893
1118 1 2.21176 13.809 4.16722 -0.00255345 0.00408435 0.00315541
1119 1 4.34106 12.5545 2.63202 0.00216535 0.00307414 -0.00668637
1120 1 2.83651 12.6158 4.75624 -0.000582819 0.00651117 0.00510759
1121 1 5.05571 11.3255 4.71764 0.00630729 0.00248355 -0.00073304
1122 1 5.04983 13.8136 4.72588 -0.00206649 -0.00375091 0.00515937
1123 1 4.32605 12.5765 4.19653 0.00121723 -0.00115566 0.00176626
1124 1 2.86698 12.6242 6.25413 0.0020758 -0.00245047 -0.0127948
1125 1 5.07532 11.3328 6.23381 0.00010027 -0.000682763 0.0027424
1126 1 5.09353 13.8053 6.24295 0.00516824 0.00125462 0.00681267
1127 1 7.3028 12.5849 4.71094 -0.0114062 -0.00181788 0.00917435
1128 1 5.77736 12.5984 6.81792 -0.00164519 0.00189898 -0.00222154
1129 1 8.00786 11.3584 6.80451 0.00213552 0.00564919 -0.00367397
1130 1 8.01834 13.7966 6.82345 -0.00279513 -0.00144206 0.00840079
1131 1 7.30617 12.6154 6.29919 -0.00504986 -0.00611115 0.00296675
1132 1 5.77851 12.5635 8.33083 0.00638354 0.0038642 -0.0015106
1133 1 8.0073 11.3569 8.3793 0.00435672 -0.00223997 0.00400764
1134 1 8.06421 13.8716 8.39069 0.000465063 0.0069368 0.00157238
1135 1 10.2591 12.5567 6.79578 0.00279979 -0.00199846 0.00608127
1136 1 8.73286 12.6017 8.89099 0.00466598 0.00137067 0.00268355
1137 1 10.8767 11.3191 8.90101 -0.00316005 -0.00393011 -0.000126747
1138 1 10.9089 13.8162 8.92448 0.00517733 0.00403241 -0.00298343
1139 1 10.2358 12.5884 8.38356 0.00107347 -0.00175969 0.00528255
1140 1 8.79778 12.6032 10.4304 -0.00723018 -0.00360325 -0.00231931
1141 1 10.944 11.3869 10.4394 -0.000143206 0.002366 -0.00467981
1142 1 10.9467 13.7857 10.43 -0.000214375 0.00556277 0.001316
1143 1 13.0759 12.6205 8.83962 0.0115918 -0.000146071 0.000316723
1144 1 11.6646 12.6178 10.9953 0.00220152 -0.00276087 0.00112786
1145 1 13.8059 11.3259 10.9289 0.00411084 0.00754085 -0.000212672
1146 1 13.784 13.9062 10.9526 -0.004898 -0.00155345 0.00163131
1147 1 13.1068 12.6096 10.3773 -0.000125982 -0.0020571 0.000549666
1148 1 11.6694 12.603 12.5822 -0.00463686 0.00521382 0.00538852
1149 1 13.8028 11.358 12.4622 0.00469557 0.000210143 0.00450187
1150 1 13.8398 13.8428 12.4228 -0.0029811 0.00082669 0.00497303
1151 1 16.0026 12.6415 10.9351 0.00666619 -0.000505071 0.00761594
1152 1 14.5538 12.6389 12.9616 -0.00897991 0.0020046 0.00332198
1153 1 16.685 11.2941 13.002 -0.00378146 0.000897102 0.00686392
1154 1 16.6854 13.8525 13.0152 0.00302298 0.000503625 0.00548863
1155 1 16.0417 12.6249 12.4902 -0.00723409 -0.000256459 0.00112551
1156 1 14.491 12.6165 14.458 0.00487606 -0.0101097 -0.00223018
1157 1 16.7269 11.2778 14.6236 0.000787465 -0.00370743 0.00358832
1158 1 16.6762 13.8079 14.6645 -0.00866613 -0.00604616 0.00503226
1159 1 18.8629 12.6198 13.0005 -0.00233277 -0.00281942 0.000661822
1160 1 17.4411 12.5792 15.1365 0.00907986 -0.00453945 0.000483061
1161 1 19.5496 11.2674 15.1272 0.00199358 0.00501561 2.83125e-05
1162 1 19.5855 13.8552 15.0804 0.00464429 0.00033209 0.0041404
1163 1 18.8828 12.5712 14.4911 0.00139034 -0.00443467 0.00638189
1164 1 18.1327 12.6907 16.6062 0.00564482 0.00399242 0.00426655
1165 1 18.874 11.3573 16.5683 -0.0003038 -0.00286225 -0.000358178
1166 1 18.9969 13.9043 16.5073 -0.00517404 0.00179896 0.000508988
1167 1 4.40603 7.52618 10.3715 0.00392329 0.00491456 0.000297241
1168 1 6.57927 1.27264 10.4037 0.00588306 0.00303222 0.00592036
1169 1 21.8031 15.1379 2.65083 -0.00562881 -0.00362386 -0.00528831
1170 1 0.722015 13.8576 4.70957 -0.00249548 0.00197517 -0.00685975
1171 1 0.759425 16.3904 4.76223 0.00839991 0.00282753 -0.00248806
1172 1 21.787 15.1592 4.12936 -0.00596263 -0.00176785 0.0122857
1173 1 0.712301 13.9348 6.28356 0.00361326 -0.00606106 0.00320674
1174 1 0.714136 16.3667 6.3214 0.0107447 0.00144786 -0.00261817
1175 1 2.94196 15.0822 4.70435 -0.00625647 0.00481499 -0.00672211
1176 1 1.46973 15.1259 6.75776 -0.00277065 0.00510976 -0.000320033
1177 1 3.65217 13.8607 6.79546 -0.00947125 0.00581598 0.000445119
1178 1 3.67427 16.4058 6.76242 -0.00203214 0.00200898 0.00025629
1179 1 2.92741 15.1225 6.30213 0.00217993 -0.00525667 -0.000918938
1180 1 1.47741 15.1527 8.34524 -0.00108354 0.00272023 -0.00573494
1181 1 3.65263 13.9053 8.34871 -0.00218454 0.0024451 -0.00189629
1182 1 3.67789 16.4436 8.32817 -0.00157797 0.00243837 0.000925186
1183 1 5.85133 15.1351 6.82113 0.00860201 0.00202447 0.0025749
1184 1 4.44662 15.1552 8.87819 0.00276617 -0.00080358 -0.00681073
1185 1 6.51744 13.8558 8.89317 0.00328533 -0.0091108 0.00624655
1186 1 6.57805 16.377 8.9111 0.0109542 0.00733092 0.00522736
1187 1 5.88549 15.1354 8.33663 -0.00669067 0.0104201 0.00375893
1188 1 4.41943 15.111 10.4301 0.00353324 -0.00818361 0.0063399
1189 1 6.61963 13.9235 10.4401 0.00101253 0.00180484 0.00336732
1190 1 6.61147 16.4628 10.4247 -0.00062677 9.01552e-06 0.00480924
1191 1 8.75031 15.1221 8.82393 0.000227113 0.00316822 -0.00156468
1192 1 7.38715 15.1606 10.8741 -0.00208957 -0.00467746 -0.00263204
1193 1 9.47781 13.8752 10.9626 -0.000160505 0.00650114 0.00394527
1194 1 9.49199 16.374 10.9833 0.00452295 6.63009e-05 0.00105641
1195 1 8.78404 15.173 10.4326 -0.00177836 0.00162817 0.00149407
1196 1 7.29093 15.1367 12.4626 0.00382546 -0.00649506 0.00241248
1197 1 9.43372 13.8806 12.5743 0.00700745 0.0102979 0.00162429
1198 1 9.47501 16.4016 12.5272 0.00789551 0.00587309 0.00145592
1199 1 11.6491 15.1646 10.9185 -0.00477544 -0.00236942 6.49957e-05
1200 1 10.2132 15.0908 13.0017 -0.000286512 -0.00691916 -0.00364069
1201 1 12.2927 13.8386 13.1191 0.00288895 0.00164825 0.00485185
1202 1 12.3445 16.3654 13.0238 0.00813026 0.0050515 -0.00267712
1203 1 11.6418 15.0989 12.5154 -0.00523974 0.00955436 0.00630711
1204 1 10.1825 15.1238 14.5211 -0.000577242 0.000702412 0.00236347
1205 1 12.2764 13.875 14.6551 -0.00303431 0.00229167 -0.00223913
1206 1 12.3509 16.3943 14.6763 0.00230709 0.00528113 -0.00553531
1207 1 14.5641 15.059 12.9182 0.000977702 -0.00324414 0.00671789
1208 1 13.1028 15.1874 15.1244 -0.00955356 0.00404317 0.00356212
1209 1 15.1846 13.9294 15.0278 -0.00802424 -0.0013478 -0.00265772
1210 1 15.2591 16.3277 15.0243 0.0059828 0.00177283 0.000241807
1211 1 14.5392 15.1366 14.4241 -0.00788766 -0.00525227 0.000736571
1212 1 13.7907 15.141 16.6034 0.00642687 -0.00242858 0.00197832
1213 1 14.5971 13.8315 16.5063 -0.00261619 -0.00124695 -0.00217424
1214 1 14.7382 16.38 16.4918 -0.00205342 -0.0108982 0.00849159
1215 1 17.4417 15.1253 15.113 -0.00775907 0.00136112 -0.00192712
1216 1 5.0814 8.80927 10.9527 -0.00676309 -0.000579348 0.000396632
1217 1 5.86367 8.79313 16.5478 -0.00114109 -0.00366088 0.00267829
1218 1 5.00045 10.0857 16.569 0.00122541 0.00506785 -0.000283857
1219 1 18.1281 15.1123 16.5684 0.000635046 -0.00659694 -0.00167451
1220 1 5.08624 6.33572 10.9508 -0.00408632 0.00278727 0.00192884
1221 1 1.47358 17.6687 6.76266 -0.0023804 -0.00315511 -0.00294394
1222 1 0.127019 17.6479 8.87608 0.00112366 -0.00141034 0.00526676
1223 1 2.24688 16.4097 8.88029 0.00575661 0.00313221 0.000299874
1224 1 2.27254 18.916 8.87718 0.0106123 -0.00125576 0.0067897
1225 1 1.52598 17.6358 8.32408 -0.00792473 -0.0110919 -0.00807985
1226 1 0.0414576 17.6327 10.4285 0.000788316 -0.00247988 -0.0066338
1227 1 2.2013 16.4248 10.4612 -0.00325486 0.00271277 -0.0128198
1228 1 2.24129 18.9084 10.4624 0.00513485 -0.00958023 0.00585502
1229 1 4.4275 17.6717 8.84932 0.00546367 0.00104497 -0.00219364
1230 1 2.96244 17.6675 10.9463 -0.000417136 0.000362709 0.00142172
1231 1 5.21365 16.4031 10.9303 -0.00455425 0.00430495 -0.00294238
1232 1 5.10075 18.925 10.8916 0.00748881 0.000121949 -0.000312774
1233 1 4.42458 17.6535 10.3675 0.000924871 -0.00355791 0.00204626
1234 1 2.95882 17.6612 12.4926 -0.00662362 0.00135458 0.00178043
1235 1 5.15435 16.3823 12.5117 0.00343068 -0.00553829 -0.00270427
1236 1 5.1226 18.8985 12.5037 -0.00115627 0.00253173 0.00156998
1237 1 7.3838 17.6394 10.9797 0.00696473 0.00348881 -0.00207827
1238 1 5.86451 17.6683 12.9765 0.00323484 0.00740381 0.0086486
1239 1 8.00522 16.3981 13.0317 -0.00611331 -0.00274411 0.00208196
1240 1 8.06929 18.8677 13.1125 -0.0072534 0.00275665 -0.0026894
1241 1 7.34602 17.6753 12.4841 0.00457623 0.00519612 0.010745
1242 1 5.81265 17.6284 14.4707 0.00685352 0.00872216 -0.00327933
1243 1 8.0175 16.4046 14.6121 0.00515421 0.00945509 0.00207198
1244 1 8.05025 18.9043 14.6422 0.00490068 0.0132801 -0.00225897
1245 1 10.2091 17.6727 12.9796 -0.00147023 -0.00675064 -0.00440361
1246 1 8.74011 17.5745 15.1472 0.000452754 0.000959805 0.00627349
1247 1 10.8347 16.4033 15.0953 0.00241629 -0.00345897 0.00674135
1248 1 10.8254 18.8633 15.0831 -0.00223529 -0.000908718 0.00614022
1249 1 10.2229 17.6758 14.4437 0.00806097 0.00277759 -0.000406259
1250 1 9.36737 17.6364 16.6808 0.0038811 -0.00682541 -0.000963153
1251 1 10.2431 16.3724 16.601 0.00671956 -0.00377332 0.000906185
1252 1 10.1811 18.9084 16.5646 -0.0116797 -0.00368947 -0.0014338
1253 1 13.1204 17.6846 15.1018 -0.0102722 -0.000581979 0.00140458
1254 1 2.89392 7.48387 10.9463 -0.00864183 -0.00793234 -0.00470574
1255 1 5.79235 10.105 14.5422 -0.00511261 -0.00169742 0.00449588
1256 1 6.50735 11.2985 15.1292 0.00623727 0.0010402 0.000754022
1257 1 13.8567 17.6564 16.5857 0.0107639 0.00598005 0.0146572
1258 1 4.36125 7.60567 8.87859 -0.00113438 0.000244484 0.00375442
1259 1 21.8215 20.1321 8.90848 -0.00564374 -0.0033534 -0.000181119
1260 1 0.774809 18.9336 10.9712 -0.00984239 0.00418439 0.00128117
1261 1 0.806386 21.4166 10.9086 -0.00278745 0.000891083 -0.0103158
1262 1 0.103719 20.144 10.497 -0.00653343 -0.00323464 -0.000497481
1263 1 0.713466 18.8788 12.5564 0.00154553 -0.00557606 -0.00169778
1264 1 0.744108 21.4427 12.479 -0.00294412 -0.0046361 -0.000988668
1265 1 2.95204 20.2156 10.9821 0.0124114 -0.00508939 0.00441742
1266 1 1.48044 20.2097 13.0315 0.00103146 0.00477834 0.00180695
1267 1 3.66262 18.9347 13.0655 -0.0055963 -0.00606405 -0.00557431
1268 1 3.66421 21.4048 13.0524 0.00299584 -0.000259229 -0.00576752
1269 1 2.93148 20.1439 12.5221 -0.0013705 0.00477206 0.000716621
1270 1 1.45076 20.1949 14.4954 -0.00350431 -0.00489313 0.00639456
1271 1 3.75302 18.9625 14.6104 0.00428229 0.00110331 -0.00439888
1272 1 3.5858 21.4819 14.6437 -0.00512894 -0.00124086 0.00124245
1273 1 5.85541 20.1872 13.0039 0.00620515 -0.0077925 -0.000356979
1274 1 4.40449 20.2334 15.1022 0.00615777 0.00408755 -0.00128524
1275 1 6.5281 18.9241 15.036 0.0130151 -0.00242956 -0.000421915
1276 1 6.50438 21.4462 15.0357 0.0069094 -0.000554976 -0.00145844
1277 1 5.8161 20.1528 14.4824 -0.00458012 -0.00820213 0.00466844
1278 1 5.16307 20.2765 16.5825 -0.00760106 0.000972618 0.000678934
1279 1 5.8727 18.9297 16.5088 -0.000364373 0.00679585 0.00353729
1280 1 5.92861 21.5536 16.5373 -8.08825e-05 -0.00194691 0.000314371
1281 1 8.80738 20.1571 15.0791 -0.000982182 0.00846063 -0.000430576
1282 1 2.14914 8.81437 10.4474 -0.000626848 0.00214238 -0.00466183
1283 1 6.48139 8.80234 15.1142 0.00970198 0.00400864 0.00246352
1284 1 4.30728 10.0546 15.0812 0.0116834 -0.00627085 -0.000971855
1285 1 9.37078 20.1806 16.5773 -0.00374742 0.00340188 -0.00327677
1286 1 2.14778 6.23662 10.4227 -0.000618148 0.00389102 -0.0028726
1287 1 4.3784 0.0433465 10.4382 -0.0042878 -0.00458809 0.00997125
1288 1 5.795 22.681 8.37766 -0.00454003 -0.00169643 -0.00316478
1289 1 2.12911 21.4411 15.1037 -0.00509768 -0.00621769 -0.00353895
1290 1 6.56417 1.27717 8.80045 -0.003678 -0.00457043 0.000522715
1291 1 4.38131 22.6832 8.89271 0.00216916 0.00314789 0.00301628
1292 1 1.59166 21.4341 16.6628 0.0106076 -0.00351015 0.00228118
1293 1 5.85955 22.6713 6.80949 -0.00787963 0.00182931 -0.00340067
1294 1 3.69118 1.25635 8.39438 -0.00177977 -0.00154961 -0.00388042
1295 1 5.79234 10.0904 13.0362 -0.00186869 0.0062267 0.00439245
1296 1 1.50092 22.6256 8.35434 0.0060745 -0.00656172 -0.00253173
1297 1 2.86064 22.6749 6.27556 0.0058748 0.000909603 -0.00796819
1298 1 4.36669 9.71783e-10 -3.38328 0 0 0
1299 1 6.55003 1.26055 -3.38328 0 0 0
1300 1 4.36669 22.69 -2.04973 0 0 0
1301 1 6.55003 1.26055 -2.04973 0 0 0
1302 1 8.73338 8.94876e-10 -3.38328 0 0 0
1303 1 7.27782 5.20444e-10 -1.46015 0 0 0
1304 1 9.46116 1.26055 -1.46015 0 0 0
1305 1 8.73338 22.69 -2.04973 0 0 0
1306 1 7.31851 22.6694 0.0822228 0.00388177 0.00728813 -0.00108664
1307 1 9.43804 1.24546 0.109368 -0.00347238 -0.0122978 0.000421205
1308 1 11.6445 3.39308e-10 -1.46015 0 0 0
1309 1 10.1907 0.0148614 0.584936 0.00817533 -0.00165208 -0.000783191
1310 1 12.3632 1.24679 0.545336 -0.0038621 -0.00387899 -0.00453017
1311 1 11.6775 22.6701 0.00143498 0.00269514 0.00568245 -1.44436e-05
1312 1 10.1849 22.6414 2.14062 -0.00195503 -0.0079388 -0.00462602
1313 1 12.351 1.18806 2.12474 -0.00258479 0.00187935 0.000410846
1314 1 14.5132 22.6122 0.57392 -0.00553117 0.00138598 0.00264355
1315 1 13.1177 22.6664 2.65348 -0.000599332 -0.0045283 -0.00431484
1316 1 15.2751 1.2727 2.65502 0.00387557 0.00528069 0.00277943
1317 1 14.5995 22.6444 2.15794 0.00701973 -0.000584407 -0.00390677
1318 1 13.0454 22.6794 4.2254 -0.00317624 0.0044363 0.00211058
1319 1 15.2732 1.24283 4.17182 -0.00901821 -0.00183723 -0.00608887
1320 1 17.5424 0.0355774 2.70065 -0.00608772 -0.0119991 -0.00549462
1321 1 16.0374 0.036204 4.7043 -0.00434901 -0.00332966 -0.00836682
1322 1 18.2544 1.24158 4.74565 0.0076581 0.00334885 -0.00269482
1323 1 17.4961 0.0238823 4.23885 0.00302813 0.00718319 0.00494378
1324 1 15.9487 0.0272851 6.25758 0.00334663 0.00583301 0.00853874
1325 1 18.1512 1.30544 6.2907 0.00204795 -0.00254155 -0.00457889
1326 1 20.3735 22.6599 4.73927 -0.00468299 0.00148449 -0.000174211
1327 1 18.8903 0.00113575 6.83407 0.00567615 0.00467837 0.00300869
1328 1 21.1497 1.26278 6.79962 0.00346123 0.00178126 -0.00573568
1329 1 20.4092 22.6774 6.25609 0.0051989 -0.00241822 -0.00194391
1330 1 18.9094 0.0220885 8.29096 0.00356432 9.66434e-07 -0.00274465
1331 1 21.1148 1.23213 8.3635 -0.00267736 0.00112251 0.00675583
1332 1 3.64976 1.24886 6.79874 -0.00648963 0.0142895 0.00365938
1333 1 1.46147 0.00206274 6.77435 -0.0127213 -0.00336745 0.00814483
1334 1 2.873e-08 2.52111 -3.38328 0 0 0
1335 1 2.18334 1.26055 -3.38328 0 0 0
1336 1 2.18334 3.78166 -3.38328 0 0 0
1337 1 1.89293e-07 2.52111 -2.04973 0 0 0
1338 1 2.18334 1.26055 -2.04973 0 0 0
1339 1 2.18334 3.78166 -2.04973 0 0 0
1340 1 4.36669 2.52111 -3.38328 0 0 0
1341 1 2.91113 2.52111 -1.46015 0 0 0
1342 1 5.09447 1.26055 -1.46015 0 0 0
1343 1 5.09447 3.78166 -1.46015 0 0 0
1344 1 4.36669 2.52111 -2.04973 0 0 0
1345 1 2.90791 2.51537 0.0277342 0.00219427 0.00946087 0.00129613
1346 1 5.10341 1.26268 0.067626 0.000298642 0.00277941 -0.00866164
1347 1 5.0741 3.76233 0.0755623 -0.00166582 -0.000217536 0.00163697
1348 1 7.27782 2.52111 -1.46015 0 0 0
1349 1 5.82736 2.52771 0.580973 -0.00164751 0.00240624 -0.00382309
1350 1 8.04535 1.25685 0.568716 -0.00768242 0.00370382 0.00445327
1351 1 8.01824 3.74874 0.615923 0.000370322 -0.00314552 -0.00246168
1352 1 7.28524 2.55025 0.0267261 0.00312278 -0.0062994 -0.00169116
1353 1 5.81175 2.50956 2.17803 0.00308496 -0.0129316 -0.00142158
1354 1 7.99342 1.26254 2.17709 -0.0014798 -0.00579222 -0.00245626
1355 1 8.03519 3.716 2.14084 -0.00293946 0.00558459 0.00608371
1356 1 10.1957 2.47003 0.573122 -0.00855756 -0.0032589 0.00585615
1357 1 8.7583 2.47494 2.70604 0.00362864 0.00553493 -0.0190464
1358 1 10.9032 1.2174 2.65868 -0.000557521 -0.001024 0.000968435
1359 1 10.9309 3.72196 2.65276 -0.00149004 -0.000920621 0.000714296
1360 1 10.2055 2.44832 2.1778 0.00444152 0.0047 0.00300983
1361 1 8.68334 2.49779 4.24792 0.000336768 -0.00603993 0.00120469
1362 1 10.8986 1.24635 4.20183 0.0023999 0.00375208 -0.00646557
1363 1 10.8698 3.77534 4.21971 -0.0139204 -0.00570927 0.000349026
1364 1 13.0816 2.48805 2.64899 0.000624458 -0.004003 -0.00681311
1365 1 11.6209 2.49615 4.72261 -0.0012846 -6.08511e-05 0.00881994
1366 1 13.8316 1.25474 4.67468 0.00341784 0.0011381 0.00557586
1367 1 13.8771 3.75359 4.71602 0.00641488 0.00214121 0.000898507
1368 1 13.074 2.49019 4.23354 -0.00103053 -0.00376847 0.00243943
1369 1 11.6229 2.47109 6.30335 -0.00462944 0.000419541 0.00272685
1370 1 13.8508 1.27163 6.23535 0.00515382 0.00629926 0.00507557
1371 1 13.8112 3.74709 6.27776 -0.000640511 0.00274834 -0.00697851
1372 1 16.0552 2.48009 4.67183 0.0032883 0.0104033 -0.0106334
1373 1 14.5321 2.51229 6.79127 0.00350457 -0.0050135 0.00427275
1374 1 16.6726 1.27058 6.77846 0.00184329 -0.00224884 0.00122061
1375 1 16.7584 3.80578 6.8079 -0.00134563 0.00499005 -0.00160619
1376 1 15.997 2.5455 6.25993 0.00909006 0.000354862 0.00566407
1377 1 14.5615 2.47438 8.40357 -0.00618716 -0.00222513 0.00222753
1378 1 16.7241 1.25375 8.3149 -0.000837595 0.00148102 -0.00970094
1379 1 16.758 3.77404 8.35306 5.00795e-05 0.000545032 -0.00383232
1380 1 18.9376 2.53347 6.8268 -0.0103176 0.00309942 0.00539564
1381 1 17.4576 2.52589 8.82294 -0.00135984 0.00740038 -0.00467641
1382 1 19.6454 1.26733 8.86701 0.00551026 0.00142468 0.00318432
1383 1 19.6528 3.72178 8.87605 -0.0124403 -0.00237656 -0.00103226
1384 1 18.9273 2.49547 8.34629 -0.000276221 0.00146856 -0.00375847
1385 1 17.4772 2.47338 10.4562 0.000239572 0.0103506 -0.00579186
1386 1 19.6193 1.21351 10.4952 -0.00159081 0.00271697 -0.00484735
1387 1 19.6273 3.80023 10.4031 -0.00566378 -0.00471379 -0.00416387
1388 1 2.9116 22.6751 4.75371 0.00330981 -0.00874436 0.00148017
1389 1 20.382 2.45122 10.898 0.00760948 0.00869861 0.00700637
1390 1 0.756211 1.27181 6.28342 0.00210595 -0.0028985 -0.00705604
1391 1 20.3416 2.51696 12.5346 0.001164 -0.00694712 0.00364744
1392 1 2.88679e-08 5.04222 -3.38328 0 0 0
1393 1 0.727781 3.78166 -1.46015 0 0 0
1394 1 0.727781 6.30277 -1.46015 0 0 0
1395 1 1.89199e-07 5.04222 -2.04973 0 0 0
1396 1 0.711875 3.7623 0.0678762 -0.00092375 0.00346433 -0.000171562
1397 1 0.742468 6.327 0.0101107 0.000493999 0.0015929 -0.00310997
1398 1 2.91113 5.04222 -1.46015 0 0 0
1399 1 1.52837 5.06418 0.579716 -0.00452121 -0.00360388 0.00131584
1400 1 3.68084 3.71744 0.575618 0.00469541 0.000255439 0.00552784
1401 1 3.66514 6.29617 0.565007 0.00843427 6.74567e-05 -0.00728897
1402 1 2.95186 5.07546 0.0518102 0.00318501 -0.00193414 -0.00908887
1403 1 1.4455 5.06566 2.15384 0.00359242 0.00889587 0.00377656
1404 1 3.6412 3.75978 2.13191 0.0103407 0.00357572 -0.00274604
1405 1 3.66329 6.23452 2.11696 -0.000903158 0.00477968 -0.00606081
1406 1 5.88306 5.00895 0.610219 -0.00742111 -0.00895175 -0.00158422
1407 1 4.34271 4.96496 2.66806 0.0086264 0.00508389 0.00843664
1408 1 6.54949 3.70618 2.69032 0.00352912 -0.0013007 0.00259205
1409 1 6.54846 6.27929 2.66302 0.00776147 0.00118832 -0.00157502
1410 1 5.84748 4.97875 2.14956 0.00774996 0.00147644 -0.00199942
1411 1 4.33166 5.02487 4.1953 -0.00482003 3.39182e-05 0.00338324
1412 1 6.5228 3.78219 4.17985 0.00190181 0.00196431 -0.0128595
1413 1 6.52934 6.29579 4.17443 -0.00758448 0.00918864 -0.00218147
1414 1 8.71811 5.06728 2.66229 -0.0111943 -0.00415654 0.00452248
1415 1 7.24922 5.09969 4.7521 0.00721478 0.0073543 0.00334066
1416 1 9.39262 3.74019 4.71603 -0.0063642 -0.00466603 -0.00553492
1417 1 9.44919 6.28862 4.7852 0.00556247 0.00576803 0.00448021
1418 1 8.66903 5.04751 4.22742 -0.0039519 0.000779969 0.00270047
1419 1 7.21853 5.11255 6.2725 0.0016379 0.00251139 -0.000598919
1420 1 9.38592 3.7885 6.30212 0.00186343 0.00645962 0.0103643
1421 1 9.47542 6.30038 6.31226 -0.00323738 0.00364236 0.00372381
1422 1 11.6475 4.97218 4.74824 0.00108862 0.00485807 -0.008889
1423 1 10.1915 5.0056 6.78993 0.00133423 0.00963611 0.0101748
1424 1 12.3643 3.76537 6.74534 -0.00778469 -7.2891e-05 0.00073672
1425 1 12.3943 6.32287 6.77532 0.003742 -0.00121548 -0.00276679
1426 1 11.6338 5.01316 6.2178 -0.0032386 0.00687485 -0.00101489
1427 1 10.1132 5.0396 8.34447 -0.000940462 -0.00264145 0.00181262
1428 1 12.3987 3.80213 8.28628 -0.000450941 -0.00522 0.00663853
1429 1 12.3256 6.23425 8.34107 -0.00210178 -0.00615527 -0.0109397
1430 1 14.5846 5.07517 6.76035 0.0053847 -0.0051269 0.00547649
1431 1 13.1138 5.08905 8.83476 -0.0112722 0.00266346 -0.00159868
1432 1 15.2806 3.7485 8.90145 -0.00345314 -0.00804319 -0.00411354
1433 1 15.1782 6.35423 8.83703 -0.00300634 0.000657614 0.0023286
1434 1 14.5284 5.06615 8.32944 0.000125727 0.00162903 0.000391038
1435 1 13.0982 5.04722 10.3771 -0.00591979 0.00236319 -6.22786e-06
1436 1 15.2967 3.81242 10.4696 -0.00867464 -0.00199175 0.00147228
1437 1 15.234 6.3153 10.4301 -0.00325894 0.00399919 0.00179874
1438 1 17.5077 4.95629 8.87059 0.00228022 0.00535255 0.0109188
1439 1 15.9931 5.0389 10.9738 -0.00333771 0.00359519 0.00402278
1440 1 18.1815 3.76928 10.9486 -0.00518268 0.00152542 0.0071623
1441 1 18.1703 6.287 10.9844 -0.00241454 -0.00161078 -0.00864039
1442 1 17.4537 5.04592 10.4419 -0.000378631 -0.00119313 0.00378161
1443 1 16.0345 5.09782 12.5676 -0.0062985 0.0110883 0.00324879
1444 1 18.1695 3.76443 12.485 -0.00295253 0.0038694 -0.01038
1445 1 18.1646 6.29696 12.5237 -0.000493814 0.00367719 0.00222648
1446 1 20.3536 5.01166 10.9341 0.00183847 -0.0025137 -0.00276166
1447 1 18.9032 5.04012 13.0086 -0.00854618 0.00621287 0.00204676
1448 1 21.1103 3.72075 13.0048 -0.000601184 -0.00498848 0.00579698
1449 1 21.1092 6.28359 13.0796 0.00394319 0.00665424 -0.0128681
1450 1 20.4231 5.01122 12.5047 0.00022882 -0.00366477 -0.00426827
1451 1 18.9114 4.96774 14.5033 0.00767657 0.00399484 0.000352013
1452 1 21.1036 3.73148 14.6498 0.00857362 0.000678675 0.0010778
1453 1 21.0402 6.26758 14.6747 -0.00487478 0.00635347 -0.00866349
1454 1 0.0121153 0.0308688 4.22553 0.0010375 0.00291346 -0.000293816
1455 1 1.41033 7.61492 0.573541 -0.000941678 -0.00376547 -0.00459893
1456 1 0.00546398 7.59789 2.64031 -0.00621135 -0.0053769 -0.00559056
1457 1 2.1871 6.32608 2.72976 0.00313402 0.00105799 -0.00258855
1458 1 2.19357 8.8302 2.66698 -0.00764575 0.00170139 0.00548762
1459 1 1.41609 7.5689 2.13522 -0.00158522 0.00223927 -0.0026343
1460 1 0.0740877 7.61233 4.191 0.00184996 -0.00778803 0.00136624
1461 1 2.16854 6.35717 4.27982 -0.0048667 0.00621345 -0.00354192
1462 1 2.22688 8.82019 4.15508 0.00739614 -0.00678207 -0.0118586
1463 1 4.33442 7.55552 2.61022 -0.00028864 0.00141645 -0.00803161
1464 1 2.93531 7.5767 4.78358 -0.0054495 -0.00158971 -0.00594588
1465 1 5.0564 6.2717 4.68957 -0.000280348 -0.0125566 0.00391268
1466 1 5.09084 8.80393 4.7305 -0.00783685 -0.00526115 0.00387109
1467 1 4.36551 7.54436 4.22917 0.00360307 -0.00643156 0.00553137
1468 1 2.90038 7.50459 6.31398 0.000623496 -0.000490892 0.00135579
1469 1 5.04537 6.31841 6.31076 -0.00371581 -0.00566408 0.00713811
1470 1 5.16372 8.81051 6.31024 0.00278029 0.00333976 -0.00258959
1471 1 7.22396 7.57297 4.68146 0.00474494 -0.00411703 0.0033713
1472 1 5.85431 7.55696 6.74874 0.00385106 -0.00897866 -0.00466958
1473 1 8.02266 6.33205 6.78353 -0.00593895 0.00388863 0.0031311
1474 1 7.97752 8.90112 6.83312 -0.00152218 0.0155797 -0.0046581
1475 1 7.28652 7.60657 6.30065 0.0144368 0.00448169 -0.0059252
1476 1 5.83613 7.53751 8.32332 -0.00238338 -0.000443748 -0.00118233
1477 1 8.03905 6.28203 8.30464 0.00337636 -0.0040568 0.00872909
1478 1 8.02177 8.86048 8.38185 -0.00446049 0.012518 0.00224333
1479 1 10.1562 7.53442 6.85442 -0.0018381 4.16414e-05 0.00213539
1480 1 8.74561 7.55261 8.83997 0.00358485 -0.00129229 0.00250133
1481 1 10.9162 6.30097 8.88112 -0.000278881 -0.0048789 0.00150186
1482 1 10.9007 8.81996 8.91143 -0.00985701 -0.00147765 3.52469e-05
1483 1 10.1837 7.54756 8.36146 5.54088e-05 -0.00687554 -0.00510324
1484 1 8.73956 7.53744 10.399 0.0014868 0.00464578 0.0117392
1485 1 10.9131 6.3142 10.4267 0.00896369 0.0056781 0.00973073
1486 1 10.8948 8.83975 10.415 -0.00396811 0.0056857 0.000193815
1487 1 13.0582 7.55556 8.89606 -0.0014875 0.00757026 0.00101421
1488 1 11.648 7.5914 10.9912 0.00337285 -0.000518348 -0.00432202
1489 1 13.796 6.30553 10.9505 -0.00433925 0.000716871 0.00800157
1490 1 13.7466 8.82731 10.9435 -0.00633581 0.00286544 0.00225166
1491 1 13.1087 7.54674 10.4288 0.00841818 0.00194737 0.00354956
1492 1 11.6946 7.6043 12.5062 0.00770303 0.000544286 0.0128616
1493 1 13.7349 6.30415 12.5016 -0.00162574 -0.00133887 0.00812122
1494 1 13.776 8.81867 12.5103 0.000857762 0.00295822 -0.0036882
1495 1 15.9687 7.54388 10.9562 -0.00674162 0.00328192 -0.00953879
1496 1 14.539 7.57487 12.9948 -0.00150609 0.00317359 0.00732606
1497 1 16.6863 6.33877 13.0607 0.00406637 0.00559246 0.00489307
1498 1 16.7027 8.82992 13.0601 -0.000620367 -0.00342672 -0.0119692
1499 1 16.0099 7.57725 12.5494 0.0119983 -0.00520758 -0.00423049
1500 1 14.5538 7.57471 14.5013 -0.00400565 -0.00182316 0.00459229
1501 1 16.6823 6.26644 14.6442 -0.00357218 -0.000438902 -0.00348933
1502 1 16.7001 8.7958 14.6987 -5.2855e-05 -0.00135314 -0.0065996
1503 1 18.936 7.56595 12.9745 -0.00373594 0.00517627 -0.0026853
1504 1 17.4228 7.5511 15.0378 0.00363626 0.000859054 0.00268555
1505 1 19.5419 6.26955 15.0733 -0.00602891 -0.00171792 0.0048561
1506 1 19.5948 8.73342 15.0456 -0.000942169 0.0132463 0.0019775
1507 1 18.9414 7.52722 14.4798 0.00147231 0.00174217 -0.00202
1508 1 18.1133 7.5982 16.5239 -0.00325539 0.00324003 -0.00110188
1509 1 18.9655 6.35666 16.5508 -0.00426542 0.000739954 -0.00653708
1510 1 18.894 8.82641 16.4982 7.60283e-05 -0.00347974 -0.00541205
1511 1 0.711762 1.24449 4.73134 0.000354621 0.00482518 -0.0109024
1512 1 21.8293 7.55233 10.4217 0.0058311 0.0077328 0.00611064
1513 1 0.0481122 22.6856 2.5992 5.69883e-05 -0.000121002 0.00831128
1514 1 21.8194 10.1196 2.65748 0.00161372 -0.00694911 0.00325687
1515 1 0.785881 8.86245 4.73728 0.000626318 -0.00358881 -0.000804143
1516 1 0.715054 11.3606 4.78316 0.00786397 0.00418327 0.000461004
1517 1 0.0355912 10.123 4.2433 0.00353525 -0.00346732 -0.0070343
1518 1 0.732704 8.83511 6.26199 -0.00314635 -0.002414 -0.00508884
1519 1 0.716995 11.3221 6.32447 -0.00344081 0.000434884 -0.00287486
1520 1 2.92868 10.1256 4.7606 -0.0040699 0.00157866 -0.00434128
1521 1 1.42698 10.0801 6.80911 0.00442231 -0.00593159 0.00257921
1522 1 3.62603 8.75629 6.83608 0.00583072 -0.00655906 -0.00302537
1523 1 3.68137 11.3834 6.74818 -0.000927081 -0.00955065 0.00323558
1524 1 2.89602 10.1443 6.32801 0.000723073 0.000980225 -0.00151027
1525 1 1.42655 10.0145 8.34948 0.00621046 -0.00181079 -0.000930347
1526 1 3.61497 8.80381 8.38347 -0.00384812 0.00156526 0.00219711
1527 1 3.65898 11.3082 8.37012 0.00305296 -0.00332293 -0.00198883
1528 1 5.83227 10.0699 6.84528 -0.000999543 -0.00635046 -0.00338156
1529 1 4.32851 10.0324 8.93673 0.000365526 -0.0071642 0.00274712
1530 1 6.58322 8.75893 8.88191 0.00516678 -0.00098751 -0.00161681
1531 1 6.52689 11.3495 8.82302 0.0094552 0.00861687 -0.00157783
1532 1 5.78591 10.0187 8.3823 -0.0104639 0.00671411 -0.00980351
1533 1 4.36927 10.0424 10.4699 -0.00877322 7.04882e-05 0.0023325
1534 1 6.50611 8.79926 10.4448 -0.00193937 -0.011147 -0.00596186
1535 1 6.53028 11.3422 10.4182 -0.000598168 -0.00381931 -0.000641939
1536 1 8.68774 10.1049 8.86827 -0.00695447 -0.000100391 -0.00517854
1537 1 7.29219 10.069 10.9834 0.000976799 -0.000973046 -0.00476712
1538 1 9.41516 8.82693 10.9221 0.00194672 -0.000360681 0.0101832
1539 1 9.48297 11.3576 10.9553 0.00595074 -0.00291933 -0.010376
1540 1 8.70916 10.0909 10.4415 0.00162911 -0.00175178 -0.00215248
1541 1 7.2254 10.0975 12.5125 -0.00438799 0.00333398 0.000204316
1542 1 9.37567 8.79306 12.4341 0.00385323 -0.00948647 -0.00133221
1543 1 9.38841 11.4031 12.5236 0.00606708 -0.00682648 0.00218186
1544 1 11.6464 10.0696 10.971 -0.00538575 0.00536529 -0.000517525
1545 1 10.1392 10.0789 12.9664 0.00075135 -0.00138024 0.00505501
1546 1 12.421 8.9222 13.0644 0.010564 0.00167393 0.00789746
1547 1 12.4092 11.3499 13.0484 -0.000169488 0.00337002 0.00230757
1548 1 11.6041 10.0906 12.539 0.00376607 -0.00739987 0.00868392
1549 1 10.1211 10.0714 14.5085 0.00932698 0.00044568 -0.00499965
1550 1 12.3993 8.77934 14.6215 0.00306794 0.000184081 -0.00253036
1551 1 12.331 11.3695 14.6195 -7.47118e-06 -0.00143247 -0.000632322
1552 1 14.5497 10.0523 12.9231 0.00992522 0.0117354 -0.00857728
1553 1 13.0344 10.1056 15.1373 -0.0064552 0.00488363 0.012679
1554 1 15.2022 8.83426 15.0394 0.00263518 -0.00471445 0.00476035
1555 1 15.1628 11.3061 15.0216 0.00873201 0.00180113 0.00150024
1556 1 14.5064 10.075 14.4617 -0.00100683 0.00174314 -0.00788622
1557 1 13.7664 10.0912 16.5819 0.00358099 -0.00924215 -0.00963112
1558 1 14.5969 8.81822 16.4986 -0.00824856 -0.00548892 -0.00648592
1559 1 14.6415 11.3869 16.5019 -0.0017634 0.00720238 -0.00232909
1560 1 17.5077 10.0041 15.0382 -0.00411863 -0.0122038 -0.00954832
1561 1 1.4471 7.5705 8.34189 0.00951637 -0.0023436 0.00119443
1562 1 3.65922 11.2928 14.6237 0.00207277 0.00224814 0.00642086
1563 1 3.60045 8.83059 14.635 -0.00376256 -0.00384039 0.00817782
1564 1 18.1159 10.0921 16.5213 0.00543837 -0.000411919 0.000134825
1565 1 2.18785 8.81101 8.86275 0.00557886 0.00409899 0.00670029
1566 1 1.40708 12.6573 6.82993 -0.00412302 -0.000415976 -0.00351386
1567 1 21.7749 12.616 8.8743 0.00214879 -0.00198572 -0.00643068
1568 1 2.14961 11.3338 8.82011 0.00209097 0.00375213 -0.00596722
1569 1 2.2387 13.9015 8.82428 -0.00202155 0.00159914 -0.00742066
1570 1 1.42888 12.6361 8.33895 0.00531562 0.00133732 0.0086348
1571 1 21.8178 12.671 10.4351 -0.00799133 0.00460279 -0.00452401
1572 1 2.1525 11.35 10.4153 -0.00645612 -0.00156936 0.00120311
1573 1 2.22803 13.9135 10.3874 -0.0039306 0.010618 0.00400107
1574 1 4.32521 12.6424 8.88145 -0.00180025 0.000843056 0.00260449
1575 1 2.92084 12.6059 10.937 0.00029463 0.00815696 0.00519986
1576 1 5.06983 11.3219 10.9156 0.00515133 0.000981923 0.00646189
1577 1 5.12396 13.8589 10.9297 -0.00272314 0.00472771 0.00808336
1578 1 4.34052 12.6073 10.4317 -0.00164266 -0.00369915 0.00218606
1579 1 2.91585 12.5611 12.5036 0.00318093 -0.00331555 -0.00520558
1580 1 5.06063 11.3619 12.4642 -0.000403831 0.00059635 0.00509092
1581 1 5.06311 13.8597 12.4692 0.0100766 -0.0120076 0.00208808
1582 1 7.36664 12.5936 10.9316 0.00185444 0.00260919 -0.00671615
1583 1 5.81629 12.5702 12.9612 -0.00624404 0.00243327 -0.000373009
1584 1 7.97926 11.3161 13.095 -0.0059471 -0.00875862 -0.0112625
1585 1 7.9881 13.8976 13.0635 0.000818792 6.05399e-05 0.0103343
1586 1 7.30761 12.6116 12.4937 -0.000276229 2.25114e-05 -0.00604828
1587 1 5.84665 12.5329 14.4598 0.0128586 -0.00121693 0.00492518
1588 1 8.01393 11.3416 14.7173 -0.00799705 0.0032476 -0.00699421
1589 1 8.03861 13.8423 14.6856 0.00550681 0.00402739 0.000638389
1590 1 10.1049 12.6103 13.0512 -0.000809141 -0.00478889 0.00491776
1591 1 8.72112 12.5624 15.18 0.00676685 -0.000645752 -0.000482472
1592 1 10.8127 11.3852 15.017 -0.00152375 -0.0016772 0.00184779
1593 1 10.7799 13.8992 15.1011 -0.00368109 0.00815573 0.00332714
1594 1 10.1499 12.6455 14.518 0.00446625 0.000947832 0.00460436
1595 1 9.46434 12.5702 16.6197 0.00929395 0.00791134 -0.0105576
1596 1 10.2372 11.3675 16.5102 -0.00824752 0.00199205 -0.00125941
1597 1 10.1813 13.8565 16.5558 0.00179235 -0.000739298 -0.00392537
1598 1 13.0435 12.6512 15.1547 -0.00527307 0.00305133 -0.002978
1599 1 2.23241 6.22672 8.87492 0.00569244 -0.000747117 -0.00396929
1600 1 1.44186 10.0657 14.5308 -0.0100243 -0.00214272 -0.00737206
1601 1 2.92371 10.0541 12.5077 0.0020195 0.0106082 -0.0012043
1602 1 13.6813 12.6277 16.6796 -0.00876295 0.00647164 0.00517522
1603 1 21.8317 7.59713 8.90152 -0.0125235 -0.00442744 -0.0046641
1604 1 21.8285 15.1035 8.79092 -0.00725699 -0.00557971 -0.00108425
1605 1 0.783549 13.8692 10.875 -0.00108222 -0.00444371 -5.33463e-05
1606 1 0.762036 16.4373 10.9286 -0.00304535 -0.00790238 -0.00716466
1607 1 0.0522031 15.1387 10.4147 -0.00552912 0.00751899 0.00739403
1608 1 0.742924 13.8796 12.4649 -0.00436823 -0.00258524 -0.000482319
1609 1 0.724766 16.4052 12.4552 0.00358028 0.00455576 0.00119602
1610 1 3.02025 15.1404 10.964 9.64123e-05 -0.000188522 0.000944709
1611 1 1.51091 15.1322 12.9642 0.00675823 -0.00769864 -0.00292337
1612 1 3.61861 13.8354 13.0363 -0.00208769 -0.00175618 -0.00284616
1613 1 3.69076 16.4044 13.0631 -0.00757839 -0.00465261 -0.00257361
1614 1 2.93734 15.1191 12.5289 -0.00621074 0.00538418 -0.00575855
1615 1 1.52654 15.1003 14.4296 -0.00039401 -0.00524388 0.00250567
1616 1 3.67048 13.8599 14.7242 0.00698389 0.00271017 -0.00213125
1617 1 3.65692 16.4466 14.6629 0.000902404 -0.000918153 0.000752794
1618 1 5.82708 15.1477 12.9729 0.000813056 0.00204312 0.00291143
1619 1 4.44176 15.1689 15.1439 -0.000156964 -0.00272631 0.000472766
1620 1 6.51731 13.8632 15.0754 -0.00480986 -0.00418656 0.00363105
1621 1 6.55145 16.3896 15.0578 -0.0064898 -0.00352165 -0.00508666
1622 1 5.84038 15.1726 14.4522 -0.00332978 0.00856699 0.00146002
1623 1 5.07412 15.1722 16.6531 0.00568728 -0.0022591 -0.00566181
1624 1 5.88644 13.9103 16.4554 -0.00242056 0.00345236 -0.00191763
1625 1 5.86112 16.4168 16.5528 -0.00658827 0.00490395 0.00187599
1626 1 8.73858 15.0911 15.1327 0.00608539 -0.00401286 0.008535
1627 1 1.44439 7.57416 6.81885 -0.00143418 -0.0048434 -0.00736667
1628 1 3.62912 11.3438 13.0386 -0.00265803 -0.00206478 -0.00856382
1629 1 3.59413 8.80469 13.0534 0.00083836 0.00302919 -0.000275791
1630 1 9.34063 15.1753 16.6258 0.000584214 -0.00127689 0.00320849
1631 1 18.0781 5.05761 16.6121 -0.00408647 -0.00827971 -0.00125166
1632 1 1.45404 17.624 12.9843 0.00183415 -0.00249195 -0.00309679
1633 1 0.0321378 17.6058 15.0963 -0.00719671 0.00433433 0.00547127
1634 1 2.14737 16.4087 15.0256 -0.00233456 0.0101686 -0.00184312
1635 1 2.16584 18.8845 15.012 0.00498475 0.0067619 0.00164054
1636 1 1.47354 17.6256 14.4503 -0.0139256 -0.0043642 0.00808935
1637 1 0.707795 17.6352 16.6544 -0.00328616 -0.00234889 0.00175651
1638 1 1.52863 16.4075 16.4945 -0.000942841 -0.00100115 0.0108587
1639 1 1.57307 18.8764 16.544 -0.000411486 -0.0003273 -0.00331111
1640 1 4.46048 17.706 15.1551 0.00337253 0.00278665 0.00499451
1641 1 0.704398 8.85711 10.9679 0.0101072 0.0110119 -0.00130536
1642 1 1.44923 10.0463 12.9768 -0.00647633 -0.00592892 0.000166416
1643 1 2.92152 10.0407 10.9886 -0.000582335 -0.00582684 -0.00214454
1644 1 5.01395 17.6931 16.5967 0.0030152 0.00472176 0.00132711
1645 1 0.685038 11.3673 10.943 0.00296637 -0.000146835 -0.00209397
1646 1 0.0574734 20.0878 15.1609 0.00250444 -0.00529284 0.00354211
1647 1 0.693815 11.3506 12.4493 0.00675031 0.00189698 0.00616795
1648 1 0.728224 8.86431 12.4939 -0.00108073 -0.00256871 -0.00630988
1649 1 0.754196 20.1629 16.5824 -0.00320959 -0.00484798 -0.000153502
1650 1 17.51 5.04802 15.0607 0.00528596 0.00623996 0.0020527
1651 1 2.84499e-08 8.87991e-10 -3.38328 0 0 0
1652 1 0.727781 1.26055 -1.46015 0 0 0
1653 1 1.89446e-07 22.69 -2.04973 0 0 0
1654 1 0.738513 1.27547 0.0946254 -0.00823415 -0.00198901 0.00146543
1655 1 2.91113 7.7767e-10 -1.46015 0 0 0
1656 1 1.48711 22.6611 0.58014 0.000986487 0.000570313 0.00720543
1657 1 3.62359 1.21734 0.577328 -0.00302416 9.25702e-05 0.00218949
1658 1 2.92255 22.6398 0.040265 0.0075652 -0.00259589 -0.0050446
1659 1 1.50718 22.6764 2.11902 0.00260041 -0.00378542 -0.0013233
1660 1 3.69421 1.19019 2.08664 -0.00985895 -0.00157779 0.00163053
1661 1 5.81014 0.0379675 0.628061 -0.00229736 -0.00740061 -0.00129016
1662 1 4.37059 22.6442 2.61181 -0.00439361 -0.00190369 -0.00517107
1663 1 6.52008 1.2848 2.71212 -0.00619773 -0.00448725 -0.000444461
1664 1 5.83436 22.6347 2.14673 0.00284029 -0.00492355 -0.00756214
1665 1 4.35921 22.6769 4.15126 -0.00267755 0.00770605 0.0102319
1666 1 6.5228 1.29139 4.25916 0.00566709 -0.00502858 -7.86814e-05
1667 1 8.70117 22.6471 2.62677 -0.00155409 0.00392676 -0.00518686
1668 1 7.25827 0.0373047 4.70159 -0.00221529 0.0047838 -0.000356962
1669 1 9.46217 1.22059 4.77887 -0.00474391 -7.75442e-05 -0.00404799
1670 1 8.76314 22.67 4.23655 0.00681667 -0.00194913 0.00564165
1671 1 7.26751 0.0190726 6.2695 0.00431768 -0.00201808 -0.00181015
1672 1 9.43839 1.22484 6.34721 -0.00421163 -0.000687862 0.0030497
1673 1 11.5946 22.6704 4.73689 0.00160226 0.00392562 0.00426402
1674 1 10.1458 22.6777 6.81019 0.00255778 0.00412071 0.00526211
1675 1 12.3594 1.26991 6.80281 -0.00562471 -0.00273125 0.000141851
1676 1 11.6562 22.6284 6.29575 0.00668481 0.000451546 0.00245609
1677 1 10.1876 22.6784 8.35047 -0.00265356 0.000793579 0.00380799
1678 1 12.3212 1.24998 8.39323 0.0060791 0.0027964 0.000622877
1679 1 14.5654 0.0296881 6.77125 -0.000814933 -0.00518938 0.00590951
1680 1 13.1027 0.00460176 8.86241 -0.00629776 0.00608651 0.0005578
1681 1 15.2737 1.22612 8.8797 0.000628599 -0.0109954 0.00236538
1682 1 14.534 22.6887 8.33714 -0.00335823 0.00298004 -0.000990602
1683 1 13.0844 22.6749 10.4059 -0.000864916 0.00205881 0.000278932
1684 1 15.2983 1.19931 10.447 -0.00649957 -0.00629375 -0.0148067
1685 1 17.4891 22.6889 8.83647 0.00116356 0.00274115 0.00448959
1686 1 16.0363 22.6374 10.942 0.00257033 -0.00243208 0.002135
1687 1 18.1559 1.27622 10.9265 0.00836735 -0.00703268 0.00353684
1688 1 17.4883 22.6634 10.4011 0.00273547 -0.00294433 -1.90633e-05
1689 1 16.0647 22.6703 12.5594 -0.00390805 -0.00580777 0.009187
1690 1 18.214 1.243 12.4856 0.000815509 0.00934622 -0.00396427
1691 1 20.4084 22.6265 10.9393 -0.0115672 -0.000641278 0.00268782
1692 1 18.9022 22.6744 13.0189 -0.000175994 -0.00776227 0.00241768
1693 1 21.1356 1.225 12.9797 0.00550245 -0.005063 -0.00664118
1694 1 20.4242 22.6566 12.4954 -0.00115932 -4.28579e-05 -0.00499917
1695 1 18.9113 22.6506 14.4793 0.00773936 0.00395832 0.010931
1696 1 21.0912 1.21597 14.6504 0.00365508 0.000519464 -0.00247054
1697 1 14.5138 6.3061 16.5469 0.0019646 -0.00177077 -0.00199123
1698 1 0.712445 15.1683 16.5676 0.00158368 0.00819204 0.00525897
1699 1 1.44675 2.53617 0.613064 6.25971e-05 0.0100698 -0.00516692
1700 1 21.8266 2.57235 2.68888 0.0018191 0.00391712 -0.00204631
1701 1 2.24714 1.22363 2.67299 0.000537813 0.00624302 -1.53993e-05
1702 1 2.20196 3.81279 2.65282 0.00541995 0.00220123 0.000276195
1703 1 1.47702 2.56463 2.17567 0.00125175 -0.00507421 0.000232354
1704 1 21.8191 2.55308 4.22372 -0.0104361 0.000935203 0.0038704
1705 1 2.16842 1.22607 4.24189 0.00573096 0.000872144 0.00170491
1706 1 2.15472 3.76673 4.2459 -0.00034268 -0.0014744 -6.85961e-05
1707 1 4.37259 2.47266 2.64627 -0.00490515 0.00936884 -0.0050969
1708 1 2.89432 2.51569 4.76243 0.00136484 0.00373313 -0.00270558
1709 1 5.08482 1.22977 4.71139 0.00118384 -0.00551795 -0.0054772
1710 1 5.08816 3.76425 4.71827 -0.00175744 -0.000539313 -0.00319683
1711 1 4.32528 2.51172 4.26055 -0.00241224 -0.00623138 0.000593442
1712 1 2.93152 2.47046 6.32077 0.00961223 0.00816558 -0.00289396
1713 1 5.08981 1.20316 6.27539 -0.00442195 6.81797e-05 0.00213827
1714 1 5.06247 3.74992 6.31147 0.00377521 -0.00660909 0.000466958
1715 1 7.29397 2.56898 4.80337 -0.0025641 0.00425317 -0.00125173
1716 1 5.76868 2.51905 6.84657 -0.000412146 -0.000464799 0.00293179
1717 1 7.9335 1.20364 6.82163 -0.00835595 0.000939102 0.00117053
1718 1 7.97668 3.86213 6.7925 -0.000908607 0.00447511 0.00261162
1719 1 7.28854 2.51259 6.34831 -0.00574639 0.00290989 0.00119884
1720 1 5.80406 2.53044 8.37375 0.00153009 0.00316078 -0.00743346
1721 1 8.01638 1.27231 8.38986 0.00930936 0.00288184 -0.00428721
1722 1 7.94175 3.75744 8.35863 -0.000904204 -0.00722633 0.000159687
1723 1 10.1001 2.56828 6.82243 -0.00480251 -0.00459056 -0.00934916
1724 1 8.73394 2.52647 8.86321 -0.0044491 0.00513596 -0.00396173
1725 1 10.9053 1.17027 8.86514 0.000598431 0.00153121 0.00271576
1726 1 10.9128 3.79183 8.8772 0.00491694 0.00283559 -0.00617606
1727 1 10.1741 2.56364 8.3679 0.00577062 0.00760594 0.00728954
1728 1 8.75896 2.56671 10.4122 0.00824337 -0.0124985 0.000584983
1729 1 10.9194 1.21347 10.3922 0.00127309 -0.00603488 0.00158824
1730 1 10.9103 3.7925 10.3851 0.00972581 0.00281518 -0.00158175
1731 1 13.1393 2.59072 8.90026 0.0042906 -0.00136796 0.0116128
1732 1 11.6068 2.50834 10.9075 0.00388561 -0.00680017 0.0118961
1733 1 13.8379 1.2679 10.9245 -0.00804808 0.00434941 -0.00554264
1734 1 13.818 3.7959 10.9253 -0.00115733 -0.000610086 0.0011523
1735 1 13.1305 2.51555 10.3681 -0.0144949 0.0052619 -0.00532149
1736 1 11.626 2.51183 12.4487 0.00190952 0.00248439 0.00982111
1737 1 13.8303 1.24339 12.4115 -0.00189602 0.00319166 0.00833435
1738 1 13.7613 3.78301 12.456 0.000612005 0.000948299 0.000222965
1739 1 16.0225 2.50622 10.9645 0.000429198 -0.00711535 0.00878967
1740 1 14.5641 2.49546 12.9852 -0.00486624 0.00348139 0.00275753
1741 1 16.7743 1.24128 13.1248 -0.00139734 -0.00414051 -0.000204133
1742 1 16.7468 3.7445 13.0577 0.00103602 -0.0066694 0.00196277
1743 1 16.0633 2.48624 12.5287 0.00360257 0.00108474 0.00988036
1744 1 14.5461 2.57137 14.4724 0.00314452 -0.00102319 -0.00481623
1745 1 16.7147 1.27092 14.7127 0.00996453 -0.0100747 -0.000141436
1746 1 16.7648 3.76176 14.681 0.00475038 0.0161203 -0.00682757
1747 1 18.9383 2.49234 13.0313 0.00582702 -0.00157473 -0.0027585
1748 1 17.536 2.49064 15.1116 -0.000220031 0.0110279 -0.00287226
1749 1 19.6446 1.25458 15.0948 0.00762809 -0.00463105 -0.0104073
1750 1 19.6468 3.81903 15.1208 0.00210131 0.00166478 -0.00067203
1751 1 19.0359 2.5184 14.5112 -0.000287877 -0.00169306 -0.00507532
1752 1 18.1931 2.55158 16.5923 -0.00440715 0.00111523 0.00756427
1753 1 18.9717 1.24779 16.6136 -0.00136926 -0.00241308 0.00692792
1754 1 19.0354 3.79194 16.5892 -0.00267287 0.0131141 0.0013892
1755 1 14.5675 3.78138 16.4806 -0.00684559 -0.00582292 0.00328005
1756 1 0.0156721 10.0813 10.4197 0.00309392 -0.00130354 -0.000174602
1757 1 21.798 5.1231 2.60499 0.00133559 0.00169037 0.00225792
1758 1 0.739943 3.80104 4.76467 0.00164026 -0.000269747 0.00460369
1759 1 0.758909 6.35873 4.73988 -0.00239474 0.00378142 -0.00888824
1760 1 0.00609556 5.11674 4.2429 0.00996587 -0.00463776 -0.00300471
1761 1 0.743279 3.75294 6.33102 -0.00136629 -0.00580952 0.00244996
1762 1 0.726969 6.32912 6.30193 -0.00167124 0.00247727 -0.00105401
1763 1 2.9005 5.03678 4.76451 -0.00353582 0.0100207 0.00361101
1764 1 1.45913 5.02506 6.83561 0.00363388 -0.0199227 -0.00147342
1765 1 3.65522 3.77658 6.85099 -0.0105338 0.00756791 -0.00470211
1766 1 3.60758 6.25148 6.88161 0.00278542 -0.00736924 -0.00439764
1767 1 2.90084 5.01179 6.30809 0.0087735 0.00449255 -0.00583849
1768 1 1.45951 4.97874 8.3976 0.00639317 0.00334706 0.00225038
1769 1 3.62274 3.77535 8.38182 0.00529445 0.00306065 0.00159659
1770 1 3.64914 6.27327 8.39904 -0.00125243 -0.00135532 -0.0016439
1771 1 5.74447 5.08889 6.78739 0.000472861 -0.00415751 0.00664319
1772 1 4.37429 5.02653 8.92391 0.00173098 -0.00161135 -0.0055304
1773 1 6.53029 3.7794 8.86009 0.00147621 0.00328554 0.00796884
1774 1 6.56392 6.30715 8.86033 0.00226793 0.00233847 -0.0028522
1775 1 5.85354 5.06906 8.32679 -0.00246947 0.0049013 0.00332236
1776 1 4.42898 5.06107 10.4294 0.00221874 -2.70405e-05 0.0100527
1777 1 6.52697 3.81083 10.4769 -0.00487037 -0.00504052 0.00323262
1778 1 6.55845 6.26766 10.4448 0.000897009 0.00219683 -0.00398521
1779 1 8.69983 5.03691 8.88495 -0.00102119 0.00307784 0.0130163
1780 1 7.25904 5.06625 10.9869 -0.00252356 -0.00831843 -0.00530985
1781 1 9.4739 3.82891 10.9164 -0.00609294 0.00521972 -0.00555909
1782 1 9.46115 6.30868 10.9679 0.0021501 -0.00241603 -0.00817091
1783 1 8.75856 5.09536 10.4138 0.00263089 0.00629867 0.00312118
1784 1 7.26759 4.9962 12.5544 -0.00105273 -0.00131483 0.00327125
1785 1 9.44342 3.75309 12.4178 -0.00329296 0.00356793 0.00253703
1786 1 9.49443 6.28059 12.5142 0.000138114 -0.000471844 0.0069904
1787 1 11.6256 5.0263 10.9446 0.00288827 0.00519971 -0.00415007
1788 1 10.275 5.03963 12.9211 0.00538978 0.00287909 0.0112498
1789 1 12.37 3.79386 13.0201 -0.0035997 0.0021896 0.00721005
1790 1 12.3347 6.31286 13.0704 -0.005291 0.00101929 -0.00213646
1791 1 11.6376 5.02543 12.476 0.00273915 0.0103493 0.00373156
1792 1 10.1898 5.04018 14.4107 0.00921484 -0.00476564 0.00632623
1793 1 12.3586 3.80873 14.6073 0.000995903 -0.000938795 -0.000746281
1794 1 12.3288 6.31326 14.6782 0.00172965 -0.00859485 0.00189769
1795 1 14.5297 5.04663 12.9507 -0.00180835 -0.00374277 0.00338816
1796 1 13.0533 5.06265 15.1277 2.59042e-06 0.00273504 -0.0011652
1797 1 15.1404 3.88001 15.031 0.0127201 0.00382269 0.00663234
1798 1 15.1878 6.35044 15.1033 0.000826291 0.00418533 0.00470853
1799 1 14.4982 5.12056 14.4724 0.00275109 0.00362466 0.00116523
1800 1 13.7683 5.01871 16.6048 -0.00248224 -0.00678209 -0.00379404
1801 3 18.9223 20.1689 22.2295 0 0 0
1802 3 21.1057 18.9083 22.2295 0 0 0
1803 3 21.1057 21.4294 22.2295 0 0 0
1804 3 16.739 21.4294 22.2295 0 0 0
1805 3 18.9223 15.1267 22.2295 0 0 0
1806 3 21.1057 13.8661 22.2295 0 0 0
1807 3 21.1057 16.3872 22.2295 0 0 0
1808 3 14.5556 17.6478 22.2295 0 0 0
1809 3 16.739 16.3872 22.2295 0 0 0
1810 3 16.739 18.9083 22.2295 0 0 0
1811 3 18.9223 17.6478 22.2295 0 0 0
1812 3 10.1889 20.1689 22.2295 0 0 0
1813 3 12.3723 18.9083 22.2295 0 0 0
1814 3 12.3723 21.4294 22.2295 0 0 0
1815 3 14.5556 20.1689 22.2295 0 0 0
1816 3 8.0056 21.4294 22.2295 0 0 0
1817 3 18.9223 10.0844 22.2295 0 0 0
1818 3 21.1057 8.82388 22.2295 0 0 0
1819 3 21.1057 11.345 22.2295 0 0 0
1820 3 14.5556 12.6055 22.2295 0 0 0
1821 3 16.739 11.345 22.2295 0 0 0
1822 3 16.739 13.8661 22.2295 0 0 0
1823 3 18.9223 12.6055 22.2295 0 0 0
1824 3 10.1889 15.1267 22.2295 0 0 0
1825 3 12.3723 13.8661 22.2295 0 0 0
1826 3 12.3723 16.3872 22.2295 0 0 0
1827 3 14.5556 15.1267 22.2295 0 0 0
1828 3 5.82225 17.6478 22.2295 0 0 0
1829 3 8.0056 16.3872 22.2295 0 0 0
1830 3 8.0056 18.9083 22.2295 0 0 0
1831 3 10.1889 17.6478 22.2295 0 0 0
1832 3 1.45556 20.1689 22.2295 0 0 0
1833 3 3.63891 18.9083 22.2295 0 0 0
1834 3 3.63891 21.4294 22.2295 0 0 0
1835 3 5.82225 20.1689 22.2295 0 0 0
1836 3 18.9223 5.04222 22.2295 0 0 0
1837 3 21.1057 3.78166 22.2295 0 0 0
1838 3 21.1057 6.30277 22.2295 0 0 0
1839 3 14.5556 7.56333 22.2295 0 0 0
1840 3 16.739 6.30277 22.2295 0 0 0
1841 3 16.739 8.82388 22.2295 0 0 0
1842 3 18.9223 7.56333 22.2295 0 0 0
1843 3 10.1889 10.0844 22.2295 0 0 0
1844 3 12.3723 8.82388 22.2295 0 0 0
1845 3 12.3723 11.345 22.2295 0 0 0
1846 3 14.5556 10.0844 22.2295 0 0 0
1847 3 5.82225 12.6055 22.2295 0 0 0
1848 3 8.0056 11.345 22.2295 0 0 0
1849 3 8.0056 13.8661 22.2295 0 0 0
1850 3 10.1889 12.6055 22.2295 0 0 0
1851 3 1.45556 15.1267 22.2295 0 0 0
1852 3 3.63891 13.8661 22.2295 0 0 0
1853 3 3.63891 16.3872 22.2295 0 0 0
1854 3 5.82225 15.1267 22.2295 0 0 0
1855 3 1.45556 17.6478 22.2295 0 0 0
1856 3 18.9223 1.76923e-10 22.2295 0 0 0
1857 3 21.1057 1.26055 22.2295 0 0 0
1858 3 14.5556 2.52111 22.2295 0 0 0
1859 3 16.739 1.26055 22.2295 0 0 0
1860 3 16.739 3.78166 22.2295 0 0 0
1861 3 18.9223 2.52111 22.2295 0 0 0
1862 3 10.1889 5.04222 22.2295 0 0 0
1863 3 12.3723 3.78166 22.2295 0 0 0
1864 3 12.3723 6.30277 22.2295 0 0 0
1865 3 14.5556 5.04222 22.2295 0 0 0
1866 3 5.82225 7.56333 22.2295 0 0 0
1867 3 8.0056 6.30277 22.2295 0 0 0
1868 3 8.0056 8.82388 22.2295 0 0 0
1869 3 10.1889 7.56333 22.2295 0 0 0
1870 3 1.45556 10.0844 22.2295 0 0 0
1871 3 3.63891 8.82388 22.2295 0 0 0
1872 3 3.63891 11.345 22.2295 0 0 0
1873 3 5.82225 10.0844 22.2295 0 0 0
1874 3 1.45556 12.6055 22.2295 0 0 0
1875 3 10.1889 22.69 22.2295 0 0 0
1876 3 12.3723 1.26055 22.2295 0 0 0
1877 3 14.5556 22.69 22.2295 0 0 0
1878 3 5.82225 2.52111 22.2295 0 0 0
1879 3 8.0056 1.26055 22.2295 0 0 0
1880 3 8.0056 3.78166 22.2295 0 0 0
1881 3 10.1889 2.52111 22.2295 0 0 0
1882 3 1.45556 5.04222 22.2295 0 0 0
1883 3 3.63891 3.78166 22.2295 0 0 0
1884 3 3.63891 6.30277 22.2295 0 0 0
1885 3 5.82225 5.04222 22.2295 0 0 0
1886 3 1.45556 7.56333 22.2295 0 0 0
1887 3 1.45556 9.14863e-10 22.2295 0 0 0
1888 3 3.63891 1.26055 22.2295 0 0 0
1889 3 5.82225 8.58019e-10 22.2295 0 0 0
1890 3 1.45556 2.52111 22.2295 0 0 0
