ITEM: TIMESTEP
0
ITEM: NUMBER OF ATOMS
3360
ITEM: BOX BOUNDS pp pp mm
0.0000000000000000e+00 2.0168875556741614e+01
0.0000000000000000e+00 2.1392323012619400e+01
-4.7270802086113157e+00 7.5633283337781052e+01
ITEM: ATOMS id type x y z vx vy vz
1 1 2.52111 0.891347 -3.78166 0 0 0
2 1 1.26055 1.78269 -3.78166 0 0 0
3 1 0 21.3923 -2.52111 0 0 0
4 1 0 0.891347 -3.78166 0 0 0
5 1 1.26055 2.67404 -2.52111 0 0 0
6 1 0 0.891347 -1.26055 0 0 0
7 1 7.56333 0.891347 -3.78166 0 0 0
8 1 6.30277 1.78269 -3.78166 0 0 0
9 1 3.78166 1.78269 -3.78166 0 0 0
10 1 5.04222 21.3923 -2.52111 0 0 0
11 1 5.04222 0.891347 -3.78166 0 0 0
12 1 6.30277 2.67404 -2.52111 0 0 0
13 1 3.78166 2.67404 -2.52111 0 0 0
14 1 5.04222 0.891347 -1.26055 0 0 0
15 1 2.52111 21.3923 -2.52111 0 0 0
16 1 3.78166 1.78269 -1.26055 0 0 0
17 1 1.26055 1.78269 -1.26055 0 0 0
18 1 2.49224 0.0278813 -0.00476498 -0.00763139 -0.000536886 0.00120376
19 1 2.52111 0.891347 -1.26055 0 0 0
20 1 3.78683 2.63041 -0.00896745 -0.00934263 -0.00596173 -0.00325514
21 1 1.28139 2.70255 -0.0533034 0.000957002 0.00561638 0.0069954
22 1 2.52536 0.913355 1.19437 0.00582063 -0.00663809 -0.00614558
23 1 20.1371 0.0160077 0.0038769 -0.00302552 -0.000562424 0.00126898
24 1 1.22535 1.82057 1.20083 0.00873204 -0.000635335 -0.00230889
25 1 20.1296 0.0243104 2.49659 5.88944e-05 0.00388035 -0.00495185
26 1 20.1181 0.953146 1.26299 -0.00271933 0.0034215 -0.00275956
27 1 1.29063 2.70729 2.51345 0.00502367 0.00219255 -0.00480356
28 1 20.1552 0.935181 3.73632 0.00202199 -0.00559552 -0.0113952
29 1 12.6055 0.891347 -3.78166 0 0 0
30 1 11.345 1.78269 -3.78166 0 0 0
31 1 8.82388 1.78269 -3.78166 0 0 0
32 1 10.0844 21.3923 -2.52111 0 0 0
33 1 10.0844 0.891347 -3.78166 0 0 0
34 1 11.345 2.67404 -2.52111 0 0 0
35 1 8.82388 2.67404 -2.52111 0 0 0
36 1 10.0844 0.891347 -1.26055 0 0 0
37 1 7.56333 21.3923 -2.52111 0 0 0
38 1 8.82388 1.78269 -1.26055 0 0 0
39 1 6.30277 1.78269 -1.26055 0 0 0
40 1 7.54803 21.3894 -0.0225426 0.00816317 -0.000842452 -0.0014848
41 1 7.56333 0.891347 -1.26055 0 0 0
42 1 8.79911 2.66912 -0.0284115 0.00175374 0.00516222 -0.000587571
43 1 6.31434 2.69981 -0.0212474 -0.002801 0.000449226 -0.0148123
44 1 7.52374 0.874667 1.22542 -0.00947575 0.00940321 0.00316255
45 1 5.05466 0.00118452 -0.0605747 0.00347999 -0.00202562 0.0094431
46 1 6.29286 1.77612 1.2208 0.0023596 0.00594966 -0.00390273
47 1 3.76825 1.7808 1.20494 -0.00274544 0.00138 -0.00905434
48 1 5.05852 0.00865579 2.43681 0.00202843 0.00194794 -0.00255152
49 1 5.01709 0.946146 1.20542 0.00277991 0.00459398 -0.000640799
50 1 6.28692 2.6678 2.44486 -0.00186926 -0.00807712 0.00245379
51 1 3.77254 2.70686 2.40391 -0.000968764 0.00469756 0.00118982
52 1 4.99024 0.927599 3.69842 -0.00512363 -0.000312835 -0.0118516
53 1 2.47548 0.0153378 2.44771 -0.00517861 -0.00427713 0.0116564
54 1 3.76802 1.80926 3.64333 0.00646525 -0.0040804 0.00342021
55 1 1.23932 1.83831 3.70818 0.00247547 -0.00442112 -0.00186092
56 1 2.46859 0.0420011 4.89854 -0.00221601 0.00505573 -0.00342345
57 1 2.50675 0.893759 3.6786 0.00174392 0.00238605 -0.00516946
58 1 3.75449 2.71159 4.97031 -0.00166224 -0.00348087 -0.00721088
59 1 1.32053 2.72406 4.96356 -0.000234566 0.00732975 -0.00110692
60 1 2.47037 0.918426 6.18237 -0.00433525 0.00115538 -0.00690793
61 1 20.1643 0.0350461 4.9131 0.005076 0.0041097 -0.0129439
62 1 1.29276 1.81473 6.14764 0.00151646 0.00783209 -0.00518675
63 1 20.0797 0.0454451 7.40896 -0.00629038 0.00469559 -0.0062271
64 1 0.0121373 0.918309 6.15718 -0.00584827 -0.00838146 0.00258114
65 1 1.24675 2.63934 7.40343 0.00286425 0.00120068 -0.000646437
66 1 20.1624 0.910843 8.63067 -0.00015154 0.000178983 0.00331279
67 1 17.6478 0.891347 -3.78166 0 0 0
68 1 16.3872 1.78269 -3.78166 0 0 0
69 1 13.8661 1.78269 -3.78166 0 0 0
70 1 15.1267 21.3923 -2.52111 0 0 0
71 1 15.1267 0.891347 -3.78166 0 0 0
72 1 16.3872 2.67404 -2.52111 0 0 0
73 1 13.8661 2.67404 -2.52111 0 0 0
74 1 15.1267 0.891347 -1.26055 0 0 0
75 1 12.6055 21.3923 -2.52111 0 0 0
76 1 13.8661 1.78269 -1.26055 0 0 0
77 1 11.345 1.78269 -1.26055 0 0 0
78 1 12.6056 0.0121015 -0.0420971 0.00559496 -0.00197037 0.00767624
79 1 12.6055 0.891347 -1.26055 0 0 0
80 1 13.8437 2.70225 -0.0177466 0.00833894 0.000579797 -0.0047539
81 1 11.389 2.71766 -0.0131464 -0.00145336 -0.00466191 -0.000275396
82 1 12.6077 0.920869 1.21521 -0.00132884 -0.00279159 -0.00462168
83 1 10.0336 0.0171128 -0.00783023 -0.00352127 2.65021e-05 -0.00341728
84 1 11.3289 1.77164 1.21262 -0.00525812 0.00375261 -0.00157656
85 1 8.83596 1.74667 1.17917 -0.00152581 0.00802942 -0.00700274
86 1 10.0685 21.379 2.44179 0.00161795 -0.00831879 0.00329228
87 1 10.0513 0.8655 1.21247 -0.0021548 0.00420249 0.00124096
88 1 11.3431 2.644 2.39223 -0.00244504 0.00133189 0.0046974
89 1 8.82125 2.68193 2.43345 -0.00133647 0.0024657 0.00762616
90 1 10.1042 0.896442 3.70542 0.000642154 -0.0022001 -0.00173354
91 1 7.57232 21.3543 2.42307 -0.00480715 0.00812157 -5.06418e-05
92 1 8.8367 1.75534 3.64329 0.00395429 -0.00156264 -0.00282434
93 1 6.27643 1.77481 3.67733 0.00255855 -0.00351531 0.00403712
94 1 7.56332 0.00934787 4.92937 -0.00348814 0.00342289 -0.00659236
95 1 7.59698 0.87008 3.65566 0.000898232 0.00328905 -0.00273416
96 1 8.82437 2.66901 4.88236 -0.00651948 -0.00209456 -0.00579198
97 1 6.3207 2.71508 4.96552 -0.00172846 -0.00199567 -0.00548499
98 1 7.58962 0.884323 6.16228 -0.00606908 -0.00478822 0.00200053
99 1 5.05319 0.018971 4.90044 0.000758904 -0.00117814 -0.000336707
100 1 6.28489 1.73974 6.16228 0.0159605 -0.00163407 -0.00607913
101 1 3.732 1.77809 6.16605 0.000326597 -0.00185442 0.00169257
102 1 4.96086 0.0198952 7.47363 0.00432264 0.00264248 0.00418738
103 1 5.01092 0.898201 6.1755 0.00130228 0.00194241 -0.00929224
104 1 6.30977 2.69333 7.44002 -0.00234565 -0.00181096 -0.00345356
105 1 3.73621 2.69373 7.44055 -0.00784248 -0.000723259 -0.000442377
106 1 5.04507 0.964994 8.62791 -0.00189381 0.00674985 -0.00410616
107 1 2.50779 0.0417033 7.43145 0.00388183 -0.00188134 -0.000990635
108 1 3.78538 1.80184 8.69541 0.0143086 -0.00718393 -0.00457158
109 1 1.21215 1.80933 8.67299 0.0019788 0.00240741 -0.00386066
110 1 2.53093 0.0358227 9.9081 0.0020533 0.000352085 0.0045245
111 1 2.47746 0.910165 8.6922 -0.00633162 0.0016705 -0.00690403
112 1 3.78802 2.70968 9.91389 0.00299301 -0.00271722 0.00132829
113 1 1.26317 2.65931 9.87819 -0.00951366 0.00473541 0.0019427
114 1 2.51469 0.929933 11.1327 0.00199144 -0.000345568 -0.00615384
115 1 20.1163 0.0131862 9.83715 -0.00307924 -0.00292515 -0.00773928
116 1 1.22868 1.75919 11.1504 0.00263772 0.000675288 -0.00347906
117 1 0.0226118 21.3669 12.3497 -0.00373037 -0.00318227 0.00319879
118 1 20.1506 0.894528 11.1396 -0.00831723 0.0035264 0.00510388
119 1 1.28728 2.6512 12.355 0.00528052 -0.0047143 -0.00388252
120 1 20.1649 0.894156 13.5475 -0.00363079 -0.0055761 -0.00444512
121 1 18.9083 1.78269 -3.78166 0 0 0
122 1 18.9083 2.67404 -2.52111 0 0 0
123 1 17.6478 21.3923 -2.52111 0 0 0
124 1 18.9083 1.78269 -1.26055 0 0 0
125 1 16.3872 1.78269 -1.26055 0 0 0
126 1 17.6541 21.3616 -0.0762095 -0.00753092 0.00943392 0.00230922
127 1 17.6478 0.891347 -1.26055 0 0 0
128 1 18.9075 2.679 -0.00868559 0.00711696 0.0046062 0.00094828
129 1 16.3593 2.72395 -0.0427051 0.0042746 0.00180444 0.00132263
130 1 17.6201 0.870058 1.17904 0.000512505 -0.00186669 -0.00808027
131 1 15.1899 21.3383 -0.0234682 -0.000977322 0.00134454 -0.0110705
132 1 16.3527 1.74508 1.24202 -0.00770141 -0.00166214 0.0054859
133 1 13.8333 1.78154 1.20459 -0.00850004 0.00118259 -0.0084969
134 1 15.1247 21.3737 2.45251 0.00312143 -0.00490727 -0.000362815
135 1 15.0863 0.89193 1.23322 -0.00533044 -0.00295356 0.00657633
136 1 16.3994 2.64097 2.41609 -0.00360835 -0.00364077 0.00323132
137 1 13.8654 2.67497 2.4288 0.000592946 -0.00123615 0.000293479
138 1 15.0892 0.957046 3.6877 0.000800873 0.00220092 0.00196969
139 1 12.6084 0.0173229 2.44234 -0.00377788 0.00274765 -0.00717583
140 1 13.8311 1.79932 3.64858 0.00106013 -0.00486724 -0.00056989
141 1 11.3622 1.75899 3.71121 0.00355315 -0.000836461 0.000498694
142 1 12.6737 21.388 4.94388 9.69183e-05 -0.000260806 -0.00482706
143 1 12.613 0.903973 3.71952 0.0057072 0.00541052 -0.00317953
144 1 13.9209 2.67605 4.89023 0.00217624 -0.00332373 -0.00386686
145 1 11.2984 2.72426 4.92773 -0.00646686 -0.00292582 0.00248159
146 1 12.6313 0.936844 6.19195 -0.00433875 -0.00808772 0.00202998
147 1 10.1013 0.0367714 4.94254 0.00552341 -0.000990167 -0.00550521
148 1 11.3657 1.82824 6.13409 0.000780576 -0.00671332 -0.0136691
149 1 8.81655 1.84241 6.17145 0.00312217 0.00335917 -0.00300894
150 1 10.0913 0.0952114 7.38737 -0.000666996 -0.000674838 0.00348986
151 1 10.1296 0.947802 6.14477 0.00540699 0.00100256 0.00347275
152 1 11.3262 2.6869 7.40915 -0.00150191 0.00405112 -0.0076861
153 1 8.7913 2.68574 7.38323 -0.00171759 0.000253522 0.00563782
154 1 10.1137 0.931994 8.61263 -0.000845068 -0.001887 -0.00636553
155 1 7.53535 0.012191 7.40311 -0.001753 -0.0029052 0.00180403
156 1 8.77998 1.83059 8.63147 -0.00218472 -0.0012101 -0.00287686
157 1 6.32295 1.80725 8.66372 -0.000220739 0.00183873 -0.00638381
158 1 7.54243 0.0155719 9.94175 0.00201485 -0.00122538 -0.00710725
159 1 7.53568 0.921542 8.68057 -0.00719283 -0.00446166 0.00287719
160 1 8.77918 2.67644 9.92106 0.000284795 -0.00245102 -0.0112132
161 1 6.28298 2.74304 9.89813 0.00271229 -0.00189949 -0.00155213
162 1 7.54283 0.858339 11.1725 0.00496514 0.00196154 -0.000937863
163 1 5.011 0.0217901 9.86046 -0.00504098 0.00203381 -0.00427881
164 1 6.28947 1.7738 11.1694 -0.00867339 0.002472 0.00362908
165 1 3.84415 1.83572 11.1147 0.00190064 0.00500349 -0.00453635
166 1 5.04257 0.0199142 12.4192 0.00644591 -0.00140024 -0.000878511
167 1 5.02858 0.881862 11.1341 -0.00227771 -0.0064551 0.00143821
168 1 6.31146 2.60708 12.3883 0.00138625 0.00726207 -0.00349071
169 1 3.81193 2.72237 12.3565 0.00624406 -0.00059316 0.00800324
170 1 5.04105 0.845495 13.6321 -0.00153048 -0.000370116 0.00204868
171 1 2.55652 21.383 12.3191 -0.00481335 -0.00667546 0.00340642
172 1 3.80644 1.76306 13.6456 0.00107537 -0.00185076 -1.63067e-05
173 1 1.28443 1.77797 13.6091 0.00255883 -0.00317922 -0.0104775
174 1 2.51774 21.3623 14.8694 -0.00415231 -0.0063455 -0.00256078
175 1 2.53645 0.90305 13.6086 -0.00197415 0.000752069 -0.0087819
176 1 3.73154 2.66677 14.835 -0.00474395 0.00713047 -0.00118455
177 1 1.26056 2.68358 14.7979 -0.0034991 0.00129354 0.00129153
178 1 2.51333 0.850264 16.1243 -0.00246465 0.00363356 -0.00788603
179 1 0.0187946 21.3868 14.8211 -0.00175355 0.00378915 -0.00204084
180 1 1.23709 1.7221 16.0775 -0.00853391 -0.0014007 -0.00583047
181 1 20.1373 21.3681 17.322 0.000857788 0.0101496 -0.00372863
182 1 20.1299 0.843185 16.0801 -0.00397999 -0.00277308 0.0119573
183 1 1.2941 2.59557 17.3284 -0.00029978 -0.00338687 0.00622535
184 1 0.0400702 0.821657 18.5717 -0.00350476 -0.0070263 -0.0118329
185 1 18.8816 1.80205 1.19613 -0.0016217 0.00649192 -0.00212769
186 1 18.9154 2.67005 2.42673 0.000890605 0.000156965 -0.00755512
187 1 17.6262 0.00881705 2.43966 0.00218266 0.00448155 0.00540945
188 1 18.8446 1.80773 3.67802 -0.0036163 0.00558934 0.0037708
189 1 16.2983 1.76337 3.69434 -0.00152185 0.00167893 0.00141853
190 1 17.6165 0.024327 4.93835 -0.000606382 3.7543e-05 0.0045305
191 1 17.6007 0.876773 3.69351 0.00636577 0.000304131 0.0010088
192 1 18.8685 2.73249 4.89969 0.00741351 0.00349353 -0.00567041
193 1 16.407 2.70905 4.87027 -0.00919118 0.00601627 0.0017266
194 1 17.6207 0.870737 6.20416 -0.000605745 -0.00333022 0.00425108
195 1 15.1408 21.3909 4.93666 0.00968275 -0.00291125 0.00875054
196 1 16.4137 1.81161 6.17325 -0.00512117 -0.00207416 -0.00565345
197 1 13.9354 1.79444 6.13434 0.0029703 0.00357755 -0.00899438
198 1 15.0566 21.3821 7.48636 0.0024446 0.00187854 0.00184711
199 1 15.1375 0.920221 6.20009 0.00216211 0.00221224 0.00952963
200 1 16.4016 2.71355 7.4118 -0.00118468 0.000303434 0.00534344
201 1 13.9053 2.70442 7.41337 0.0138599 0.00207559 -0.00131025
202 1 15.1314 0.872052 8.70323 -0.0025118 0.00333789 -0.00764199
203 1 12.5762 0.0254199 7.41245 -0.00529807 0.00662799 -0.00221375
204 1 13.8053 1.75482 8.62773 -0.00948749 -0.0027655 0.00101053
205 1 11.3662 1.82308 8.63974 -0.00239857 0.000161249 0.00200981
206 1 12.6213 0.00778367 9.87839 -0.00821817 3.97139e-05 0.00447342
207 1 12.6036 0.903351 8.61613 -0.00248558 -0.00464877 -0.00814869
208 1 13.8479 2.70399 9.87193 -0.00338442 -0.00723458 -0.00436586
209 1 11.3071 2.68451 9.89753 -0.00093409 0.0032906 -8.40461e-05
210 1 12.6066 0.950662 11.1218 0.00680689 0.00154471 4.71519e-05
211 1 10.0425 0.0752368 9.92634 -0.00251611 -0.00698965 0.00596523
212 1 11.274 1.77848 11.1251 -0.000578734 0.00260117 -0.0030931
213 1 8.74688 1.75083 11.093 -0.00414823 -0.00105591 0.00122037
214 1 10.0747 21.3642 12.3743 0.00648875 0.00747501 -0.00125657
215 1 10.0212 0.90555 11.1769 -0.00238505 0.00821904 -0.00692944
216 1 11.2882 2.73923 12.3142 -0.00603361 -0.00199592 0.00178643
217 1 8.76665 2.65584 12.321 0.00595803 0.00375916 0.00833616
218 1 10.0623 0.875324 13.6299 0.00520065 0.0117664 -0.00257138
219 1 7.57893 21.3526 12.3967 0.00133659 -0.00216625 -0.00405597
220 1 8.79838 1.78034 13.5726 0.00157525 0.00520608 -0.00231337
221 1 6.31975 1.67636 13.6203 0.000870849 -0.00710674 -0.00385479
222 1 7.58564 21.3773 14.8785 -0.00237584 0.00548177 0.004555
223 1 7.61042 0.871772 13.6387 0.0101054 0.000961847 0.0010385
224 1 8.76877 2.73941 14.818 0.00457322 0.00635511 -0.00469029
225 1 6.32491 2.70035 14.8144 0.00013016 0.0118761 0.000466335
226 1 7.58608 0.920196 16.0836 -0.00339507 0.0047217 0.00373067
227 1 5.03511 21.3407 14.8673 -0.000113591 0.00597553 -0.00249752
228 1 6.32765 1.83047 16.0621 -0.00639019 0.00396276 0.00604849
229 1 3.75335 1.78724 16.0611 -4.09444e-05 -0.00100227 -0.00642491
230 1 5.09195 0.00897692 17.3316 -0.000148441 0.000721968 0.00447268
231 1 5.05863 0.906207 16.0481 -0.00148961 -0.000901842 -0.00154021
232 1 6.31148 2.68372 17.326 -0.00697228 -0.00138126 0.00382316
233 1 3.7847 2.60924 17.3537 0.00348275 0.00328809 -0.00125583
234 1 5.09388 0.869842 18.5535 -0.0029672 -0.00157061 -0.00141274
235 1 2.54907 21.3435 17.3526 -0.00427026 0.00506714 0.000603037
236 1 3.81626 1.77702 18.668 0.00275668 0.00155269 -0.00229408
237 1 1.3255 1.77634 18.5873 0.0040338 -0.0132872 0.00266409
238 1 2.57557 0.0458308 19.8958 0.00371977 -0.00548851 0.00619718
239 1 2.57154 0.855168 18.6338 -0.00281074 -0.00390509 -0.00190004
240 1 3.7656 2.66575 19.8676 -7.97749e-05 -0.00502254 -0.00655844
241 1 1.29549 2.68454 19.835 -0.000582793 0.00724183 9.54728e-05
242 1 2.5582 0.921047 21.102 0.00294433 -0.00437535 -0.0031348
243 1 0.0394236 0.00138477 19.811 0.000337179 -0.00462018 -0.00656666
244 1 1.25321 1.77649 21.1044 0.00636061 -0.00859765 -0.0105562
245 1 20.1677 0.0137114 22.3183 0.00337354 -0.00589121 0.000495497
246 1 20.13 0.908999 21.0349 0.00463215 -0.00831897 -0.00165151
247 1 1.23771 2.67296 22.3494 -0.000723195 0.00180936 0.000387894
248 1 0.0539141 0.930392 23.5911 -0.00150876 -0.000782633 -0.00548155
249 1 18.9111 1.77607 6.10021 0.0037165 -0.00589452 -0.00276144
250 1 18.9148 2.67835 7.40402 -0.00409057 -0.00646128 -0.00216066
251 1 17.6273 21.3575 7.47525 0.000406912 0.00165038 -0.00953943
252 1 18.8733 1.82488 8.5989 -0.00365679 -0.00396051 0.00590454
253 1 16.3894 1.7864 8.60104 -0.0052519 -0.0117883 -0.000308755
254 1 17.5608 0.0168302 9.92265 -0.000742156 0.00071005 -0.00423446
255 1 17.6281 0.93741 8.68041 0.0072764 0.000157512 -0.00319353
256 1 18.9354 2.66956 9.91711 -0.00352265 -0.00418786 -0.00535148
257 1 16.3651 2.63915 9.87019 -0.0124461 -0.000102669 0.00253137
258 1 17.6039 0.921042 11.1267 -0.0121541 -0.00278842 0.00124999
259 1 15.1279 21.3809 9.91854 0.00666875 -0.000165828 -0.000968496
260 1 16.3614 1.82627 11.0866 -0.00411842 -0.00202844 -0.00747079
261 1 13.8384 1.80714 11.1668 0.000417694 -0.000346003 -0.00411688
262 1 15.1577 0.0375437 12.381 -0.000108948 0.00552082 -0.000454252
263 1 15.1494 0.910411 11.1087 -0.00190602 -0.000128822 -0.000943936
264 1 16.3308 2.68649 12.2887 -0.00835923 -0.00149896 -0.0142725
265 1 13.8633 2.75403 12.3778 0.00638003 -0.000629048 -0.00116195
266 1 15.1217 0.95535 13.6241 -0.000979046 0.0053511 -0.0076105
267 1 12.6365 0.00976725 12.3333 -0.00125085 0.000737466 -0.00178842
268 1 13.8385 1.81091 13.6466 0.00729848 -0.00761316 -0.00700934
269 1 11.2789 1.83819 13.6228 -0.000771682 0.00346765 -0.00388696
270 1 12.6571 21.3913 14.85 0.00782643 0.000128045 -0.0103836
271 1 12.5963 0.952798 13.5862 -0.00375683 -0.00735123 -0.000555712
272 1 13.9263 2.66029 14.8363 -0.00223641 -0.00492254 -0.00634853
273 1 11.2838 2.7542 14.7926 0.00494382 0.00261992 -0.000216772
274 1 12.6324 0.88389 16.043 0.0108503 0.00567265 0.00218128
275 1 10.0564 21.3631 14.8597 -0.00149307 0.00201119 0.00107916
276 1 11.2446 1.76816 16.0644 -0.00504879 0.00203984 -0.00551072
277 1 8.80584 1.78217 16.0941 0.00295697 -0.00194371 0.00304672
278 1 10.1345 0.00976653 17.3471 0.000762854 0.00114832 -0.000369757
279 1 10.0922 0.918173 16.1147 0.000497483 -0.00162438 0.00101302
280 1 11.3407 2.66358 17.3163 -0.00583993 -0.000647244 0.00342286
281 1 8.83823 2.66643 17.3428 -0.000817207 0.00831227 -0.00148032
282 1 10.1395 0.93227 18.5519 -0.00279706 0.00982085 -0.00563088
283 1 7.63333 0.00953528 17.3094 -0.00858963 0.00124129 0.00304879
284 1 8.85817 1.80125 18.5675 0.00211003 0.0021688 -0.000385938
285 1 6.3624 1.72716 18.5752 0.00403144 -0.000214192 0.00658607
286 1 7.6254 0.0173617 19.8155 -0.00176409 0.00841135 0.00581514
287 1 7.59151 0.876609 18.5681 0.00591304 0.00360796 -0.000293981
288 1 8.82942 2.72311 19.7728 -0.0051624 0.000948181 0.00750398
289 1 6.32241 2.63611 19.8178 0.00077433 0.000582435 0.000850035
290 1 7.59621 0.934633 20.9997 -0.00543777 0.00159028 0.00188426
291 1 5.0812 21.3591 19.8537 -0.00483654 0.00921982 -0.00588793
292 1 6.33352 1.76386 21.0596 -0.00108095 0.00484719 -0.00455236
293 1 3.80969 1.86958 21.1239 -0.00178988 -0.00318386 0.0042812
294 1 5.06297 21.3796 22.3188 -0.00715826 -0.00791506 0.00335213
295 1 5.0651 0.879665 21.0632 0.000742183 0.00411042 0.00161597
296 1 6.35628 2.68577 22.2911 0.00282911 -0.00192441 -0.00654268
297 1 3.76236 2.67931 22.3359 -0.00415559 0.00887511 -0.00886463
298 1 5.09531 0.878104 23.5488 0.000631538 0.00484461 0.00466181
299 1 2.57128 0.00658005 22.3518 -0.00595174 0.00258864 -0.00265791
300 1 3.78912 1.7899 23.5973 -0.010304 0.00369895 -0.0014116
301 1 1.3882 1.8243 23.5635 -0.000724525 0.00156709 -0.00425941
302 1 2.55271 0.0426492 24.8087 -0.00126742 -0.00516716 -0.00473003
303 1 2.54752 0.926403 23.5329 0.0042722 -0.00431031 -0.00224891
304 1 3.84549 2.68761 24.8288 -0.000110258 -0.00229881 0.00455021
305 1 1.37819 2.68165 24.8114 -0.00146986 0.000537738 -0.0018605
306 1 2.57223 0.88878 26.017 -0.00146719 0.000459732 0.00497779
307 1 0.0270197 0.014109 24.8272 -0.00102657 0.00434105 0.000497819
308 1 1.30037 1.78607 26.0727 -0.000925509 -0.000513519 -0.00301828
309 1 0.0914373 0.0234961 27.3505 0.00728022 0.00344159 -0.000902857
310 1 0.0815209 0.906695 26.0431 -0.00525372 -0.00775746 0.00137524
311 1 1.33324 2.68223 27.2699 -0.00538586 0.00392831 -0.00452473
312 1 0.0308485 0.908166 28.5494 0.00422955 0.00573724 0.00470971
313 1 18.8642 1.81284 11.1333 0.00370924 0.00113095 0.00645131
314 1 18.9047 2.69875 12.357 0.00645452 0.0044684 0.00847801
315 1 17.6379 0.0128942 12.3703 -0.000661522 0.0040596 0.00113391
316 1 18.9 1.7334 13.5214 -0.000706717 0.00739152 0.00348461
317 1 16.4359 1.79172 13.554 0.0013611 0.00633746 0.00121231
318 1 17.6684 21.3831 14.8705 0.00278455 0.00580083 -0.00226899
319 1 17.7012 0.860571 13.586 0.00862004 0.00167226 -0.00430532
320 1 18.9324 2.66659 14.8543 -0.000752005 0.00298256 -0.00244112
321 1 16.4685 2.64266 14.8128 0.00329233 -0.00311233 0.00450354
322 1 17.6032 0.893965 16.0253 -0.00844016 -0.000593948 -0.00644193
323 1 15.1635 21.3656 14.8591 -0.00637248 -0.00424884 -0.00607668
324 1 16.3451 1.78743 16.0033 -0.00284812 -0.00634285 -0.0100837
325 1 13.9132 1.74714 16.0736 0.0131535 0.00375162 0.000861824
326 1 15.124 0.0581165 17.3494 0.00118382 0.00740796 0.00417781
327 1 15.1347 0.892291 16.1091 -0.00248862 0.00979212 -0.00285762
328 1 16.3698 2.67429 17.2819 0.00233079 -0.0177209 -0.0071579
329 1 13.8652 2.6719 17.3156 -0.000688401 -0.00299127 0.00135966
330 1 15.1234 0.903547 18.5293 0.00352808 -0.00938527 -0.00404297
331 1 12.5727 21.3596 17.2939 0.000536617 -0.00205367 -0.00305802
332 1 13.8588 1.78375 18.5526 0.00243695 -0.00636116 0.00218754
333 1 11.341 1.77853 18.5555 0.00476593 0.00277346 -0.00381644
334 1 12.5708 0.079112 19.8005 0.00585384 -0.00517153 -0.000781063
335 1 12.5798 0.895158 18.5532 -0.00298166 0.0133498 -0.00357652
336 1 13.8516 2.69131 19.8165 -0.000695025 -0.00471211 0.011063
337 1 11.3409 2.66736 19.7509 0.000217591 -0.000792041 -0.00167323
338 1 12.5802 0.948358 21.0666 0.00439658 -0.00483895 -0.00790621
339 1 10.0953 21.3917 19.8206 0.000187129 0.000482076 -0.00897475
340 1 11.3329 1.8335 21.0421 0.00844782 0.000800917 0.00343589
341 1 8.86999 1.77396 21.0944 -0.00239593 -0.0013617 0.00257804
342 1 10.0627 0.0107388 22.2794 0.00775973 0.00660651 0.0103994
343 1 10.089 0.930988 21.0609 0.000629776 -0.00313182 0.00436211
344 1 11.3997 2.69856 22.3006 0.00346316 0.00733663 0.00493052
345 1 8.83683 2.7007 22.2862 -0.00715496 -0.00417271 -0.000504903
346 1 10.103 0.915666 23.5249 0.00543584 -0.00623462 0.00292133
347 1 7.61555 0.0091283 22.2897 0.00131432 0.00941624 -0.00790219
348 1 8.8348 1.79133 23.5485 0.000626313 -0.000196011 0.00407456
349 1 6.32918 1.77092 23.5609 0.00123928 0.00522624 0.00604342
350 1 7.62217 0.0333591 24.7546 -0.000301599 0.000744196 0.000457119
351 1 7.58441 0.93508 23.583 -0.0020474 -0.0013533 -0.00621991
352 1 8.857 2.68082 24.8109 -0.00462657 -0.00521825 0.00556266
353 1 6.3346 2.68412 24.7722 -0.00402088 0.00473031 0.00449823
354 1 7.62489 0.915989 26.0431 -0.0038124 -0.00491344 -0.00188066
355 1 5.08359 0.0399032 24.8256 0.0126826 -0.000531524 -0.00258774
356 1 6.34733 1.80482 26.0506 -0.0133515 -0.00721629 -0.00325509
357 1 3.82236 1.79793 26.0392 0.00468583 0.000905449 -0.00406408
358 1 5.05638 0.053771 27.2853 -0.000599519 0.00636573 0.000180044
359 1 5.0896 0.938348 26.0022 -0.0066852 0.0141172 0.00320254
360 1 6.36006 2.66494 27.3296 -0.00752728 -0.00380529 -0.00483328
361 1 3.87445 2.72561 27.3358 0.00255794 0.00667699 -0.00503498
362 1 5.06426 0.921816 28.5316 0.00560391 0.00350097 0.00183584
363 1 2.56677 0.036484 27.2966 -0.00514428 -0.00115376 0.000507637
364 1 3.80242 1.78821 28.6184 -0.00599816 -0.00090987 0.00428366
365 1 1.27682 1.7875 28.5921 0.00631478 -0.00734578 -0.00112813
366 1 2.57123 21.37 29.8178 0.00459953 0.00631113 -0.00265713
367 1 2.54316 0.90295 28.5621 -0.00378292 -0.000664197 -0.00427572
368 1 3.83827 2.65764 29.8609 -0.00645097 -0.00161334 -0.00666488
369 1 1.3227 2.67791 29.8435 -0.00165329 -0.00118025 -0.00377476
370 1 2.56911 0.862932 31.0639 0.00228599 0.00994518 -0.00232399
371 1 0.0568838 0.0517354 29.7927 -0.00107727 -0.000683513 -0.000682923
372 1 1.30682 1.80846 31.0681 -0.00440753 -0.00052285 -0.00317008
373 1 0.0378796 21.3871 32.2534 0.00121591 -0.00315072 -0.00477793
374 1 0.0640223 0.923704 31.0022 0.00646445 -8.7581e-05 -0.000358539
375 1 1.38891 2.7085 32.272 0.00937121 -0.00235703 -0.00294288
376 1 0.0535623 0.894378 33.5462 0.000474083 0.00419424 0.00933997
377 1 18.8432 1.78415 16.0516 -0.000786781 0.00539473 -0.00187321
378 1 18.9054 2.63675 17.3034 0.00206334 0.0018365 -0.00151983
379 1 17.6416 0.0312622 17.3525 0.00116366 -0.000351319 -0.00816971
380 1 18.9391 1.74222 18.5885 -0.00275057 -0.00358736 0.0120326
381 1 16.378 1.78138 18.5642 -0.000763031 -0.00547705 -0.00632933
382 1 17.6628 21.3674 19.8755 -0.00532497 0.00282646 -0.00316455
383 1 17.6281 0.936788 18.6139 0.00353808 0.000786988 0.00124117
384 1 18.912 2.67214 19.7953 0.000686282 0.0020635 0.00936176
385 1 16.3421 2.68868 19.7834 0.00248338 -0.00378857 -0.00747499
386 1 17.6186 0.858247 21.0401 -0.00479324 0.0013088 -0.00197506
387 1 15.0974 0.0998195 19.8036 0.00178722 0.00103927 -0.000843623
388 1 16.4087 1.7944 21.0126 0.00755361 -0.000228814 -0.00570566
389 1 13.8615 1.78216 21.0706 0.00212474 0.002814 -0.00948744
390 1 15.2102 21.3741 22.2794 0.00300257 -0.00294527 -0.00137637
391 1 15.1529 0.908157 21.0407 -0.00314844 0.00514305 0.000312517
392 1 16.445 2.68173 22.2694 -0.00782583 -0.006885 -0.00272818
393 1 13.9086 2.68033 22.3011 -0.00442862 -0.00176675 -0.00357058
394 1 15.234 0.844299 23.507 -0.000352793 -0.00113621 -0.00293026
395 1 12.6364 0.0203132 22.3061 -0.000517045 -0.00178962 0.000477132
396 1 13.946 1.7059 23.5232 6.12212e-05 0.000517955 -0.00883018
397 1 11.415 1.77009 23.5468 -0.00183144 -0.00141947 -0.00198413
398 1 12.5955 0.0501162 24.8029 -0.000587975 0.000319139 0.000678186
399 1 12.6292 0.924349 23.5168 -0.00202713 -0.00429586 -0.00670961
400 1 13.9188 2.63625 24.7461 -0.00167314 0.00048999 0.00211224
401 1 11.3838 2.68787 24.7644 0.00336467 0.00477896 -0.00147565
402 1 12.6592 0.905027 26.0369 -0.00435173 -0.0030294 0.00570901
403 1 10.1335 0.0258803 24.7915 -0.00512373 -0.00765972 -0.00930187
404 1 11.3797 1.78036 26.044 -0.0032166 -0.0010147 -0.00314465
405 1 8.87961 1.78953 26.0221 -0.00203772 0.00279058 -0.000481359
406 1 10.1809 21.3842 27.3116 0.00650787 -0.0036126 0.00340387
407 1 10.1332 0.878493 26.0808 -0.00177498 -0.00413361 0.00408426
408 1 11.4249 2.69858 27.2806 0.00321995 0.00925384 -0.00320357
409 1 8.88065 2.75036 27.2767 -0.00223117 0.00664981 0.0058328
410 1 10.1067 0.958617 28.5274 0.00223824 0.00406178 -0.00778979
411 1 7.63318 0.0517505 27.2631 -0.00401535 0.000988727 0.000525084
412 1 8.90613 1.85776 28.5199 -0.00126084 -0.00874782 -0.0065307
413 1 6.33139 1.79501 28.5356 -0.0066036 -0.000892701 0.00641632
414 1 7.57024 0.040408 29.7982 0.00156274 0.0070935 0.0055336
415 1 7.6357 0.953241 28.562 -0.00646113 -0.000683521 -0.000356509
416 1 8.89365 2.69431 29.779 -0.0116511 0.00370902 0.00538968
417 1 6.3587 2.67244 29.7887 0.00132959 -0.00560917 -0.00536293
418 1 7.62438 0.930384 31.066 -0.00460467 -0.0022672 0.00650262
419 1 5.09805 0.0279599 29.8054 0.00188746 0.00346849 0.000587711
420 1 6.33723 1.79926 31.0821 0.010152 -0.00488943 -0.00311842
421 1 3.87793 1.71153 31.1034 0.00679294 -0.00409671 -0.000215088
422 1 5.13235 0.0314779 32.3562 -0.00282336 0.0065587 0.00642528
423 1 5.10726 0.868057 31.0696 0.00252086 0.000957205 -0.00385939
424 1 6.39665 2.63746 32.3793 0.00510038 -0.00211759 0.00304827
425 1 3.88389 2.63655 32.2873 -0.00816976 -0.00222254 -0.000159866
426 1 5.15883 0.884835 33.6125 -0.000596745 0.0046277 0.00230633
427 1 2.59506 0.0190161 32.2854 0.00788921 -5.88943e-05 -0.0041313
428 1 3.93391 1.77244 33.5644 -0.00108508 -0.00531512 -0.00284721
429 1 1.29491 1.71908 33.5057 0.00636267 -0.000416753 -0.00797043
430 1 2.6136 21.3521 34.8219 -0.0015098 0.00389514 0.0111707
431 1 2.60771 0.926679 33.5895 0.00038461 -0.00182771 -0.00131734
432 1 3.88158 2.6745 34.7783 7.1157e-05 0.00159081 0.0050503
433 1 1.33502 2.72561 34.6983 -0.00829827 -0.00390403 0.00145074
434 1 2.59495 0.952555 36.0261 -0.00593991 0.00413073 0.00528529
435 1 0.0768612 21.3704 34.7538 -0.0130587 0.0068831 -0.00277628
436 1 1.33675 1.82976 36.0316 -0.00176665 -0.00633645 0.0050272
437 1 0.185269 21.3022 37.1246 -0.00114662 0.000644477 0.00594915
438 1 0.100627 0.958499 36.0217 -0.00643499 0.00246981 -0.0075646
439 1 1.34113 2.78975 37.1738 0.00148778 1.40144e-05 0.0010285
440 1 18.8968 1.77589 21.065 0.00453055 -0.00711556 0.00379174
441 1 18.9568 2.65428 22.2435 0.00558272 0.000531192 0.00276939
442 1 17.6348 0.00033309 22.3165 -0.000646892 0.00250916 -0.00691762
443 1 18.9804 1.83946 23.523 -0.00237102 -0.00047273 0.00715385
444 1 16.4804 1.76548 23.5085 -0.00105793 0.00615545 -0.00267991
445 1 17.6989 0.0196024 24.7581 0.015575 0.00125489 0.00251592
446 1 17.719 0.932643 23.5119 0.00612958 -0.000985593 -0.00520634
447 1 18.9132 2.7292 24.7674 -0.000853158 -0.00082021 0.00622745
448 1 16.4116 2.65052 24.8363 0.00821682 -0.00301765 0.00369543
449 1 17.7266 0.853886 26.0443 0.00204999 -0.00158336 0.00361735
450 1 15.1976 0.0246842 24.7801 -7.94058e-05 -0.00312722 -0.00288981
451 1 16.4453 1.74202 26.0192 0.00448026 0.00946612 -0.00341356
452 1 13.9106 1.77547 26.0164 0.00241864 -0.00305317 0.00877668
453 1 15.1541 21.3923 27.2587 0.000432094 -0.000547809 -0.00197334
454 1 15.1472 0.895219 26.0346 0.00102799 -0.00133621 0.000987491
455 1 16.3909 2.64049 27.2852 0.0019096 -0.00169858 -0.00601719
456 1 13.9352 2.72544 27.235 -0.00348582 0.00635138 0.00127864
457 1 15.1782 0.948422 28.5278 0.0131212 -0.000538316 -0.00893222
458 1 12.6662 21.3645 27.278 -0.00158538 0.0047297 -0.00111202
459 1 13.9444 1.78015 28.508 0.00161087 -0.0027258 -0.00185569
460 1 11.4078 1.78562 28.508 -0.00724264 -0.00168419 -0.0063854
461 1 12.6067 21.3863 29.7625 0.00209148 -0.0012327 0.00389491
462 1 12.6771 0.86631 28.5222 -0.000667136 -0.000990132 -0.000183194
463 1 13.9292 2.69821 29.8047 0.00272594 -0.00150984 0.000515168
464 1 11.4304 2.68872 29.8079 -0.00455269 -0.0027198 0.00341711
465 1 12.5997 0.964994 31.0135 0.00149545 0.00772989 -0.0014026
466 1 10.0971 0.0303941 29.8145 0.00525388 0.0052754 -0.000716308
467 1 11.3914 1.80262 31.0295 -0.00632795 -0.00506685 0.0071791
468 1 8.84554 1.79464 31.0379 0.00329498 0.000235244 0.00235181
469 1 10.142 21.3756 32.3102 0.00203274 0.00402523 -0.00330855
470 1 10.1734 0.905941 31.0244 -0.00873136 -0.00644472 -0.00575627
471 1 11.3801 2.6764 32.2667 0.013298 0.00276748 0.00165556
472 1 8.87656 2.68637 32.3351 -0.00109577 0.00334166 0.00106479
473 1 10.1474 0.899853 33.562 0.0044102 0.00270077 0.00953671
474 1 7.63471 0.0409858 32.2941 -0.0014569 0.00577722 -0.00725728
475 1 8.92169 1.77404 33.5651 0.00145757 -0.00325657 -0.00238235
476 1 6.40295 1.79141 33.6443 0.013852 0.00551841 -0.00606232
477 1 7.64582 21.3632 34.781 0.000708256 -2.60407e-05 0.00117391
478 1 7.66153 0.897874 33.5888 0.00897788 -0.00143667 -0.00399766
479 1 8.89794 2.7295 34.8346 0.00195137 -0.00764988 -0.00112284
480 1 6.35727 2.75336 34.857 7.61415e-05 -0.00576211 0.00519718
481 1 7.72571 0.922512 36.1273 0.00125804 -0.00366579 0.00260818
482 1 5.12768 21.3612 34.7866 0.00659461 -0.000741976 -0.0017363
483 1 6.43898 1.83787 36.1229 0.004895 0.00208522 -0.0104488
484 1 3.88823 1.81904 36.0753 -0.00724464 -0.000585401 0.00315779
485 1 5.11418 21.3817 37.1748 -0.00226616 -0.00329188 -0.000995847
486 1 5.12062 0.93594 36.0262 -0.00562502 0.00373126 -0.00695753
487 1 6.43775 2.87219 37.2216 -0.000491358 0.00264837 -0.00253786
488 1 3.85994 2.81502 37.1897 -0.000169136 -6.98734e-05 -0.0103659
489 1 2.64593 21.2862 37.1533 -0.00286691 0.0100834 -4.25387e-05
490 1 18.9272 1.80736 26.0708 0.000779127 0.00129637 0.00440262
491 1 18.9604 2.69318 27.2632 0.0161042 0.00282272 0.00022663
492 1 17.698 0.0160273 27.285 0.00252219 0.005578 -0.00209841
493 1 18.9227 1.80065 28.5227 9.15403e-05 0.00466057 -0.00392808
494 1 16.4133 1.79885 28.5058 -0.00182011 0.00173786 -0.00515808
495 1 17.6769 21.3849 29.7648 -0.00864757 0.000469405 -0.00647948
496 1 17.6664 0.899167 28.5212 0.00158581 -0.00190682 -0.000263286
497 1 18.957 2.73318 29.7884 -0.00172492 -0.00405452 0.00586187
498 1 16.4339 2.70164 29.7556 0.00207518 -0.00463416 0.000720669
499 1 17.7259 0.937952 31.0065 0.000669288 -0.00115642 -0.00206827
500 1 15.1783 0.0238802 29.7893 -0.00580476 -0.00805858 -0.00301009
501 1 16.4359 1.81316 31.0455 0.00170539 -0.00256852 -0.00333355
502 1 13.8934 1.80707 31.0282 -0.00201273 0.00235994 0.000765332
503 1 15.1595 21.355 32.2777 -0.00244162 -0.00246818 0.0033263
504 1 15.1939 0.881624 31.007 0.00133511 -0.000913163 -0.00323545
505 1 16.4105 2.63466 32.2791 -0.00441301 -0.00113525 0.00680017
506 1 13.9139 2.65308 32.2351 0.00115027 0.00100901 0.00334348
507 1 15.1511 0.86485 33.5209 -0.00390425 -0.0016434 -0.0047728
508 1 12.617 0.0482491 32.2464 -0.00711641 0.0025107 0.00148212
509 1 13.9371 1.83554 33.4894 -0.00213076 -0.00533133 0.00498755
510 1 11.3725 1.79072 33.5507 -0.00375868 -0.00641266 -0.010407
511 1 12.6564 0.0289636 34.7764 -0.00545897 -0.0121112 -0.000829241
512 1 12.6724 0.909115 33.527 -0.00342119 -0.00289008 0.00120186
513 1 13.927 2.64056 34.8063 -0.000133353 -0.00861701 0.00389636
514 1 11.3887 2.71706 34.7021 0.00252907 0.00474997 -0.00265057
515 1 12.662 0.906047 36.0729 -0.000112282 0.0038328 -0.00278784
516 1 10.164 0.0404837 34.763 0.00208588 0.00210607 0.00123533
517 1 11.445 1.82511 36.035 0.000440976 -0.00810425 -0.00184744
518 1 8.93941 1.79125 36.1443 -0.00328231 -0.00458708 -0.00211075
519 1 10.1517 21.3918 37.1545 0.000164429 0.00981392 -0.00312888
520 1 10.1599 0.921909 36.0727 -0.000703955 -0.0066198 0.00152321
521 1 11.4466 2.79373 37.1557 -0.00772817 -0.000222037 0.00445188
522 1 8.94459 2.86105 37.2095 -0.00738528 -0.000381666 -0.00463671
523 1 7.66833 21.3349 37.2136 -0.00599389 -0.00267298 -0.00563593
524 1 18.9696 1.8055 30.9982 0.00164803 0.00323212 0.00494527
525 1 18.9588 2.75242 32.2647 0.00226516 0.00493155 -0.00410871
526 1 17.6462 21.3716 32.2163 -0.00807997 0.00238207 0.000242882
527 1 18.8959 1.83689 33.5225 0.00113496 0.00204883 -0.00823411
528 1 16.4176 1.78482 33.468 0.00875663 -0.00337719 -0.000681514
529 1 17.703 0.0176763 34.7204 0.00397592 0.00119658 -0.00364639
530 1 17.7158 0.932631 33.4677 -0.00464322 -0.00542938 -0.00359737
531 1 18.9444 2.68523 34.7864 0.00438236 0.00147655 0.00258176
532 1 16.4354 2.69801 34.7517 0.00257141 -0.00564018 0.00717734
533 1 17.7237 0.943712 35.983 0.00119489 0.00469146 -0.00193277
534 1 15.191 21.3894 34.7698 -0.00509248 -3.8495e-05 -0.0112944
535 1 16.4777 1.79051 36.0066 -0.00233008 -0.00336985 -0.00988058
536 1 13.9951 1.70672 36.0228 7.3301e-05 -0.00179927 0.00357767
537 1 15.1791 21.3872 37.1478 0.000373499 0.0036661 -0.00350918
538 1 15.2383 0.95055 36.0086 0.00234993 0.00484279 0.00059765
539 1 16.523 2.75295 37.1249 0.00960433 0.00578362 0.00120857
540 1 13.9709 2.84938 37.1061 -0.000115505 -0.000236313 -0.00333817
541 1 12.6795 21.3165 37.2519 -0.00222889 -0.00555169 -0.00832349
542 1 18.9588 1.79276 36.0253 -0.00640287 0.00698519 0.00191112
543 1 18.9693 2.77463 37.1661 -0.00413468 -0.00682004 -0.0056605
544 1 17.7297 21.3886 37.1188 -0.0116464 -0.00475418 -0.00305907
545 1 2.52111 4.45673 -3.78166 0 0 0
546 1 1.26055 5.34808 -3.78166 0 0 0
547 1 0 3.56539 -2.52111 0 0 0
548 1 0 4.45673 -3.78166 0 0 0
549 1 1.26055 6.23943 -2.52111 0 0 0
550 1 0 4.45673 -1.26055 0 0 0
551 1 7.56333 4.45673 -3.78166 0 0 0
552 1 6.30277 5.34808 -3.78166 0 0 0
553 1 3.78166 5.34808 -3.78166 0 0 0
554 1 5.04222 3.56539 -2.52111 0 0 0
555 1 5.04222 4.45673 -3.78166 0 0 0
556 1 6.30277 6.23943 -2.52111 0 0 0
557 1 3.78166 6.23943 -2.52111 0 0 0
558 1 5.04222 4.45673 -1.26055 0 0 0
559 1 2.52111 3.56539 -2.52111 0 0 0
560 1 3.78166 5.34808 -1.26055 0 0 0
561 1 1.26055 5.34808 -1.26055 0 0 0
562 1 2.55248 3.54527 -0.0396194 8.82341e-05 -0.0054977 -0.00510566
563 1 2.52111 4.45673 -1.26055 0 0 0
564 1 3.79702 6.28864 0.00665972 -0.00611157 -0.00352824 0.00362084
565 1 1.20627 6.18768 0.0025788 -0.00172954 0.00314721 0.00578097
566 1 2.54966 4.45955 1.21281 0.00261367 0.00754111 -0.000788698
567 1 0.00067916 3.57602 -0.0693245 0.0002549 0.000821702 -0.000942968
568 1 1.28547 5.31771 1.2151 -0.00119555 -0.00550472 -0.00380964
569 1 20.1502 3.5373 2.41941 0.00126115 -0.00393942 0.00178545
570 1 0.044992 4.42075 1.16231 -0.00227061 0.00529321 -0.000400271
571 1 1.22091 6.26444 2.44765 -0.00150071 -0.000665638 -0.00367918
572 1 20.1401 4.48283 3.67785 0.00205299 0.000755079 -0.00135479
573 1 12.6055 4.45673 -3.78166 0 0 0
574 1 11.345 5.34808 -3.78166 0 0 0
575 1 8.82388 5.34808 -3.78166 0 0 0
576 1 10.0844 3.56539 -2.52111 0 0 0
577 1 10.0844 4.45673 -3.78166 0 0 0
578 1 11.345 6.23943 -2.52111 0 0 0
579 1 8.82388 6.23943 -2.52111 0 0 0
580 1 10.0844 4.45673 -1.26055 0 0 0
581 1 7.56333 3.56539 -2.52111 0 0 0
582 1 8.82388 5.34808 -1.26055 0 0 0
583 1 6.30277 5.34808 -1.26055 0 0 0
584 1 7.57431 3.56734 -0.0370337 0.000313547 -0.0043733 0.0018956
585 1 7.56333 4.45673 -1.26055 0 0 0
586 1 8.80155 6.25909 0.0115018 0.00116636 0.00260067 -0.00243671
587 1 6.32558 6.25253 -0.0336938 0.00106782 0.00103699 0.0010427
588 1 7.57694 4.46452 1.19739 -0.00289454 -0.00244982 0.00602355
589 1 5.04697 3.5217 -0.0434493 0.00812176 -0.00850052 -0.00704928
590 1 6.25944 5.37932 1.1789 -0.00450588 0.00479265 -0.00331718
591 1 3.82064 5.31022 1.17314 0.00394919 0.00422136 0.000731052
592 1 5.0607 3.62188 2.44579 0.00246202 0.00394081 -0.00388697
593 1 5.04198 4.46668 1.14575 -0.00168103 0.00134314 -0.00450253
594 1 6.3125 6.22764 2.38949 -0.000900954 0.00357594 -0.00237581
595 1 3.74333 6.28479 2.42664 0.00637008 0.00220681 0.00111356
596 1 5.03035 4.47715 3.71126 0.00176749 0.00135492 0.00321928
597 1 2.56816 3.60548 2.466 -0.00659348 -0.00717478 -0.00166301
598 1 3.87443 5.37465 3.68074 -0.00229297 0.00256672 -0.00542089
599 1 1.24489 5.40976 3.69516 -0.0084834 0.00221684 -0.00165132
600 1 2.54661 3.57418 4.89832 0.00589922 0.00187764 -0.00281923
601 1 2.51226 4.52035 3.66722 -0.00305856 0.00149018 0.00325788
602 1 3.84886 6.28111 4.90804 -0.00223678 -0.00422177 -0.00725725
603 1 1.23048 6.30752 4.97941 0.0039455 -0.00791386 -0.00803918
604 1 2.48345 4.43654 6.13766 0.00322701 0.000246004 -0.000817711
605 1 0.0326968 3.61635 4.93191 -0.00187306 0.0039108 -0.00810167
606 1 1.27473 5.31598 6.17012 -0.00678526 -0.00180967 -0.00190786
607 1 0.0288977 3.51685 7.45018 0.00989932 -0.00229779 -0.00444108
608 1 0.00100449 4.47818 6.21434 -0.00434763 -0.00241117 0.00399165
609 1 1.29316 6.25867 7.34515 -0.00881016 -0.000107678 -0.00319497
610 1 0.0657784 4.41925 8.62653 -0.00532111 -0.00930009 -0.00517579
611 1 17.6478 4.45673 -3.78166 0 0 0
612 1 16.3872 5.34808 -3.78166 0 0 0
613 1 13.8661 5.34808 -3.78166 0 0 0
614 1 15.1267 3.56539 -2.52111 0 0 0
615 1 15.1267 4.45673 -3.78166 0 0 0
616 1 16.3872 6.23943 -2.52111 0 0 0
617 1 13.8661 6.23943 -2.52111 0 0 0
618 1 15.1267 4.45673 -1.26055 0 0 0
619 1 12.6055 3.56539 -2.52111 0 0 0
620 1 13.8661 5.34808 -1.26055 0 0 0
621 1 11.345 5.34808 -1.26055 0 0 0
622 1 12.5811 3.59297 -0.0398681 0.00369065 -0.00878139 0.00449865
623 1 12.6055 4.45673 -1.26055 0 0 0
624 1 13.8956 6.24151 -0.0324076 0.000271894 -0.00154502 -0.00488619
625 1 11.3026 6.26078 -0.0441013 -0.000399583 0.00192642 0.00488577
626 1 12.6011 4.46679 1.19787 -0.0067454 -0.00565761 -0.00511348
627 1 10.0773 3.55353 0.00618175 -0.00152535 -0.00375688 -0.00384245
628 1 11.3386 5.34101 1.20347 -0.00189268 0.0016782 -0.00183935
629 1 8.82792 5.35229 1.15162 0.00134174 0.00373526 -0.00260487
630 1 10.0495 3.57374 2.4119 -0.00170755 0.00360857 -0.00331756
631 1 10.0247 4.47161 1.25418 -0.00186263 0.00521914 0.0072133
632 1 11.341 6.22199 2.45124 -0.00552618 0.00244348 -0.00624472
633 1 8.88455 6.22921 2.44797 -0.00195237 0.0045966 -0.00557069
634 1 10.119 4.47165 3.71089 -0.00156187 0.00422758 0.00276359
635 1 7.58402 3.55984 2.45813 -0.0020826 0.00639765 -0.000644626
636 1 8.82895 5.35231 3.68929 0.000247454 -0.00239591 0.00143939
637 1 6.3092 5.31927 3.64898 -0.00565725 0.000778591 -0.0033667
638 1 7.57695 3.56502 4.95673 0.00197927 -0.00537282 -0.00709032
639 1 7.56965 4.45117 3.72932 0.0054055 0.000473668 0.00315322
640 1 8.76007 6.20403 4.89264 -0.000932777 -0.00729058 -0.00364104
641 1 6.28514 6.29412 4.89623 0.000188027 0.00123536 -0.0120581
642 1 7.49573 4.47531 6.24331 0.00328496 -0.00126759 -0.00386702
643 1 5.00638 3.5679 4.91592 -0.00066587 0.000716145 0.00357423
644 1 6.26778 5.38419 6.15719 0.000162457 -0.00499098 -0.00210682
645 1 3.7695 5.32733 6.15169 -0.00190359 -0.000971428 0.00261306
646 1 5.03727 3.60251 7.41615 -0.00359031 -0.00206201 -0.00173908
647 1 5.03532 4.47577 6.1512 -0.00263769 0.000788663 -0.00154408
648 1 6.29392 6.22162 7.3819 -0.00772229 -0.00265526 0.000704297
649 1 3.81089 6.21533 7.43169 0.0094064 -0.00128394 0.00101501
650 1 5.06215 4.42681 8.67985 0.00275913 0.0022271 -0.00158234
651 1 2.51937 3.55776 7.42935 0.00438156 0.00340877 0.00233503
652 1 3.84687 5.35897 8.62221 -5.54913e-06 -0.00251539 -0.00691457
653 1 1.31255 5.38652 8.68052 -0.0019212 -0.0106557 -0.00636924
654 1 2.54222 3.56388 9.89016 0.00131125 -0.00543085 -2.19086e-05
655 1 2.54499 4.41068 8.671 0.000191896 0.00377389 0.000950882
656 1 3.80311 6.24108 9.93961 0.00783272 -0.0101346 -0.010165
657 1 1.31626 6.26681 9.87756 -0.00228246 0.00857484 0.00441721
658 1 2.57498 4.46597 11.1601 -0.00311827 -0.00362706 -0.0064493
659 1 0.0342573 3.54288 9.86702 0.00376309 -0.00547003 -0.00169462
660 1 1.26379 5.29988 11.1128 -0.00530684 -0.000691362 0.0068108
661 1 0.0239966 3.53022 12.3628 0.0015135 -0.000735626 -0.00429111
662 1 0.0483426 4.40441 11.1252 0.0054991 -0.00490507 -0.0111147
663 1 1.25399 6.25811 12.3387 0.00397273 0.0103071 -0.00689131
664 1 20.1618 4.46778 13.6115 -0.00212846 -0.00327196 0.000930805
665 1 18.9083 5.34808 -3.78166 0 0 0
666 1 18.9083 6.23943 -2.52111 0 0 0
667 1 17.6478 3.56539 -2.52111 0 0 0
668 1 18.9083 5.34808 -1.26055 0 0 0
669 1 16.3872 5.34808 -1.26055 0 0 0
670 1 17.6484 3.52351 -0.0311789 0.00125813 -0.00577126 0.00101628
671 1 17.6478 4.45673 -1.26055 0 0 0
672 1 18.8607 6.18619 -0.0211 0.0023989 0.01217 1.093e-05
673 1 16.3791 6.23973 0.00679382 -0.000228789 -0.00674153 -0.00742385
674 1 17.6896 4.45274 1.21467 0.00190761 -0.00140198 0.00373019
675 1 15.1432 3.60684 0.0211865 0.00407371 -0.00323738 -0.00243323
676 1 16.3638 5.35313 1.20925 0.00726208 0.00263846 0.00319393
677 1 13.8776 5.28214 1.17109 0.00557566 0.00110632 -0.00820785
678 1 15.1578 3.52919 2.45416 0.0015187 0.00669386 -0.00296885
679 1 15.1355 4.45008 1.22118 -0.00408067 -0.00182269 -0.00458574
680 1 16.4294 6.24471 2.4265 0.00132273 0.00357608 0.000663263
681 1 13.9013 6.24584 2.42978 0.000831451 -0.000732761 -0.0120136
682 1 15.1694 4.50696 3.67124 0.00234333 -0.00499603 0.00477728
683 1 12.6132 3.55689 2.42197 0.00222316 -0.00689932 0.0119331
684 1 13.9151 5.33444 3.65488 -0.00119027 0.000502675 -0.000218675
685 1 11.3661 5.34797 3.69801 0.00885013 -0.00147008 0.00889785
686 1 12.6182 3.60336 4.89427 -0.00201445 0.00780452 -0.00403697
687 1 12.6534 4.48441 3.73729 0.00096358 -0.000555019 -0.00759796
688 1 13.8765 6.19384 4.94074 -0.00216066 0.00131009 -0.0019861
689 1 11.3768 6.26782 4.90056 6.3183e-05 -0.00188039 0.00143155
690 1 12.6448 4.48819 6.1209 0.00412077 0.00674958 -0.00025461
691 1 10.106 3.57176 4.92496 -0.0102772 -0.000976093 -0.000294391
692 1 11.3796 5.35002 6.15756 0.002043 0.0079063 0.00359532
693 1 8.86904 5.3323 6.1751 0.0048772 0.000675404 -0.00149865
694 1 10.0617 3.6174 7.3999 -0.00978699 -0.00311768 -0.00881728
695 1 10.0322 4.48333 6.18224 -0.00324087 -0.000596494 -0.000480574
696 1 11.3684 6.25541 7.38201 -0.00876517 0.00855095 -0.00407614
697 1 8.7892 6.23854 7.34452 -0.00263521 0.0071345 -0.00218277
698 1 10.0589 4.49503 8.61036 -0.00226847 -0.00804914 -0.0036594
699 1 7.54452 3.56229 7.42935 0.0022121 -0.00631929 -0.00407478
700 1 8.80019 5.35206 8.6231 0.00415044 0.00158925 0.003658
701 1 6.24476 5.37068 8.65493 -0.00103844 -0.00393644 0.00228278
702 1 7.52257 3.56787 9.92639 -0.00144442 -0.00752786 -0.00676588
703 1 7.53917 4.52399 8.6945 0.00462002 0.000813661 -0.00555546
704 1 8.87169 6.27714 9.82901 -0.00573842 0.001174 -0.0102312
705 1 6.2232 6.27351 9.85181 -0.00221548 0.00761505 -0.001561
706 1 7.55365 4.45689 11.168 -0.00389948 -0.00132536 -0.00434802
707 1 5.04758 3.56895 9.92759 -0.00154562 0.0110896 -0.00511764
708 1 6.27025 5.39218 11.1341 -0.000788899 -0.00170603 -0.00494073
709 1 3.82701 5.31036 11.1295 0.00835967 -0.00190323 -0.00523512
710 1 5.07847 3.51572 12.421 0.00209922 -0.0031099 0.00199307
711 1 5.05371 4.48658 11.131 0.000202992 0.00171566 -0.00737293
712 1 6.36136 6.2603 12.3582 -0.00674725 -0.00139175 -0.00531201
713 1 3.85588 6.24279 12.3381 0.0050316 0.00746628 -0.00361584
714 1 5.01497 4.42466 13.6439 0.00184848 0.00145776 0.000661143
715 1 2.53205 3.59604 12.3523 -0.00661243 0.00309309 0.00566892
716 1 3.77193 5.3059 13.5969 -0.00622072 -0.000345417 -0.009035
717 1 1.3114 5.34505 13.5618 0.0117245 -0.00233698 0.00118086
718 1 2.50999 3.51091 14.8115 0.00240788 0.00596402 0.00439057
719 1 2.51974 4.42063 13.6059 -0.00666622 -0.00922446 -0.000982199
720 1 3.78212 6.22361 14.8251 -0.00100023 -0.00257387 -0.0119966
721 1 1.32226 6.24993 14.8474 -0.00437021 -0.00219597 -0.00317417
722 1 2.54282 4.432 16.0515 -0.00310647 -0.00346801 0.000369833
723 1 0.0441471 3.58129 14.8701 -0.00358131 -0.00597889 0.00197976
724 1 1.32631 5.34777 16.0645 0.00819812 -0.00142617 0.00615169
725 1 0.0839259 3.52979 17.2779 -0.00122886 0.0083923 -0.0036021
726 1 0.0678124 4.48139 16.0878 -0.00203031 0.00521759 0.00762194
727 1 1.33321 6.2636 17.304 -0.00244547 0.00100779 0.00457485
728 1 0.0559187 4.43081 18.5378 0.0021362 0.00311977 -0.00641422
729 1 18.9374 5.28237 1.15102 0.00574346 0.000496945 -0.0043162
730 1 18.9189 6.22995 2.46441 0.00664788 0.00735786 0.00579535
731 1 17.6636 3.58075 2.47953 0.000417233 0.00508879 0.000230082
732 1 18.8853 5.36084 3.71339 -0.0055129 -0.00909718 -0.00219311
733 1 16.4026 5.37228 3.68024 0.0044498 -0.00241832 0.0103834
734 1 17.636 3.62976 4.92562 0.00150593 -0.00175519 7.68038e-05
735 1 17.6747 4.46027 3.73214 -0.00384579 -0.00130013 0.000349498
736 1 18.8946 6.27466 4.92358 -0.00138205 -0.00368118 -0.00691913
737 1 16.3901 6.21553 4.90598 -0.00355037 0.00187042 0.0070853
738 1 17.6813 4.49059 6.18721 0.00827409 0.000556018 -0.000246085
739 1 15.148 3.65646 4.91243 0.0056444 -0.00417674 -0.00340424
740 1 16.4467 5.37551 6.14867 -0.00434828 0.00424848 -0.00627544
741 1 13.8422 5.37255 6.18883 -0.00331134 -0.00640328 -0.000814472
742 1 15.1119 3.56672 7.41327 -0.00167611 0.00625652 -0.000545971
743 1 15.1279 4.52615 6.16157 -0.00034588 -0.0107332 0.00433651
744 1 16.4348 6.27838 7.41167 0.00143579 0.00532779 0.0037764
745 1 13.9212 6.26571 7.40936 -0.000398853 -0.00690221 -0.00164554
746 1 15.129 4.48234 8.66353 -0.0023654 -0.00176899 -0.00250714
747 1 12.6211 3.58983 7.41385 0.00541583 0.00371912 0.00738884
748 1 13.9148 5.38146 8.67486 0.00532688 0.000867771 -0.00590378
749 1 11.3238 5.33651 8.62785 -0.0020807 0.00999901 -0.00825991
750 1 12.5911 3.57084 9.86804 0.000222554 0.00857108 -7.65452e-05
751 1 12.6174 4.47223 8.62483 -0.00287977 -0.00293427 -0.00415523
752 1 13.837 6.27194 9.89386 0.000214383 0.00973021 0.00759662
753 1 11.353 6.28672 9.86047 0.00360429 0.00308245 0.00621734
754 1 12.5971 4.4238 11.1205 0.00150646 -0.00321103 0.00198759
755 1 10.0601 3.58914 9.88076 0.00441446 0.0094189 -0.00963519
756 1 11.3572 5.35483 11.0926 0.0106013 0.00429259 -0.000663099
757 1 8.81518 5.33653 11.0895 0.000133321 -0.00272331 -0.00777755
758 1 10.0707 3.58935 12.3347 -0.00787972 -0.00276464 -0.00558838
759 1 10.0526 4.49105 11.1094 -0.00447586 -0.00372947 0.000533202
760 1 11.3976 6.21528 12.3091 -0.000915649 -0.00493764 0.00646562
761 1 8.83605 6.2611 12.3672 -0.000773143 -0.00235762 -0.00639021
762 1 10.0674 4.52015 13.5692 0.00841119 0.0051497 0.0115385
763 1 7.55601 3.55133 12.3509 0.00235484 0.00980291 -0.00797334
764 1 8.80037 5.39106 13.5571 -0.000722925 -0.0044122 0.00312148
765 1 6.23383 5.33309 13.6552 0.0010582 0.00930939 -0.00273686
766 1 7.55504 3.59576 14.811 -0.00547886 -0.00144487 -0.00622897
767 1 7.53517 4.48134 13.5814 -0.00531309 0.00195858 -0.0082563
768 1 8.79354 6.26477 14.8204 -0.00374917 0.000458829 0.00661587
769 1 6.28423 6.22688 14.8079 0.00596238 0.00139958 -0.00200959
770 1 7.56165 4.43106 16.1064 0.00114462 -0.00118683 -0.000356176
771 1 5.02908 3.53602 14.8538 0.00797129 -0.00486718 -0.00327541
772 1 6.28656 5.33318 16.1064 0.00200261 0.00187929 -0.00589255
773 1 3.79478 5.37964 16.0712 -0.00509404 0.00112907 -0.00453338
774 1 5.02649 3.54706 17.3372 0.000289613 -0.00109018 0.000833751
775 1 4.99642 4.43873 16.1082 -0.00108724 -0.00714687 -0.00568221
776 1 6.3513 6.24818 17.3258 -0.006358 -0.00145463 -0.00332255
777 1 3.83925 6.20246 17.3419 0.000511551 0.00130897 0.00825152
778 1 5.08697 4.44233 18.6132 0.00138242 0.00770916 0.00384532
779 1 2.57378 3.55679 17.3259 0.00214676 0.0035436 0.000480398
780 1 3.83867 5.33776 18.5434 0.00192284 -0.00204441 -0.00714834
781 1 1.32123 5.3215 18.5304 -0.00189391 -0.00851448 -0.00693096
782 1 2.54191 3.5474 19.7968 -0.00815984 -0.00620838 0.00143466
783 1 2.57775 4.41504 18.5602 -0.00531833 -0.00678344 0.00066593
784 1 3.8417 6.18713 19.8077 0.00136356 0.00362651 0.00860294
785 1 1.30562 6.22798 19.8098 -0.00552402 -0.00342257 -0.00776055
786 1 2.54893 4.4609 21.042 -0.00482121 0.00314372 -0.000224375
787 1 0.061518 3.55307 19.797 -0.00219924 -0.00295201 -0.0051547
788 1 1.2844 5.33765 21.0665 -0.000910999 -0.00114542 -0.00473625
789 1 0.0582841 3.57557 22.2745 0.00527905 0.00263943 0.00645649
790 1 0.0672555 4.45939 21.0453 -0.00406861 -0.00289401 -0.0139535
791 1 1.2779 6.22124 22.2922 -0.00132575 -0.00136676 -0.00242275
792 1 0.0683183 4.42344 23.5606 -0.00752846 0.004304 -0.00311497
793 1 18.9407 5.34383 6.24227 0.00952132 -0.000732903 0.000880638
794 1 18.9392 6.23144 7.38568 -0.00164498 0.000294697 -0.00853238
795 1 17.633 3.60153 7.41142 -0.00151878 0.00526998 -0.0103804
796 1 18.9412 5.38289 8.63324 0.000726526 -0.00551163 0.00256738
797 1 16.3477 5.38654 8.66149 0.000685421 0.00912181 -0.00322963
798 1 17.6346 3.62598 9.83204 0.00035615 -0.00311358 0.00609704
799 1 17.6688 4.53427 8.63394 -0.00159756 -0.00107878 0.000402746
800 1 18.9852 6.24481 9.89648 -0.00132867 -0.00120905 -0.00344023
801 1 16.3905 6.31381 9.91656 -0.0064059 -0.00123111 -0.00081848
802 1 17.6316 4.47699 11.0733 -0.00517782 -0.00400552 -0.00904137
803 1 15.1318 3.56598 9.87929 -0.00366022 0.00522662 -0.0102667
804 1 16.3895 5.38025 11.1472 0.00786163 -0.000401034 -0.00426144
805 1 13.8135 5.35769 11.1228 0.00142543 -0.00266891 -0.000981258
806 1 15.1413 3.56677 12.3371 -0.0143622 -0.00303452 -0.00310629
807 1 15.1089 4.48839 11.1206 -0.00278843 -0.00268594 -0.0153168
808 1 16.3804 6.24122 12.4311 -0.00108717 -0.000159351 0.00417962
809 1 13.8072 6.21986 12.3923 -0.00061657 -0.00664782 -0.00498207
810 1 15.1366 4.43529 13.6331 -0.00432424 0.0112478 -0.00206404
811 1 12.5789 3.55482 12.3474 0.00545763 0.00225579 -0.00439723
812 1 13.893 5.33519 13.6446 0.0064098 -0.00461178 0.00399905
813 1 11.3418 5.30268 13.5767 -0.00840583 -0.00470355 0.00401079
814 1 12.6209 3.53091 14.8498 -0.00376921 0.00108862 -0.00129833
815 1 12.6434 4.43552 13.6064 0.00686318 0.000549555 0.000649364
816 1 13.8824 6.23848 14.8151 0.00313279 -0.00109668 0.00638877
817 1 11.3364 6.21381 14.8294 0.0035625 -0.00192816 -0.00261159
818 1 12.579 4.45954 16.0609 -5.78196e-05 -0.00294789 0.00362385
819 1 10.0485 3.62258 14.7998 -0.0027251 0.00250962 -0.0045024
820 1 11.3128 5.29319 16.0607 0.000556651 0.00298417 -0.00393262
821 1 8.79752 5.33433 16.0701 -0.00225876 -0.00134791 -0.00403606
822 1 10.0841 3.53781 17.3065 0.00327518 -0.000714629 0.0044117
823 1 10.0765 4.48906 16.0983 -0.00413282 -0.000718237 -0.00517025
824 1 11.3734 6.182 17.2752 0.00147548 -0.00233637 0.00407551
825 1 8.83993 6.2699 17.3021 -0.00135345 -0.00903262 -0.00188882
826 1 10.1111 4.4752 18.5641 -0.0021214 0.000448387 0.0033933
827 1 7.62537 3.51957 17.3681 0.000266168 -0.00622424 0.000430034
828 1 8.84829 5.33836 18.5691 -0.00893003 0.00620678 0.00236466
829 1 6.3419 5.41748 18.5666 -0.00743865 -0.00136168 -0.00390101
830 1 7.49492 3.55479 19.8075 0.00492944 0.00908407 0.00451625
831 1 7.61356 4.42814 18.5728 -0.0102895 -0.00083091 -0.00619064
832 1 8.9316 6.27977 19.7461 0.00268264 0.00380413 0.00148297
833 1 6.3515 6.24797 19.819 -0.00412189 0.0010434 0.00505977
834 1 7.58829 4.50443 20.9784 0.000144483 0.00334639 -0.00314623
835 1 5.09077 3.49764 19.7837 0.000567048 -0.00035613 -0.00817846
836 1 6.33894 5.37426 21.0321 0.00786981 -0.00191855 0.00417104
837 1 3.82406 5.30863 20.9894 -0.00511848 0.00134597 -0.00837899
838 1 5.07592 3.57222 22.3214 -0.00560426 -0.00209346 -0.00491991
839 1 5.08837 4.43937 21.0458 0.00269227 0.00390727 -0.00578274
840 1 6.25813 6.20897 22.2128 -0.00580827 0.00327471 0.00126021
841 1 3.7879 6.29269 22.2774 -0.00617069 -0.00318064 -0.00743432
842 1 4.99309 4.44326 23.5901 0.0040371 -0.00088101 -0.00881246
843 1 2.54416 3.65332 22.3224 0.00279306 -0.000155272 0.00157335
844 1 3.78209 5.38836 23.586 0.00519348 -0.00461052 0.00461925
845 1 1.33657 5.38979 23.5598 0.00125623 -0.00769891 -0.00034542
846 1 2.58979 3.60363 24.7877 -5.4593e-06 -0.00304916 0.00260822
847 1 2.60013 4.56129 23.5423 -0.00437947 0.000314194 -0.0015493
848 1 3.79098 6.23944 24.7974 0.00231641 -0.000313895 0.00795984
849 1 1.30721 6.28756 24.7485 0.00713169 0.00148921 -0.0019925
850 1 2.58491 4.44188 26.0782 -0.00917632 0.00881665 -0.00244992
851 1 0.128058 3.58237 24.748 0.00631991 0.000779832 -0.000394854
852 1 1.34298 5.39291 26.0392 0.00304397 0.00616099 0.00291106
853 1 0.0548628 3.58209 27.2653 -0.00495551 -0.00249614 -0.00330456
854 1 0.0303879 4.47441 26.0165 0.0118285 -0.00508665 -0.00524028
855 1 1.34474 6.23511 27.2541 -0.000324501 -0.00537222 0.00134798
856 1 0.0486421 4.49863 28.4926 0.00108568 0.000586306 -0.00370695
857 1 18.9326 5.34815 11.1593 0.000150196 -0.00397724 0.00118229
858 1 18.9281 6.21213 12.3755 -0.00181966 0.00671645 0.00566734
859 1 17.6369 3.56521 12.3422 0.00235473 0.000989958 -0.00326709
860 1 18.9896 5.35886 13.6426 -0.00201642 -0.00356138 -0.00775652
861 1 16.3787 5.3416 13.6293 -0.00530278 -0.00470318 -0.00760679
862 1 17.7241 3.5667 14.8642 -0.00317813 0.00458994 -0.00225034
863 1 17.7008 4.47962 13.6108 0.00061547 0.000166466 -0.0107202
864 1 18.9611 6.22081 14.8135 0.00232179 -0.00811807 -0.00565132
865 1 16.3951 6.2399 14.8618 -0.00345876 0.00288367 -0.00878077
866 1 17.7016 4.42402 16.116 -0.00363014 -0.00698556 -0.00666609
867 1 15.2029 3.56711 14.8539 0.00284837 -0.000116366 0.00437983
868 1 16.4111 5.31838 16.0757 0.00314808 -0.00316006 -0.000618366
869 1 13.9021 5.30315 16.0751 0.00148067 0.00260161 0.000759662
870 1 15.1281 3.553 17.3435 0.000491237 -0.00539147 -0.00611176
871 1 15.1898 4.45892 16.0939 0.00186891 -0.000757476 -0.00035025
872 1 16.4255 6.23532 17.3149 0.00196291 -0.000200364 -0.00951964
873 1 13.8985 6.2237 17.2593 0.000482823 0.00400775 -0.00411259
874 1 15.1205 4.44657 18.5481 0.00199245 -0.00508755 -0.00165185
875 1 12.5523 3.56199 17.2747 -0.00205888 -0.00466537 -0.00549535
876 1 13.8747 5.36587 18.5313 -0.00369217 0.00349703 0.00329247
877 1 11.394 5.36798 18.5427 0.0023668 -0.00115376 0.00663132
878 1 12.6373 3.58116 19.7358 -0.00144988 -0.00526841 0.00473075
879 1 12.574 4.42883 18.485 0.000854454 -0.000702028 0.000798227
880 1 13.9263 6.22548 19.7753 -0.00426396 -0.000432671 0.00473415
881 1 11.3515 6.25996 19.7454 0.00295762 -0.00292735 -0.00225493
882 1 12.6615 4.47164 21.0013 -0.00176744 0.000932943 0.000458084
883 1 10.1194 3.57211 19.7916 -0.00210394 0.00724875 -0.00561297
884 1 11.3658 5.34736 21.0309 0.00316378 0.00695071 0.00249312
885 1 8.85236 5.34204 21.0038 -0.00109011 -0.00557171 -0.00258961
886 1 10.0861 3.57142 22.3227 -0.00181693 -0.000346114 -0.00225509
887 1 10.1442 4.50072 21.0336 0.00390029 0.00268009 0.00193648
888 1 11.3268 6.21006 22.3112 0.00848342 0.00537274 -0.000808598
889 1 8.86936 6.20649 22.2723 0.000741689 0.00391423 -0.00448851
890 1 10.1044 4.42846 23.5615 8.34815e-05 0.0081601 -0.00219075
891 1 7.56751 3.6061 22.2822 0.00490672 0.00162767 0.0019688
892 1 8.83442 5.34816 23.5391 -0.0016 0.00498126 0.000960123
893 1 6.28558 5.34881 23.5524 -0.0020067 -0.00279195 -0.0011566
894 1 7.60754 3.62007 24.8356 0.00166453 -0.00348174 -0.0061389
895 1 7.57654 4.50204 23.5261 -0.00220466 -0.00136955 -0.00484494
896 1 8.84444 6.26886 24.7723 -0.00479142 -0.00722931 -0.00699319
897 1 6.35263 6.284 24.7661 -0.00499071 -0.00494392 0.00333847
898 1 7.56804 4.48048 26.0629 -0.00280453 -0.00143152 -0.00102485
899 1 5.08769 3.6031 24.7983 -0.00457716 -0.00164906 -0.00294728
900 1 6.3111 5.37731 26.0156 -0.00584307 -0.000395959 0.00414245
901 1 3.81859 5.36453 26.0487 0.00455429 0.0084519 -0.00512024
902 1 5.08732 3.55617 27.2518 -0.000395374 -0.0079418 -0.00284152
903 1 5.09864 4.52402 26.0221 -0.00316048 -0.00511552 -0.00246571
904 1 6.36378 6.23868 27.2562 0.00381349 -0.00470032 -0.00222631
905 1 3.82772 6.30601 27.2985 -0.00258884 0.0100629 -0.00651634
906 1 5.1112 4.44855 28.5182 -0.00190322 -0.00297485 -3.9222e-05
907 1 2.60145 3.55821 27.3385 0.00413281 -0.00571047 -0.00592951
908 1 3.83079 5.37685 28.5578 -0.00209229 0.00161471 -0.000549408
909 1 1.33132 5.36611 28.4749 0.00144218 0.00606477 -0.00495172
910 1 2.59607 3.57233 29.8332 -0.00426577 -0.00396419 -0.000288697
911 1 2.56459 4.44749 28.5598 0.000351336 -0.00222604 0.00342228
912 1 3.84092 6.28889 29.8038 0.00986023 0.00577906 0.00374295
913 1 1.29432 6.25505 29.7621 0.000919499 0.00339509 -0.00444463
914 1 2.62624 4.48669 31.0957 -0.00602451 0.00656657 -0.00429903
915 1 0.0579403 3.58751 29.7666 -0.00402401 0.0013817 0.00486084
916 1 1.27207 5.36786 31.0226 0.00660441 -0.00302882 0.00451176
917 1 0.0467959 3.55846 32.2564 -0.000623544 0.00118326 -0.00494834
918 1 0.0115134 4.50562 31.0183 -0.00563453 0.00243166 0.00261886
919 1 1.3109 6.29059 32.2938 0.00256487 -0.00556463 0.00107736
920 1 0.0190366 4.50513 33.4611 -0.00172844 0.00573207 0.00298219
921 1 19.0134 5.37203 16.1172 0.000759393 -0.00597169 -0.00213422
922 1 18.9517 6.31007 17.3025 0.00407648 0.00199556 -0.00791964
923 1 17.6974 3.55141 17.2761 -4.96036e-05 0.00792776 -0.00352602
924 1 19.0208 5.36189 18.554 -0.00297357 0.00644444 0.00888648
925 1 16.4516 5.3362 18.5137 -0.000606151 -0.00192337 -0.00666713
926 1 17.6724 3.51878 19.8085 -0.00356261 0.00150591 -0.00905693
927 1 17.6917 4.4126 18.5162 -0.00104987 0.00823435 -0.00631128
928 1 18.9375 6.27848 19.7489 0.00641916 -0.0128517 -0.000311418
929 1 16.4878 6.20196 19.7936 0.00120899 0.00336439 -0.00460381
930 1 17.6836 4.48123 20.9647 -0.000269703 0.000634954 0.00064821
931 1 15.1252 3.57337 19.7845 -0.00283329 0.00136449 -0.00562909
932 1 16.4333 5.32116 21.0188 0.00714274 0.00423761 0.00203746
933 1 13.9334 5.30449 21.0595 -0.00566276 0.00651698 0.00362854
934 1 15.148 3.60399 22.269 0.000136256 0.00255484 0.00081816
935 1 15.1787 4.42425 20.9947 0.0039779 0.00266464 -0.00631138
936 1 16.38 6.24973 22.2578 -0.000871486 6.65144e-05 0.00217898
937 1 13.8973 6.26555 22.2937 -0.000368091 -0.0103156 0.00527608
938 1 15.1414 4.54402 23.5476 0.00407323 -0.00285192 -0.00106323
939 1 12.6868 3.6123 22.2891 -0.00359898 -0.00270907 -0.00269621
940 1 13.8276 5.40182 23.4994 0.00258305 -0.00687216 0.00574597
941 1 11.3547 5.32849 23.5394 0.000208175 0.00680271 0.00327521
942 1 12.6898 3.56634 24.7557 0.00364652 0.001503 -0.00981078
943 1 12.6434 4.49189 23.5037 -0.00245801 -0.00777242 0.00304977
944 1 13.8721 6.27338 24.7502 -0.00923932 -0.0102709 0.00264631
945 1 11.3529 6.21725 24.714 -0.000537383 -0.0023231 -0.00015904
946 1 12.6762 4.47945 25.9958 0.00392228 0.000750816 0.00992403
947 1 10.1327 3.5781 24.8214 -0.00536355 0.000578609 0.00178621
948 1 11.4109 5.35304 25.9858 -0.00412234 -0.00976981 0.00342832
949 1 8.85328 5.37063 25.9935 -0.00212334 -0.00328862 -0.00838462
950 1 10.1813 3.61722 27.3343 -0.00452878 -0.00542246 -0.00059789
951 1 10.1749 4.50612 26.0278 0.000697187 -0.00308139 0.00645867
952 1 11.4176 6.26006 27.3067 -0.00527801 -0.00345284 -0.000125975
953 1 8.92406 6.23043 27.2979 0.00537039 0.00322051 -0.00367606
954 1 10.1812 4.47231 28.5849 0.00465746 -0.00655132 -0.000164467
955 1 7.60223 3.60692 27.2532 0.000768895 0.0021397 -0.00223963
956 1 8.90961 5.32506 28.5878 -0.000326915 -0.000875656 -0.00663454
957 1 6.37469 5.3064 28.5164 0.00473521 -0.00756707 0.00258657
958 1 7.65612 3.5682 29.8208 -0.00224281 -0.000935965 0.00198112
959 1 7.64127 4.44162 28.5208 -0.00987805 -0.00426364 0.000128942
960 1 8.80701 6.21342 29.7976 0.00187794 0.00315684 -0.00440175
961 1 6.34648 6.29259 29.7208 -0.00851763 -0.00819592 -0.00773584
962 1 7.6094 4.45235 31.0877 -0.00468951 0.00232594 -0.0017371
963 1 5.11724 3.56121 29.8312 0.000185462 0.000437194 -0.00769622
964 1 6.34228 5.38835 31.0102 0.00704885 -0.00183397 0.000160756
965 1 3.82913 5.39793 31.0538 0.00475123 -0.00114649 -0.00653922
966 1 5.15101 3.61484 32.3288 0.0062501 -0.00174172 0.00193434
967 1 5.1074 4.46261 31.0669 0.00550554 -0.00998532 -0.00250773
968 1 6.39024 6.33626 32.3084 0.003428 -0.00212385 0.00144845
969 1 3.8507 6.27309 32.3143 -0.00302856 -0.00289899 0.00221284
970 1 5.14379 4.47543 33.545 0.000704588 0.00410099 -0.00190366
971 1 2.60993 3.5504 32.2956 0.00705476 -0.000117312 0.00046087
972 1 3.89041 5.37406 33.5463 0.00693306 0.00350166 -0.00239383
973 1 1.35462 5.37291 33.5375 0.00395877 -0.00166863 0.00285055
974 1 2.62313 3.58288 34.7824 0.00606489 -0.00110127 0.00125902
975 1 2.66261 4.46406 33.5596 0.00418158 0.00242813 -0.000518824
976 1 3.90241 6.22364 34.8024 -0.0019092 0.00527973 -0.000764482
977 1 1.3684 6.25196 34.7805 0.00770569 -0.0025749 0.00350764
978 1 2.58993 4.56461 36.0822 0.00147472 -0.000296585 -0.00194793
979 1 0.0398231 3.60431 34.6971 -0.00514916 -0.00163829 -0.000725354
980 1 1.33318 5.40702 36.0454 -0.00448456 0.0012805 -0.000534253
981 1 0.0488425 3.4398 37.0763 0.00493014 0.00214979 0.0017795
982 1 0.0283134 4.49147 36.0111 0.00549713 0.00327422 -0.00633982
983 1 1.31775 6.34264 37.21 0.00993055 0.000979912 -0.00278602
984 1 18.9695 5.31734 21.0158 -0.00225227 -0.000752633 -0.00529476
985 1 18.8516 6.22364 22.2201 0.00114692 0.00271621 -0.000457347
986 1 17.6952 3.60734 22.2641 0.00789854 -0.000470944 0.00337386
987 1 18.8905 5.35932 23.5195 -0.00537387 -0.00381882 0.00404016
988 1 16.3765 5.36939 23.5845 0.00461446 8.44026e-05 -0.00572429
989 1 17.6692 3.56574 24.7468 -0.00562795 -0.00182528 0.000195062
990 1 17.6209 4.49584 23.4977 -0.00213143 -0.000520692 0.0048596
991 1 18.9064 6.23074 24.7714 -0.00355141 -0.0078734 -0.00210899
992 1 16.4365 6.21435 24.7747 0.00664747 0.00162564 0.00935769
993 1 17.7009 4.43548 26.0148 -0.000216669 0.0016438 0.000667181
994 1 15.1116 3.55004 24.7644 0.00670041 -0.00108275 -0.00264484
995 1 16.487 5.33417 26.0283 0.00028499 -0.000470417 0.0031315
996 1 13.8872 5.39556 25.9841 0.00207144 -0.00125598 -0.00117175
997 1 15.2047 3.56473 27.2335 0.00381058 0.000495058 -0.00486098
998 1 15.1755 4.44096 26.0041 0.00519702 -0.00150632 -0.00286238
999 1 16.4583 6.18105 27.2713 -0.00137585 -0.0040079 -0.00215605
1000 1 13.9484 6.24181 27.2463 -0.00426388 -0.00136852 -0.00386475
1001 1 15.1721 4.4306 28.4251 -0.00209733 0.00397395 -0.00849003
1002 1 12.7003 3.58547 27.2364 -0.000878232 0.00532202 0.000311572
1003 1 13.9289 5.35241 28.5133 -0.00462796 0.00323585 -0.00571635
1004 1 11.4533 5.34997 28.5848 0.0036949 -0.00437515 0.00425516
1005 1 12.6713 3.55777 29.766 0.00171165 0.0012895 0.00316192
1006 1 12.6794 4.50905 28.5546 -0.00137247 0.00678043 -0.00430783
1007 1 13.9351 6.22379 29.7328 0.000752644 -0.00211548 0.00235846
1008 1 11.4017 6.26472 29.7906 -0.000727046 0.00141858 0.00157121
1009 1 12.6736 4.49639 30.9886 -0.00066815 0.00255688 0.00080935
1010 1 10.1066 3.55894 29.788 -0.00646508 -0.00147855 -0.00457153
1011 1 11.4024 5.3731 31.0163 -0.000950001 -0.00375532 0.00238831
1012 1 8.85525 5.35963 31.0256 0.00121818 0.00271594 -0.00619843
1013 1 10.1129 3.59711 32.2621 -0.00467036 0.00126282 0.000338142
1014 1 10.133 4.47997 31.0472 0.00250604 -0.00515604 -0.00451052
1015 1 11.3875 6.27155 32.2241 -0.00261551 0.00482411 -0.00518
1016 1 8.87776 6.19721 32.2948 0.00334539 0.00767381 -0.0108107
1017 1 10.1243 4.49654 33.5559 -0.000537965 -0.00498929 -0.000242368
1018 1 7.65785 3.54445 32.334 -0.00318818 0.00166478 -0.00355567
1019 1 8.8858 5.34573 33.5514 -0.00313616 -0.00367115 0.00213043
1020 1 6.45655 5.35398 33.5402 -0.00302763 0.00331185 -0.000754583
1021 1 7.68432 3.63298 34.8675 0.00137716 -0.00441789 0.00996881
1022 1 7.68898 4.47034 33.5842 -0.00125502 -0.00989553 -0.00192455
1023 1 8.88165 6.32924 34.742 -3.36357e-05 -0.00509954 0.00416905
1024 1 6.45553 6.21006 34.7638 -0.00247555 -0.00398939 -0.0137053
1025 1 7.68345 4.57514 36.1644 -0.000625374 -0.00442763 0.00375978
1026 1 5.08355 3.60855 34.7985 -0.00376516 0.0111645 -0.00337859
1027 1 6.41059 5.46659 36.1001 -0.00411392 -0.00542172 -0.0077829
1028 1 3.86599 5.36619 36.1208 0.0051922 0.0040515 -0.00285881
1029 1 5.10542 3.55359 37.2828 0.00421047 -0.000512686 0.000478614
1030 1 5.15235 4.50256 36.14 -0.00332012 -0.00438772 -0.00221811
1031 1 6.4515 6.48803 37.1316 -0.00143155 -0.00603322 -0.00115001
1032 1 3.85208 6.42797 37.1718 -0.00787702 0.000138386 -0.00453303
1033 1 2.61477 3.48959 37.2045 0.00565131 -0.0022288 0.00290453
1034 1 18.9383 5.343 26.0165 0.00594476 0.00603174 -0.00514964
1035 1 18.9957 6.19545 27.2315 -0.00761517 -0.00209413 0.00190469
1036 1 17.7145 3.55547 27.2571 -0.00423041 0.00404455 -0.00671121
1037 1 18.9366 5.34973 28.4861 -0.00729419 0.00217708 0.00499261
1038 1 16.448 5.29277 28.4991 -0.00514403 -0.000100145 -0.00202388
1039 1 17.7129 3.58117 29.7746 0.000211301 0.00120938 0.000773485
1040 1 17.7422 4.45232 28.5287 -0.00331305 -0.00595267 0.000322346
1041 1 18.9222 6.22239 29.7832 -9.12798e-05 -0.00167096 -0.00187188
1042 1 16.452 6.23411 29.7281 0.00377031 -0.00457084 -0.00470529
1043 1 17.6707 4.51152 31.0217 -0.00861003 -0.00382781 0.00385889
1044 1 15.1763 3.57094 29.7636 -0.00416035 0.00205061 0.00302142
1045 1 16.3958 5.39952 31.0192 0.00796633 0.00299097 0.00423572
1046 1 13.9426 5.38024 31.0278 0.00232456 -0.0038003 -0.00299778
1047 1 15.1811 3.55803 32.2769 0.00258923 0.00325069 -0.00660376
1048 1 15.1827 4.51633 31.0236 0.00467747 0.00142347 0.00390635
1049 1 16.401 6.27933 32.3046 -0.00312177 -0.00263291 -0.00142892
1050 1 13.8808 6.25644 32.2473 -0.00615964 0.00278756 0.00316466
1051 1 15.1608 4.44946 33.4818 0.000390315 -0.00085369 -0.0142989
1052 1 12.6726 3.53776 32.1984 0.00926236 -0.000265855 -0.00954799
1053 1 13.883 5.35624 33.4879 0.00415178 -0.00704791 -0.000436418
1054 1 11.3747 5.32438 33.5639 -0.00904265 0.000394809 -0.000841899
1055 1 12.6903 3.56613 34.7678 0.0089942 -0.0103667 -0.000214305
1056 1 12.6547 4.46261 33.52 0.00454376 -0.00774049 0.00483952
1057 1 13.9421 6.24024 34.7457 -0.00358002 -0.0026015 0.000922209
1058 1 11.4172 6.25871 34.7646 0.00560367 0.00287578 0.00436101
1059 1 12.7069 4.54157 36.1118 -0.00576551 0.00259213 0.00464021
1060 1 10.1461 3.60666 34.8069 0.000124948 -0.00240605 -0.00753059
1061 1 11.4732 5.35214 36.074 0.000771741 0.000278965 0.00708328
1062 1 8.93322 5.44827 36.046 -0.00493134 4.20792e-05 0.0110907
1063 1 10.2008 3.50191 37.2102 -0.00672208 -0.00673994 0.00659463
1064 1 10.188 4.50674 36.0617 0.00202967 -0.00133379 0.00079364
1065 1 11.4782 6.46774 37.0873 0.00611095 0.00128718 0.00384096
1066 1 8.99281 6.45769 37.1482 0.0030187 0.0040199 0.00658087
1067 1 7.70378 3.53005 37.2177 -0.00599896 0.00470284 0.0101593
1068 1 18.9377 5.34749 30.9868 -0.0119089 0.00411244 0.00221338
1069 1 18.959 6.33111 32.2515 0.0021539 0.00214778 -0.00286054
1070 1 17.6834 3.54612 32.2558 -0.00467796 -0.00201703 0.00392985
1071 1 18.9428 5.36541 33.5127 0.00504514 -0.00399184 0.00496524
1072 1 16.4249 5.36336 33.5561 0.00538725 0.00296164 0.00398699
1073 1 17.6921 3.55714 34.7508 0.00313301 0.00400984 -0.00392444
1074 1 17.6893 4.42227 33.5264 -0.0041747 -0.000650108 0.00114502
1075 1 18.9778 6.24981 34.7378 -0.00208816 0.00135551 0.00459666
1076 1 16.451 6.29093 34.7289 -0.00123188 -0.00427745 0.00338682
1077 1 17.7171 4.50128 36.111 0.00757153 -0.00605267 0.00759396
1078 1 15.1539 3.60234 34.7346 -0.0078782 -0.00196444 -0.00029986
1079 1 16.4842 5.43169 36.0796 0.00384773 0.00919048 -0.000412855
1080 1 14.0258 5.41521 35.9891 -0.00605635 0.00455003 0.000619913
1081 1 15.2848 3.53607 37.1404 0.00251148 0.00130178 -0.00523331
1082 1 15.2142 4.52321 35.9957 -0.00128086 0.00435658 -0.000283379
1083 1 16.4845 6.3941 37.2118 0.00297717 -0.00735103 -0.00337893
1084 1 13.961 6.31739 37.1598 0.00353827 -0.00199164 0.000355159
1085 1 12.7201 3.48326 37.1485 0.00744306 0.00794716 -0.00972131
1086 1 18.9994 5.42615 36.0155 -0.00360729 -0.00021847 -0.00161167
1087 1 19.0215 6.3995 37.1385 -0.00452787 0.00428967 8.55531e-05
1088 1 17.7412 3.49417 37.2206 0.0020559 -0.00888461 0.00177393
1089 1 2.52111 8.02212 -3.78166 0 0 0
1090 1 1.26055 8.91347 -3.78166 0 0 0
1091 1 0 7.13077 -2.52111 0 0 0
1092 1 0 8.02212 -3.78166 0 0 0
1093 1 1.26055 9.80481 -2.52111 0 0 0
1094 1 0 8.02212 -1.26055 0 0 0
1095 1 7.56333 8.02212 -3.78166 0 0 0
1096 1 6.30277 8.91347 -3.78166 0 0 0
1097 1 3.78166 8.91347 -3.78166 0 0 0
1098 1 5.04222 7.13077 -2.52111 0 0 0
1099 1 5.04222 8.02212 -3.78166 0 0 0
1100 1 6.30277 9.80481 -2.52111 0 0 0
1101 1 3.78166 9.80481 -2.52111 0 0 0
1102 1 5.04222 8.02212 -1.26055 0 0 0
1103 1 2.52111 7.13077 -2.52111 0 0 0
1104 1 3.78166 8.91347 -1.26055 0 0 0
1105 1 1.26055 8.91347 -1.26055 0 0 0
1106 1 2.52516 7.13384 -0.0186194 -0.00408054 -0.00480815 -0.00176054
1107 1 2.52111 8.02212 -1.26055 0 0 0
1108 1 3.79403 9.8197 -0.015343 -0.00305484 0.0066491 0.00150383
1109 1 1.30837 9.83588 0.040331 -0.00775836 -0.00232898 0.000285451
1110 1 2.57053 8.0187 1.21562 -0.0102972 0.00236199 -0.00151789
1111 1 20.16 7.12321 -0.0451404 -0.0115989 -0.0057851 -0.00525044
1112 1 1.2811 8.89384 1.22278 -0.00238537 -0.00375205 -0.00173205
1113 1 20.1245 7.18697 2.4435 0.00328855 0.00405209 -0.00836773
1114 1 20.1542 8.08208 1.2151 0.00687822 -0.00451017 0.000170954
1115 1 1.27977 9.79191 2.4302 0.00456121 -0.00408293 -0.00711622
1116 1 20.1378 8.05492 3.68914 0.00363271 0.00582556 0.00357107
1117 1 12.6055 8.02212 -3.78166 0 0 0
1118 1 11.345 8.91347 -3.78166 0 0 0
1119 1 8.82388 8.91347 -3.78166 0 0 0
1120 1 10.0844 7.13077 -2.52111 0 0 0
1121 1 10.0844 8.02212 -3.78166 0 0 0
1122 1 11.345 9.80481 -2.52111 0 0 0
1123 1 8.82388 9.80481 -2.52111 0 0 0
1124 1 10.0844 8.02212 -1.26055 0 0 0
1125 1 7.56333 7.13077 -2.52111 0 0 0
1126 1 8.82388 8.91347 -1.26055 0 0 0
1127 1 6.30277 8.91347 -1.26055 0 0 0
1128 1 7.56747 7.10761 -0.028878 0.00158352 0.000156172 -0.00825392
1129 1 7.56333 8.02212 -1.26055 0 0 0
1130 1 8.83308 9.86539 -0.0168572 -0.006957 0.00399281 0.00348834
1131 1 6.34664 9.7962 -0.055507 -0.00586872 -0.00201293 -0.00376738
1132 1 7.58166 8.0641 1.16886 0.00477402 0.00329411 0.00219426
1133 1 5.08939 7.15083 -0.00706746 -0.00679471 -0.00816041 0.00267565
1134 1 6.30444 8.95762 1.18808 0.00278766 -0.00254671 -0.0091893
1135 1 3.83024 8.92901 1.23136 0.00269873 0.000117902 0.00382108
1136 1 5.09804 7.16029 2.38083 -0.000536472 -0.000541846 0.0045619
1137 1 5.13825 8.06465 1.2073 0.00180296 -0.000347979 0.00886379
1138 1 6.29226 9.83653 2.4528 -0.0126455 0.00481123 -0.00971508
1139 1 3.83588 9.80198 2.42081 -0.0049179 -0.00509393 -0.000555999
1140 1 5.06394 8.0982 3.64257 -0.00377899 -0.00104786 -0.00383688
1141 1 2.50365 7.18235 2.46851 -0.00022082 0.00380315 -0.00493555
1142 1 3.81673 8.96548 3.67236 -0.00130936 -0.00219846 -0.0142204
1143 1 1.25798 8.8843 3.66012 0.00285429 -0.000708174 -0.0048837
1144 1 2.4786 7.14875 4.94385 0.000764831 -0.00833266 -0.0084681
1145 1 2.59224 8.02467 3.67438 0.00623572 -0.00475659 0.00106412
1146 1 3.81167 9.80887 4.93056 -0.000853729 0.000834239 0.00516381
1147 1 1.29541 9.81489 4.87132 0.00464325 -0.0058007 -0.00482468
1148 1 2.50124 8.04478 6.11335 -6.19089e-05 -0.00538381 -0.0104105
1149 1 20.1493 7.16001 4.93253 -0.000868065 -0.0044208 -0.000605006
1150 1 1.24069 8.96454 6.13587 -0.00595507 -0.0113631 -0.00334133
1151 1 0.0275861 7.17447 7.39989 -0.00244349 0.00926505 0.0027816
1152 1 20.1686 8.12183 6.1546 0.000789723 0.00414665 -0.00362181
1153 1 1.26405 9.88232 7.33504 -2.92781e-05 -0.00219491 0.000201683
1154 1 20.1484 8.05681 8.63442 -0.00282938 -0.00196315 -0.000748864
1155 1 17.6478 8.02212 -3.78166 0 0 0
1156 1 16.3872 8.91347 -3.78166 0 0 0
1157 1 13.8661 8.91347 -3.78166 0 0 0
1158 1 15.1267 7.13077 -2.52111 0 0 0
1159 1 15.1267 8.02212 -3.78166 0 0 0
1160 1 16.3872 9.80481 -2.52111 0 0 0
1161 1 13.8661 9.80481 -2.52111 0 0 0
1162 1 15.1267 8.02212 -1.26055 0 0 0
1163 1 12.6055 7.13077 -2.52111 0 0 0
1164 1 13.8661 8.91347 -1.26055 0 0 0
1165 1 11.345 8.91347 -1.26055 0 0 0
1166 1 12.6111 7.11041 -0.0582363 0.00189181 0.00719857 -0.00342048
1167 1 12.6055 8.02212 -1.26055 0 0 0
1168 1 13.8479 9.78493 0.0366726 0.00294071 -0.00424524 0.00431256
1169 1 11.3422 9.83114 -0.0501455 -0.0033409 0.00828774 0.00607219
1170 1 12.6461 8.06738 1.22427 -0.00111119 0.00456502 0.00034142
1171 1 10.064 7.13924 -0.0240411 -0.000277569 -0.00541996 8.07241e-06
1172 1 11.3919 8.94283 1.21878 0.00734024 0.00403304 -0.0052713
1173 1 8.86322 8.90839 1.19033 0.00412286 0.00528592 -0.00611238
1174 1 10.1467 7.12519 2.41772 0.00657127 0.00880201 -0.000528239
1175 1 10.1136 8.02625 1.21251 -0.00716439 -0.000267485 -0.00171673
1176 1 11.3693 9.81879 2.48909 0.00579684 0.00651289 -0.00167902
1177 1 8.83315 9.83319 2.40407 0.00292881 -0.00364623 -0.00392454
1178 1 10.1071 8.04744 3.66893 -0.00104121 0.00108533 0.000732503
1179 1 7.54298 7.16613 2.44136 -0.00132101 -0.00127588 -0.000165223
1180 1 8.82326 8.95019 3.62229 5.4284e-05 -0.002789 0.00318351
1181 1 6.35809 8.94285 3.67199 0.00132196 -0.00176333 0.00789123
1182 1 7.5629 7.13458 4.88842 -0.00785059 -0.00315557 -0.00539476
1183 1 7.58848 8.01393 3.64811 0.00292792 -0.00619886 -0.00212979
1184 1 8.79721 9.85234 4.90064 -0.00301789 0.00876506 -0.00325279
1185 1 6.27088 9.84969 4.93029 0.00420931 -0.00215306 0.00237441
1186 1 7.6185 8.07098 6.16104 -3.29344e-05 0.00647818 -0.00635015
1187 1 5.0461 7.14482 4.92306 0.00862725 -0.00532949 -0.00193398
1188 1 6.33935 8.9622 6.1428 -0.00013374 0.00643091 -0.00754754
1189 1 3.79861 8.94694 6.16483 0.00114812 0.00830283 -0.000455796
1190 1 5.07053 7.11017 7.40897 -0.00831178 0.000931084 0.00245597
1191 1 5.0164 8.06493 6.11671 0.0044809 -0.00822786 -0.00191328
1192 1 6.27842 9.87837 7.38904 0.0059947 0.00362348 -0.00472687
1193 1 3.83487 9.81978 7.41924 -0.00217032 -0.00080486 -0.00219938
1194 1 5.03578 8.03954 8.63796 0.000605237 0.00169181 -0.0010138
1195 1 2.54072 7.12477 7.37329 -0.00209224 -0.00171542 0.00503681
1196 1 3.86449 8.93717 8.6105 0.00114272 0.00383942 0.00940045
1197 1 1.26868 8.93738 8.60486 -0.0090206 -0.00350185 -0.0020801
1198 1 2.50322 7.14567 9.82705 -0.00633257 0.0066764 0.00260731
1199 1 2.53972 8.04637 8.61782 0.000256279 -0.00524219 0.0030524
1200 1 3.82818 9.87982 9.84804 0.00258977 0.00281272 -0.00192464
1201 1 1.26849 9.80872 9.86409 0.00215537 0.000273766 -0.00252098
1202 1 2.54562 8.03439 11.0638 0.00106014 -0.00570779 -0.00186716
1203 1 0.00252009 7.15918 9.87271 0.00756283 -0.00565989 -3.79426e-05
1204 1 1.27396 8.8904 11.1218 0.00486447 -0.0032671 -0.000370934
1205 1 0.050231 7.12177 12.3726 -0.00472148 -0.00331345 -0.00647076
1206 1 0.00631276 8.01876 11.0916 0.00353871 -0.00103268 -0.00416366
1207 1 1.26873 9.79776 12.3632 -0.00294163 0.00395358 -0.00363732
1208 1 0.0466488 8.055 13.6192 -0.00540701 -0.00499292 0.0045569
1209 1 18.9083 8.91347 -3.78166 0 0 0
1210 1 18.9083 9.80481 -2.52111 0 0 0
1211 1 17.6478 7.13077 -2.52111 0 0 0
1212 1 18.9083 8.91347 -1.26055 0 0 0
1213 1 16.3872 8.91347 -1.26055 0 0 0
1214 1 17.6632 7.09699 -0.0357674 -0.00048091 -0.0103539 -0.00840564
1215 1 17.6478 8.02212 -1.26055 0 0 0
1216 1 18.8704 9.84918 -0.00124926 -0.00072408 0.00643213 0.00603508
1217 1 16.3763 9.84404 0.0126697 -0.000987145 -0.00137841 -0.00322199
1218 1 17.6078 8.00782 1.19609 0.00405755 -0.00438301 -0.0105807
1219 1 15.1163 7.11982 -0.0352753 0.00419988 -0.00211475 0.00197808
1220 1 16.3755 8.94961 1.22064 0.00193879 -0.00082398 0.0010919
1221 1 13.8672 8.91859 1.19603 0.00397345 -0.00717162 0.00803349
1222 1 15.1155 7.0976 2.4221 -0.00727374 -0.00314131 -0.0027687
1223 1 15.1375 8.0269 1.21423 -0.00254841 0.00187456 -0.0118453
1224 1 16.3603 9.83799 2.4601 0.00221886 0.0064413 0.00276065
1225 1 13.8375 9.85055 2.48931 0.00369562 0.00469018 0.00729402
1226 1 15.1412 7.96329 3.71014 0.000965758 -0.0106181 -0.00814404
1227 1 12.6189 7.08534 2.46875 -0.00630219 -0.00273666 -0.00600275
1228 1 13.8322 8.92939 3.72215 0.00180977 -0.00293401 -0.000669382
1229 1 11.4012 8.95854 3.65851 -0.00224077 -0.00652976 -0.00511339
1230 1 12.6135 7.12779 4.90341 -0.00350152 -0.00799362 -0.000184207
1231 1 12.606 8.01327 3.70346 -0.000572989 0.00283363 0.00188764
1232 1 13.9043 9.79501 4.95007 -0.00665433 -0.000959304 0.00230984
1233 1 11.3133 9.82767 4.89988 0.0108102 0.00293511 0.00483074
1234 1 12.6437 8.01199 6.14913 -0.00633463 0.00314511 -0.00621614
1235 1 10.0528 7.0886 4.91983 -0.00440508 0.0138254 -0.00709056
1236 1 11.3314 8.89927 6.16047 0.0047865 -0.00247368 0.00231354
1237 1 8.8487 8.95651 6.15141 -0.000418917 -0.000877115 0.00153756
1238 1 10.0609 7.12259 7.4099 -0.00395964 -0.00488796 0.00171998
1239 1 10.118 7.97368 6.1618 0.000572612 -0.00486351 -0.00446105
1240 1 11.403 9.81526 7.31447 0.00497493 0.000373277 -0.00584857
1241 1 8.84947 9.84124 7.41062 0.000500581 0.00013549 0.0074893
1242 1 10.1279 8.06347 8.61873 0.00476561 0.00793941 -0.000791955
1243 1 7.57643 7.13136 7.3491 -0.000102988 -0.000982148 -0.0025136
1244 1 8.85183 8.94596 8.63197 -0.00591365 0.00159866 -0.00533979
1245 1 6.28472 8.95082 8.61764 0.00201195 0.0027593 0.00365673
1246 1 7.58758 7.12145 9.85339 -0.00823672 -0.0006255 0.00236416
1247 1 7.56934 8.05207 8.58195 0.00470368 -0.00415641 0.00532109
1248 1 8.83643 9.81048 9.91599 -0.00184112 2.10124e-05 -0.0117315
1249 1 6.36091 9.82225 9.86064 -0.00504233 -0.00179051 0.00399399
1250 1 7.58089 7.99978 11.0947 0.00331668 -0.004181 -0.0134359
1251 1 5.04412 7.14647 9.91623 -0.00582702 0.00201774 0.00197963
1252 1 6.31076 8.92928 11.1041 -0.00275874 0.00092112 0.00431999
1253 1 3.80305 8.94003 11.1023 0.00215867 -0.001012 -0.00658401
1254 1 5.09323 7.17021 12.3397 -0.00744198 -0.000242766 -0.0044779
1255 1 5.04006 8.02242 11.0783 -0.00402962 0.00654903 -0.00400483
1256 1 6.35446 9.81681 12.3382 -0.00349727 0.00197429 -0.000686586
1257 1 3.76636 9.77427 12.3695 0.00652035 -0.00885506 0.00528406
1258 1 5.06727 7.99336 13.5948 -0.00856339 0.000590074 -0.00489742
1259 1 2.52479 7.1028 12.3062 0.00329168 0.00230711 -0.000334187
1260 1 3.79321 8.90337 13.6316 -0.00170505 0.000300364 0.00172134
1261 1 1.2507 8.89055 13.5535 -0.00396813 0.00281054 -0.0122955
1262 1 2.52272 7.10534 14.8067 0.00270541 0.000632513 -0.0031385
1263 1 2.49897 8.01368 13.5934 0.00578773 -0.00153303 -0.00543935
1264 1 3.73387 9.79288 14.8334 -0.00403046 -0.00931312 0.00495828
1265 1 1.26211 9.84241 14.7734 0.00320867 -0.00114365 -0.00748186
1266 1 2.56099 8.01827 16.0731 -0.00431791 -0.00432191 -0.00368329
1267 1 0.0183408 7.16218 14.8037 0.000916562 0.00149446 -0.000871239
1268 1 1.30494 8.90418 16.0736 -0.0028403 -0.00628695 0.00347983
1269 1 0.0674712 7.20178 17.2876 0.00959826 0.00277273 0.00287849
1270 1 0.0772301 8.0783 16.019 -0.00678752 0.00110976 -0.004303
1271 1 1.29722 9.78775 17.3476 0.00346939 0.0059041 -0.00922908
1272 1 0.0798356 8.02105 18.5481 -0.00400887 -0.00137457 -0.00450074
1273 1 18.9181 8.9484 1.2141 0.00365437 -0.00245287 -0.00444089
1274 1 18.8415 9.82043 2.3919 0.00754884 -0.011029 -0.0061184
1275 1 17.6728 7.11338 2.45317 -0.00684718 0.00345587 -0.00833322
1276 1 18.8541 8.93504 3.63985 0.0071604 -0.00720186 -0.00374941
1277 1 16.3756 8.90397 3.70259 0.00504529 -0.00305938 -0.0115275
1278 1 17.6031 7.15772 4.86497 -0.00241427 -0.00224634 -0.00685653
1279 1 17.6173 8.05285 3.64416 0.00252229 0.00301015 -0.0127431
1280 1 18.9141 9.84935 4.86769 0.00516191 0.0101928 0.00101146
1281 1 16.4261 9.8104 4.89923 0.00708774 0.0045454 0.0114409
1282 1 17.6936 8.08283 6.08879 0.00104902 0.00919035 -0.00146476
1283 1 15.1432 7.15037 4.92805 0.00234063 -0.00166672 0.00688019
1284 1 16.4092 8.89647 6.11537 0.00242937 0.00205017 0.0030681
1285 1 13.8992 8.89019 6.1265 -0.00468762 0.000688393 -0.00137218
1286 1 15.2213 7.15302 7.42673 0.00578699 0.00351507 -0.000291557
1287 1 15.2015 8.03737 6.12658 -0.00102761 0.00250231 -0.00586127
1288 1 16.4392 9.83106 7.43632 -0.000964883 -0.00627381 -0.000459963
1289 1 13.8846 9.84276 7.35449 -0.0079921 -0.00393829 -0.00658568
1290 1 15.1832 8.06296 8.64511 0.00066237 0.010533 0.000148623
1291 1 12.6372 7.15967 7.40911 0.000109771 -0.00100211 -0.00635952
1292 1 13.868 8.93953 8.57507 4.38945e-05 0.000122007 0.00406132
1293 1 11.3796 8.91548 8.56725 -0.000480398 0.00311732 -0.00316893
1294 1 12.6605 7.16765 9.87511 -0.000180163 -0.00382911 0.00179553
1295 1 12.5979 8.02577 8.60437 0.00842323 0.00355574 -0.00875813
1296 1 13.9094 9.80727 9.82226 -0.0057929 -0.000600668 -0.000107726
1297 1 11.3877 9.80755 9.85184 -0.00765232 0.0125581 -0.00294301
1298 1 12.6462 7.99855 11.1131 -0.00532261 -0.00077536 -0.000279285
1299 1 10.1492 7.14981 9.85934 0.0020351 -0.00102871 -0.000498774
1300 1 11.3351 8.97937 11.0751 0.00837971 0.00477936 -0.000324156
1301 1 8.84211 8.89712 11.0772 -0.00115861 -0.00638897 0.00114382
1302 1 10.1084 7.15572 12.3296 0.00446803 0.00483441 0.00144004
1303 1 10.1128 8.08699 11.1071 -0.00819129 -0.00679041 -0.000360591
1304 1 11.358 9.87316 12.3584 -0.0043367 -0.00210393 0.00088586
1305 1 8.8936 9.80274 12.4127 0.00683653 -0.00852356 -0.00163967
1306 1 10.143 7.9861 13.572 0.010286 -0.00891009 0.00539084
1307 1 7.57693 7.13188 12.3382 -0.00513324 -0.00264134 -0.0108238
1308 1 8.86433 8.84687 13.5655 0.00592483 0.00260489 -0.00378811
1309 1 6.35224 8.90141 13.6081 0.00100145 8.05217e-05 -0.0072615
1310 1 7.54072 7.10543 14.7988 -0.00148299 0.00362001 -0.00176362
1311 1 7.60755 8.01183 13.5647 0.00427387 0.00397484 0.000959779
1312 1 8.86786 9.80299 14.8494 -0.00685502 -0.00814982 0.00217277
1313 1 6.35772 9.81689 14.7771 0.00142116 -0.00560215 0.00675802
1314 1 7.6439 8.00955 15.9972 -0.00890294 -0.00233237 -0.00401084
1315 1 5.06173 7.14795 14.8045 0.00440463 0.00244631 0.00298264
1316 1 6.32874 8.89721 16.0138 -0.00155223 0.00163714 -0.00115859
1317 1 3.7953 8.87282 16.1157 0.000665366 -0.00544991 -0.00979172
1318 1 5.07151 7.15698 17.2937 0.00510884 0.00782086 0.00394916
1319 1 5.06732 8.03036 16.0656 0.00420702 -0.00203847 -5.29761e-05
1320 1 6.34442 9.77333 17.2813 -0.0115529 6.28331e-05 0.000620459
1321 1 3.82941 9.84111 17.3114 0.00472816 -0.00316318 -0.00374955
1322 1 5.05479 8.03007 18.5416 0.000783572 -0.00553349 -0.0022866
1323 1 2.61192 7.11903 17.3762 -0.00440393 -0.00633986 0.00152283
1324 1 3.834 8.95632 18.4855 -0.00138829 -0.00124888 0.00786148
1325 1 1.2824 8.96557 18.5237 0.0144127 -0.0053577 0.0125424
1326 1 2.56151 7.08105 19.7741 -0.00619538 -0.00229938 -0.0016934
1327 1 2.56368 8.05997 18.5662 -0.00540592 -0.00195407 -0.00632019
1328 1 3.85034 9.78218 19.7594 0.010758 0.00153652 -0.000922725
1329 1 1.27886 9.79187 19.8202 -0.0019135 -0.00493968 -0.000650356
1330 1 2.59069 8.02987 21.0623 -0.0036725 -0.00163399 0.00132933
1331 1 0.0378175 7.15624 19.7918 -0.0064048 0.00172582 -0.00506767
1332 1 1.33746 8.92915 21.0542 -0.00627493 -0.00782435 0.00326739
1333 1 20.1163 7.14714 22.3072 -0.000603551 0.00254589 -0.00311835
1334 1 20.1579 8.05263 21.0757 0.000816625 0.00884105 -0.00351408
1335 1 1.27772 9.87513 22.3111 -0.00448364 -0.00345141 0.00391994
1336 1 20.118 8.04652 23.5155 -0.00410438 0.001063 0.000114903
1337 1 18.9021 9.04376 6.10011 -0.00194566 0.00182668 0.00192913
1338 1 18.9524 9.88257 7.35654 0.0134945 -0.00182346 0.00546067
1339 1 17.7017 7.10667 7.38666 -0.00863715 0.00506183 -0.00494844
1340 1 18.9051 8.95437 8.5711 0.00150431 -0.00214664 0.00176296
1341 1 16.4361 8.94713 8.66938 -0.0111774 -0.00467001 0.0103079
1342 1 17.6816 7.15569 9.93418 0.00351896 0.00187064 0.00734552
1343 1 17.6821 8.0657 8.62309 -0.00333159 0.00259789 0.00197502
1344 1 18.9503 9.80648 9.84716 -0.00130645 0.00123969 -0.00299227
1345 1 16.4508 9.80658 9.87591 -0.0031109 -0.0111965 0.00265526
1346 1 17.6512 8.00033 11.1139 0.00601241 -0.00068955 -0.00961941
1347 1 15.0982 7.13972 9.95057 0.00187743 0.00288401 0.00035027
1348 1 16.4156 8.90239 11.0541 -0.00170423 -0.000333601 -0.00166517
1349 1 13.8585 8.94585 11.0911 -0.00186467 -0.00847352 -0.00885259
1350 1 15.0611 7.18577 12.3669 0.00664822 0.0015273 0.00356247
1351 1 15.1082 8.04758 11.1433 0.00624566 -0.00372518 0.00388056
1352 1 16.4615 9.76278 12.2922 0.00177314 -0.000678522 -0.000850442
1353 1 13.9199 9.899 12.3074 -0.00425696 0.00755504 -0.00768287
1354 1 15.0876 8.02161 13.6111 0.00183164 -0.00757818 -0.00375213
1355 1 12.5952 7.11653 12.389 -0.00770705 -0.00430608 -0.00820276
1356 1 13.8427 8.94831 13.5459 0.00237518 -0.00285032 -0.00383871
1357 1 11.3742 8.93637 13.5667 0.00321703 -0.00244838 0.00371685
1358 1 12.636 7.16477 14.8242 -0.00567405 0.00846177 -0.00517593
1359 1 12.6129 8.06934 13.6185 0.0157222 0.00314213 -0.00591774
1360 1 13.9087 9.85017 14.7671 -0.000146196 0.00737455 -0.000911356
1361 1 11.387 9.78935 14.8153 -0.00123615 -0.006409 -0.00504244
1362 1 12.6301 8.00849 16.0068 -0.00291878 0.000226975 0.00439402
1363 1 10.1288 7.11787 14.8388 0.00220256 0.00403689 -0.00543447
1364 1 11.3635 8.91122 16.0936 0.00224947 0.00700563 0.0022393
1365 1 8.87962 8.93587 16.0485 -0.00181241 0.00793961 -0.00294247
1366 1 10.1139 7.11683 17.2581 0.00364314 0.000646736 -0.00320319
1367 1 10.0933 8.02389 16.0134 0.00445636 -0.007623 -0.00976678
1368 1 11.3495 9.78222 17.2964 -0.000786921 0.000403306 0.0044738
1369 1 8.85056 9.87974 17.2217 0.000369672 0.000511112 0.00173324
1370 1 10.1119 8.03436 18.4771 -0.0100293 -0.00016833 0.00293419
1371 1 7.5986 7.1318 17.2585 0.00112534 -0.00195383 -0.00100981
1372 1 8.86359 8.88205 18.473 -0.00254116 -0.00448898 0.0015116
1373 1 6.34663 8.93471 18.5616 0.00514611 -0.00147684 -0.00131353
1374 1 7.61297 7.14774 19.7635 0.00304523 0.00461269 -0.00251333
1375 1 7.62123 8.03771 18.5189 0.000998767 0.00690258 0.000483079
1376 1 8.88176 9.75796 19.7699 -0.00300716 0.00339937 0.00708516
1377 1 6.33203 9.76688 19.7632 -0.000239694 -0.000230162 0.00483268
1378 1 7.56442 7.98199 21.0495 -0.0049533 -0.00552553 0.0022877
1379 1 5.01442 7.08788 19.8095 -0.00307331 0.00580868 -0.00520827
1380 1 6.28872 8.90917 20.9904 -0.00278148 -0.0030536 -0.00112028
1381 1 3.7876 8.87348 21.0181 -0.00599094 0.0011253 0.00417492
1382 1 5.03538 7.16083 22.2494 0.00241734 0.00228641 -0.000494883
1383 1 5.03978 8.04145 21.0379 -0.000497752 0.00334947 -0.0048521
1384 1 6.29983 9.82541 22.2569 0.00132912 0.000126456 4.7e-05
1385 1 3.79967 9.79301 22.2444 0.00587187 0.00340956 0.00122825
1386 1 5.02983 8.07018 23.5164 0.00416969 0.000852606 -0.00155886
1387 1 2.50961 7.15312 22.2796 -0.00302249 0.00249397 -0.00157687
1388 1 3.78801 8.95064 23.505 0.00448509 9.31893e-05 -0.00213214
1389 1 1.23566 8.90682 23.5465 0.00366223 0.00392034 -0.00413372
1390 1 2.53477 7.11252 24.7339 0.00911301 0.00129925 -0.00382508
1391 1 2.51896 8.04867 23.5478 -0.00235356 -0.00262195 -0.00209469
1392 1 3.80737 9.80287 24.7949 -0.00523201 0.00117743 -0.00799293
1393 1 1.28377 9.82577 24.8359 -0.00340842 -0.000802292 -0.004392
1394 1 2.5835 7.99496 25.9698 0.00216268 -0.00303339 -0.00148611
1395 1 0.0378158 7.17873 24.7519 -0.000694887 -0.00368901 0.00375054
1396 1 1.30563 8.90935 26.0095 0.000841171 -0.000649062 0.00148147
1397 1 0.0445536 7.12991 27.2275 -0.00173903 -0.000488373 -0.0103647
1398 1 0.0647866 8.05178 26.0159 0.00379917 -0.000635667 0.00964117
1399 1 1.32662 9.77817 27.2482 -0.000717069 -0.000856858 -0.00475767
1400 1 0.0418299 7.96972 28.5262 0.00183809 0.00347631 -0.00111368
1401 1 18.9036 8.91056 11.0748 0.00026962 0.00097905 -0.00420485
1402 1 18.928 9.79854 12.3676 0.00114536 -0.00234982 0.00191613
1403 1 17.5885 7.10129 12.4168 -0.000968487 -0.00541491 -0.00399912
1404 1 18.9139 8.94584 13.558 -0.00451066 0.00988331 -0.00150793
1405 1 16.3999 8.95775 13.5732 -0.00356778 -0.00314942 0.00680584
1406 1 17.6919 7.08595 14.8712 -0.0074926 0.00711602 0.00335391
1407 1 17.65 8.04629 13.6086 -0.00916439 0.00397739 0.00550486
1408 1 18.9163 9.80681 14.8023 -0.00778031 -0.00215577 -0.00575276
1409 1 16.3962 9.8145 14.7899 -0.0017719 0.00679145 -0.0082817
1410 1 17.6746 8.02174 16.0645 0.0137562 -0.00868915 -0.00110781
1411 1 15.1044 7.12878 14.8247 0.0111288 0.0039414 -0.00622218
1412 1 16.3838 8.90846 15.9959 -1.16922e-05 -0.000234779 -0.00614667
1413 1 13.8999 8.93698 16.0566 0.0043453 0.00105757 -1.93564e-05
1414 1 15.152 7.11746 17.287 0.00195016 -0.000288856 -0.00630631
1415 1 15.1334 7.97133 16.0423 0.00598228 -0.0045506 -0.00583151
1416 1 16.4039 9.77103 17.2245 0.000240434 -0.00260504 -0.0109745
1417 1 13.9226 9.81689 17.317 0.00523278 -0.00268071 -0.00346324
1418 1 15.1495 7.99209 18.5275 -0.00583435 0.00316858 0.00446756
1419 1 12.6326 7.1185 17.2999 -0.00632233 -0.000875701 -0.0017692
1420 1 13.8961 8.91912 18.5237 0.00155749 0.00438376 -0.000166617
1421 1 11.3895 8.95198 18.5401 -0.00154317 -0.00327461 -0.00425092
1422 1 12.6244 7.13013 19.8129 0.00362975 0.00823275 0.000653593
1423 1 12.6136 8.02079 18.5219 0.0035543 0.0111538 -0.00467661
1424 1 13.8545 9.76621 19.7977 -0.00489324 -0.000503832 -0.00083022
1425 1 11.4172 9.81594 19.7861 -0.000656473 0.000693489 0.00529873
1426 1 12.6037 8.03505 21.034 -0.00453054 0.00278532 0.00556912
1427 1 10.1127 7.16339 19.7317 0.00161202 0.0012077 -0.00372055
1428 1 11.4365 8.90652 21.0699 0.00207093 -0.000810902 -0.0029586
1429 1 8.82687 8.90505 21.0387 0.00130186 0.00579527 -0.00157307
1430 1 10.0606 7.12535 22.2952 0.00795501 0.00908024 0.0014843
1431 1 10.1225 8.04644 21.0551 -0.000161081 0.00306663 -5.89036e-05
1432 1 11.3761 9.82226 22.2983 -0.000138262 0.00210271 -0.00197576
1433 1 8.82932 9.78275 22.2699 0.0105722 -0.00639755 -0.00502898
1434 1 10.147 8.02498 23.5099 0.000121938 0.0033766 -0.00145214
1435 1 7.54647 7.09622 22.2699 0.00163714 0.00468174 0.0086259
1436 1 8.82892 8.84455 23.5663 -0.00229711 0.00159331 -0.00567618
1437 1 6.29051 8.97128 23.5311 0.00144582 -0.00107562 -0.0018646
1438 1 7.60831 7.15776 24.777 0.00340268 0.000809982 -0.00826757
1439 1 7.5242 8.02016 23.527 -0.000947402 0.00412328 -0.00675706
1440 1 8.81465 9.80006 24.7295 -0.00671831 -0.00224802 0.00166521
1441 1 6.28703 9.85142 24.8048 -0.0015676 -0.00698355 0.000103213
1442 1 7.59384 8.0154 25.9937 0.00521361 0.00119656 0.00586345
1443 1 5.06636 7.15263 24.7996 -0.00146767 0.000346625 0.00292097
1444 1 6.33293 8.86349 26.0153 -0.00895809 -0.00289775 -0.00385786
1445 1 3.83946 8.93938 25.9811 -0.00188653 0.00560102 -0.00121142
1446 1 5.08171 7.11942 27.2766 -0.00087983 -0.0022331 -0.0019103
1447 1 5.10179 8.02433 26.0271 -0.00134852 0.00162972 0.00378505
1448 1 6.31561 9.79413 27.272 -0.00267386 -0.00312516 0.0041807
1449 1 3.84989 9.81264 27.2655 -0.00155223 -0.00215735 -0.00309246
1450 1 5.09458 7.98885 28.4976 -0.00650494 0.012159 -0.00660852
1451 1 2.56237 7.13386 27.2503 -0.000992842 -1.59695e-05 0.00790679
1452 1 3.81445 8.92267 28.5141 -0.0044121 0.00408413 -0.00606447
1453 1 1.27844 8.89045 28.5096 -0.00112743 -0.00746014 0.00640382
1454 1 2.57352 7.15237 29.8024 -0.00375283 0.0022677 -0.00534309
1455 1 2.53607 8.01934 28.5459 0.00502709 -0.00141411 0.000472975
1456 1 3.83077 9.81954 29.7979 0.00720151 0.00469464 0.00291436
1457 1 1.3113 9.83499 29.7823 0.00289241 0.00527288 -0.00186715
1458 1 2.52141 8.05642 31.044 -0.00216767 -0.000191253 -0.00690876
1459 1 0.0948312 7.14602 29.7542 0.00795976 0.00220214 0.00152132
1460 1 1.30606 8.99102 31.0195 -0.00228619 -0.00414932 -0.00385987
1461 1 0.0610292 7.21175 32.2265 0.000664024 0.00495233 0.00901789
1462 1 0.082847 8.10418 31.0579 -0.00205945 -0.00135017 0.00716188
1463 1 1.31609 9.84558 32.2997 -0.00168735 0.00587871 0.00611199
1464 1 0.097921 8.0355 33.5331 -0.00350687 -0.00116091 -0.00134134
1465 1 18.8786 8.87821 16.022 0.00581907 -0.00486039 -0.00328727
1466 1 18.9044 9.77095 17.2689 -0.00859279 0.0153408 -0.00631239
1467 1 17.6719 7.09402 17.2878 -0.000198793 -0.00595552 -0.00356434
1468 1 18.9558 8.92014 18.4982 -0.00541026 0.0017868 0.00108905
1469 1 16.3904 8.85828 18.5271 -0.00041029 0.00527179 0.00046922
1470 1 17.7024 7.09988 19.7298 -0.00690436 0.00193988 -0.00205381
1471 1 17.6668 7.99968 18.5029 -0.00123353 0.00305931 0.000364365
1472 1 18.9116 9.79247 19.7598 -0.000827858 -0.000333551 7.62399e-05
1473 1 16.3812 9.78638 19.8222 0.00193418 -0.00122821 -0.00581
1474 1 17.6425 7.99497 21.0466 0.00113178 -0.00298324 -0.00205776
1475 1 15.1493 7.05342 19.7995 0.00841149 -0.00139384 -0.00191809
1476 1 16.3922 8.83757 21.0428 0.0031279 0.00148103 -0.00631099
1477 1 13.8899 8.84394 21.0106 -0.0104196 -0.00579679 -0.00676485
1478 1 15.1266 7.1194 22.2785 0.00232067 0.000325825 -0.00201836
1479 1 15.1437 7.98152 21.0339 -0.000209759 -0.00169142 -0.00764712
1480 1 16.401 9.79654 22.2866 -0.00354611 0.000204625 0.000153302
1481 1 13.9385 9.83627 22.2215 -0.00444801 0.00199762 -0.00844274
1482 1 15.1388 8.03426 23.5022 -0.00232479 0.00045052 0.00621652
1483 1 12.6315 7.13853 22.266 -0.0062838 -0.00477812 0.00374697
1484 1 13.8541 8.92059 23.4923 -0.00152912 0.00617159 0.00158564
1485 1 11.3245 8.88362 23.495 -0.00530153 0.000214715 -0.00660532
1486 1 12.6251 7.17785 24.7831 0.00228595 -0.000627257 0.00385192
1487 1 12.6329 8.03424 23.485 0.000438187 0.00398056 -0.00853667
1488 1 13.8873 9.74981 24.767 -0.00933239 0.00437417 0.00169744
1489 1 11.3645 9.79318 24.7406 0.00461963 0.00460376 -0.000703877
1490 1 12.6157 8.01928 26.0174 0.00307794 -0.00717976 0.00524003
1491 1 10.1025 7.13858 24.7685 -0.00778005 0.00767572 -0.00261929
1492 1 11.4129 8.94493 26.0275 0.00435118 -0.00417611 -0.00158604
1493 1 8.85451 8.94298 25.966 -0.00482015 -0.0113937 -0.00193114
1494 1 10.153 7.15808 27.2281 0.00858411 -0.00136641 -0.00174486
1495 1 10.149 8.06716 25.9787 -0.00339483 -0.00185737 0.00146751
1496 1 11.3583 9.86511 27.2391 -0.00591056 0.00298341 2.34016e-05
1497 1 8.82526 9.86347 27.244 0.00455733 -0.00484076 -0.00576318
1498 1 10.1371 8.02697 28.5152 -0.00187608 -0.00219907 -0.00568733
1499 1 7.62848 7.0643 27.3037 -0.00416924 0.00643284 0.000269992
1500 1 8.83535 8.93454 28.499 -0.00406482 -0.00216068 0.00552439
1501 1 6.31529 8.91388 28.5057 -0.00347998 -0.00567644 0.00510361
1502 1 7.56426 7.13276 29.7814 -0.00365296 0.00771823 -0.000462806
1503 1 7.61119 8.00513 28.5136 -0.00148267 0.0022384 -0.00695901
1504 1 8.84065 9.8464 29.711 0.00425592 -0.00514113 -0.00106347
1505 1 6.29859 9.83882 29.7856 0.00448632 -0.00383764 0.00211842
1506 1 7.57296 8.03368 30.9982 0.00240295 -0.000718722 -0.00317744
1507 1 5.06941 7.1736 29.7915 -0.000570956 -0.000903006 -0.00260938
1508 1 6.34287 8.97755 31.0146 -0.000408402 -0.00236039 -0.00918569
1509 1 3.83853 8.87907 31.015 -0.00521577 0.00103756 0.00228956
1510 1 5.11007 7.12558 32.3081 0.000820416 -0.00216745 0.00273282
1511 1 5.12787 8.03254 31.0471 4.42619e-05 -0.00727669 0.00264323
1512 1 6.34081 9.9249 32.3121 0.00317686 0.0117485 0.00636831
1513 1 3.83497 9.8847 32.3237 -0.003748 0.00216046 -0.00108979
1514 1 5.08671 8.06858 33.524 -0.00394587 0.00307412 0.000777794
1515 1 2.5603 7.14866 32.2807 -0.00233804 0.00799673 0.00247937
1516 1 3.84787 8.96716 33.5032 -0.00169576 0.0132295 0.00745642
1517 1 1.34753 8.97456 33.5468 0.00824709 0.00397327 -0.00386724
1518 1 2.58144 7.16796 34.7624 -0.000114366 -0.000639914 -0.00427381
1519 1 2.58151 8.06134 33.5253 0.00313841 -0.00311532 -0.000850801
1520 1 3.8158 9.85048 34.7551 0.000322942 0.0045812 -0.00661201
1521 1 1.36936 9.84641 34.7954 0.00968963 -0.00886234 0.0040426
1522 1 2.58603 8.09184 36.0214 0.00627408 0.00614801 -0.00027361
1523 1 0.0429823 7.11216 34.774 0.00649129 0.000573721 0.00502928
1524 1 1.33118 8.89984 36.055 0.00421683 -0.000778323 -0.00160136
1525 1 0.0857068 7.06262 37.1936 0.00135906 0.00224966 -3.01554e-05
1526 1 0.0244825 8.04189 36.0485 0.000794013 -0.00958013 0.00414953
1527 1 1.34344 9.86705 37.1258 0.00273739 -0.00178607 0.00372204
1528 1 18.8553 8.94058 21.0687 0.00418156 -9.81904e-05 0.00555892
1529 1 18.9303 9.81217 22.2865 0.00100587 0.00564544 -0.00515435
1530 1 17.6365 7.12154 22.2879 0.0042442 -0.00312108 -0.00409594
1531 1 18.8583 8.9748 23.5412 -0.0038926 -0.00229736 0.0040788
1532 1 16.3374 8.89629 23.4898 0.000290653 0.00536707 0.00609242
1533 1 17.6652 7.10455 24.7742 -0.00403802 0.00292421 -0.0031354
1534 1 17.6646 7.9913 23.5392 0.00158062 -0.00163014 -0.00514986
1535 1 18.9313 9.86608 24.7583 -0.00222989 -0.00340278 0.0051389
1536 1 16.3909 9.81305 24.7531 -0.000853136 -0.00263391 -0.00389272
1537 1 17.6991 8.0127 26.0401 0.00772823 0.00478932 -0.00702221
1538 1 15.1484 7.07653 24.7067 0.000498647 0.00080957 0.00150353
1539 1 16.3752 8.93475 26.021 0.00124958 0.000633927 -0.00866426
1540 1 13.9058 8.88293 25.9722 0.00685353 -0.00344369 -0.00852919
1541 1 15.1823 7.11338 27.2776 0.00520758 0.00104707 0.00196142
1542 1 15.1541 8.017 26.0169 -0.00980289 6.19654e-05 3.93152e-05
1543 1 16.3915 9.86926 27.227 -0.00037921 -0.00407533 0.0100561
1544 1 13.9134 9.82274 27.2096 0.00488514 0.00528696 0.00778399
1545 1 15.1401 8.01669 28.538 -0.00896824 0.000501768 -0.001275
1546 1 12.6233 7.16167 27.2832 -3.93861e-05 0.00101411 0.00519419
1547 1 13.9118 8.9365 28.5103 -0.0033567 -0.00248253 -0.00645408
1548 1 11.3536 8.93432 28.5156 0.00606639 -0.00217415 -0.00151058
1549 1 12.6756 7.17418 29.803 -0.00888192 -0.00441302 -0.00261419
1550 1 12.6025 8.04335 28.5302 -0.00530354 -0.00781767 -0.00420452
1551 1 13.8452 9.80994 29.7705 0.00110904 0.00838111 -0.00749027
1552 1 11.383 9.80912 29.7906 0.00209389 0.00540891 0.000664049
1553 1 12.6716 8.07659 31.04 0.00507886 0.000384401 0.00663206
1554 1 10.1122 7.12063 29.7558 -0.00110278 0.00784282 0.00966342
1555 1 11.3875 8.89617 31.0099 -0.00411475 -0.00278663 -0.00541812
1556 1 8.87143 8.89573 30.9907 -0.0122399 0.00562546 -0.00274928
1557 1 10.1557 7.1481 32.2457 0.00451172 -0.00385321 0.00119761
1558 1 10.1168 8.03317 31.0105 0.00736194 -0.00255588 -0.00402019
1559 1 11.4498 9.81854 32.2512 0.00912642 -0.000125124 0.00167367
1560 1 8.85963 9.85555 32.2398 0.00380415 9.41948e-05 0.00112434
1561 1 10.1292 7.99144 33.5063 0.000352002 0.00116801 -0.00589812
1562 1 7.63905 7.11624 32.2495 -0.00447325 -0.00152033 -0.0094132
1563 1 8.91218 8.89762 33.5007 0.0104847 -0.000352274 0.00349989
1564 1 6.35638 8.9616 33.5784 -0.00080386 0.0026097 -0.00213379
1565 1 7.59575 7.20395 34.758 0.00109345 -0.0110421 -0.00638676
1566 1 7.59568 8.08634 33.5361 -0.0074955 0.0101136 0.0030828
1567 1 8.88316 9.81657 34.674 0.00945886 0.00218097 0.00073384
1568 1 6.41291 9.86138 34.7184 -0.00511526 -0.00256978 -0.000442097
1569 1 7.66759 8.06329 35.9534 0.00119792 0.00673213 0.00482077
1570 1 5.13236 7.17196 34.7599 0.000359818 0.00163362 -0.00120433
1571 1 6.41884 8.9427 35.9796 -0.00333648 0.000101508 -0.00163505
1572 1 3.88933 9.03387 36.0975 -0.00341356 -0.00910746 0.00134025
1573 1 5.15267 7.09849 37.1505 -0.00356787 0.00225275 0.00370273
1574 1 5.14904 8.05238 35.9957 0.00396752 -0.00519231 0.000577116
1575 1 6.39951 9.87279 37.1569 -0.000274681 0.000671999 -0.00680943
1576 1 3.94389 10.0137 37.2787 -0.00183904 -0.00272382 0.00211077
1577 1 2.5955 7.08277 37.1166 -0.0110865 0.0025595 -0.00719824
1578 1 18.9766 8.90697 26.0261 0.00870334 0.00188138 -0.00796366
1579 1 18.957 9.83418 27.2838 0.00032741 0.00214866 0.0104616
1580 1 17.6977 7.1634 27.2437 -0.00301295 -0.0027937 -0.00379018
1581 1 18.9297 8.98604 28.5283 0.00123089 -0.0019152 0.000325151
1582 1 16.3902 8.90323 28.4541 0.00909835 0.00708323 0.00115533
1583 1 17.6531 7.21116 29.771 -0.00699211 -0.000737789 0.0018671
1584 1 17.6581 8.0677 28.524 0.00960418 -0.00170347 -0.00650787
1585 1 18.9381 9.89616 29.7249 -0.00547238 0.00333164 0.00348088
1586 1 16.3795 9.8358 29.7466 -0.000202693 0.000323859 -0.00742153
1587 1 17.6951 8.08915 31.0438 0.00103279 -0.00173442 0.00480307
1588 1 15.1844 7.09233 29.7584 -0.00167379 -0.00089695 -5.46662e-05
1589 1 16.3933 8.93745 30.9956 0.00423738 -0.00660818 0.00602029
1590 1 13.931 8.92463 30.9926 -0.00903371 0.005313 -0.00489599
1591 1 15.1936 7.1449 32.2465 -0.00245484 0.003443 0.00215191
1592 1 15.1895 8.03084 31.0256 -0.00427143 -0.000550829 0.000584551
1593 1 16.4713 9.85159 32.2629 -0.00361371 -0.000944351 0.00519666
1594 1 13.9198 9.82863 32.2622 0.00447088 -0.00166037 0.000232047
1595 1 15.1871 8.07846 33.4713 0.000397826 0.00952527 -0.00726238
1596 1 12.6402 7.23566 32.2945 0.00522598 -4.01198e-05 -0.00536913
1597 1 13.8706 8.97558 33.5527 0.00281767 -0.0013518 0.0103776
1598 1 11.4261 8.91018 33.5266 -0.00351226 -0.0103254 -0.00266825
1599 1 12.6536 7.11557 34.7846 -0.00429498 0.00479592 -0.00594117
1600 1 12.6451 8.04784 33.5552 -0.00312353 -0.00938005 0.0099775
1601 1 13.9429 9.85701 34.7744 0.00890262 -0.0100863 -0.00177534
1602 1 11.4381 9.81978 34.7185 -0.00117304 -0.000571597 -0.00593719
1603 1 12.6628 8.06485 36.0682 -0.00208292 0.00250239 -0.000670128
1604 1 10.1546 7.1381 34.7427 -0.00421888 0.00700889 0.000648461
1605 1 11.4018 8.92155 36.0686 -0.0031763 0.00938032 0.00510823
1606 1 8.91975 8.92774 35.9607 -0.00642036 -0.0065522 0.00642333
1607 1 10.2186 7.12905 37.1203 0.00341827 -0.00356711 0.00338037
1608 1 10.1787 8.12934 36.036 0.00387788 -0.00696014 -0.00613359
1609 1 11.4534 9.88563 37.1462 0.00145525 0.00537968 0.0101868
1610 1 8.89642 9.91524 37.0925 -0.00590372 0.00357423 -0.000409873
1611 1 7.71446 7.15459 37.0927 -0.00143912 0.00140861 -0.00921614
1612 1 18.9904 8.98885 30.9897 0.0024321 -0.00668529 0.000885529
1613 1 19.035 9.87172 32.2636 0.00561317 0.00109932 -0.00299337
1614 1 17.7076 7.1948 32.2836 9.39175e-06 0.00267611 -0.00129314
1615 1 18.9498 8.95748 33.4794 -0.00617273 -0.000904474 0.0107785
1616 1 16.4371 8.95141 33.46 0.0101283 -0.00148462 -0.00236426
1617 1 17.728 7.11824 34.7675 -0.00100027 -0.00289295 -0.00205256
1618 1 17.7324 8.06391 33.4893 -0.00294011 0.000364468 0.00729455
1619 1 18.9643 9.79077 34.8169 -0.00723618 -0.00262944 -0.00220006
1620 1 16.4885 9.86094 34.7705 -0.00550042 0.00459344 -0.00803169
1621 1 17.711 8.03171 36.0019 -0.00654883 -0.00118904 -0.00915925
1622 1 15.1696 7.17985 34.7461 0.00390963 -0.00123872 0.00403415
1623 1 16.4122 8.96492 35.996 0.000818691 0.000658374 0.000708698
1624 1 13.9782 8.88921 36.0194 0.00448645 -0.00277226 0.00846189
1625 1 15.2003 7.0374 37.214 -0.00086366 0.00393522 -0.00231745
1626 1 15.2004 8.00284 36.0405 -0.00229143 0.00292841 0.00766791
1627 1 16.4468 9.88249 37.2061 5.27322e-05 0.00371062 0.00362432
1628 1 13.9544 9.86091 37.1429 0.00230018 -0.00726306 0.0048851
1629 1 12.7647 7.10845 37.1671 0.0037212 0.000484221 0.00229186
1630 1 18.98 8.93022 36.0375 -0.00281579 0.0043487 0.000730708
1631 1 18.9719 9.8888 37.1203 0.00322377 0.00205678 6.97462e-05
1632 1 17.716 7.09033 37.2507 0.00489786 0.00453556 0.00206088
1633 1 2.52111 11.5875 -3.78166 0 0 0
1634 1 1.26055 12.4789 -3.78166 0 0 0
1635 1 0 10.6962 -2.52111 0 0 0
1636 1 0 11.5875 -3.78166 0 0 0
1637 1 1.26055 13.3702 -2.52111 0 0 0
1638 1 0 11.5875 -1.26055 0 0 0
1639 1 7.56333 11.5875 -3.78166 0 0 0
1640 1 6.30277 12.4789 -3.78166 0 0 0
1641 1 3.78166 12.4789 -3.78166 0 0 0
1642 1 5.04222 10.6962 -2.52111 0 0 0
1643 1 5.04222 11.5875 -3.78166 0 0 0
1644 1 6.30277 13.3702 -2.52111 0 0 0
1645 1 3.78166 13.3702 -2.52111 0 0 0
1646 1 5.04222 11.5875 -1.26055 0 0 0
1647 1 2.52111 10.6962 -2.52111 0 0 0
1648 1 3.78166 12.4789 -1.26055 0 0 0
1649 1 1.26055 12.4789 -1.26055 0 0 0
1650 1 2.5808 10.6731 -0.0451779 0.000390836 -0.00300904 -0.00187552
1651 1 2.52111 11.5875 -1.26055 0 0 0
1652 1 3.72999 13.3267 -0.0229395 -9.43465e-05 0.00393596 -0.000770812
1653 1 1.30329 13.33 -0.0283597 -0.00344463 0.000808995 0.00434284
1654 1 2.58402 11.5745 1.21426 -0.00128513 -0.00375096 0.00399677
1655 1 0.0245155 10.6986 0.00839534 0.00427143 -0.00604824 0.00451187
1656 1 1.29357 12.5048 1.17419 0.000938118 0.00527771 -0.000221246
1657 1 20.162 10.6841 2.4509 -0.00239861 -0.00213134 0.00874094
1658 1 0.0438119 11.57 1.24885 0.00620994 -0.00347312 0.0015112
1659 1 1.22996 13.3719 2.43026 -0.00368267 -0.00346518 0.00498001
1660 1 0.0319019 11.57 3.68118 0.000725312 -0.00103747 -0.0023411
1661 1 12.6055 11.5875 -3.78166 0 0 0
1662 1 11.345 12.4789 -3.78166 0 0 0
1663 1 8.82388 12.4789 -3.78166 0 0 0
1664 1 10.0844 10.6962 -2.52111 0 0 0
1665 1 10.0844 11.5875 -3.78166 0 0 0
1666 1 11.345 13.3702 -2.52111 0 0 0
1667 1 8.82388 13.3702 -2.52111 0 0 0
1668 1 10.0844 11.5875 -1.26055 0 0 0
1669 1 7.56333 10.6962 -2.52111 0 0 0
1670 1 8.82388 12.4789 -1.26055 0 0 0
1671 1 6.30277 12.4789 -1.26055 0 0 0
1672 1 7.57838 10.7037 -0.0505778 0.00169538 -0.00313165 -0.00245921
1673 1 7.56333 11.5875 -1.26055 0 0 0
1674 1 8.77925 13.4008 -0.0616416 -0.00643412 0.00289764 -0.00501568
1675 1 6.28357 13.3819 -0.068153 0.00300062 0.00616441 0.00245373
1676 1 7.54067 11.6571 1.18295 -0.000417146 0.00302076 6.65797e-05
1677 1 5.06771 10.699 0.000964996 -0.00319218 -0.00302336 -0.00769613
1678 1 6.33782 12.5389 1.21064 -0.00442532 0.000279389 -0.00102568
1679 1 3.77607 12.4651 1.20689 -0.00169583 0.00267937 0.00222969
1680 1 5.09532 10.6918 2.42517 -0.00118743 0.000293884 0.00105709
1681 1 5.09475 11.6265 1.24153 0.00206633 -0.00532996 -0.00115321
1682 1 6.3333 13.4219 2.48386 0.0111295 -0.00820772 -0.00372994
1683 1 3.80102 13.4458 2.4049 0.00568131 -0.00348741 0.00326659
1684 1 5.03233 11.6077 3.67411 0.000980564 -0.00257726 -0.00246285
1685 1 2.54024 10.6893 2.46355 -0.00107878 0.00431061 -0.002507
1686 1 3.78415 12.5127 3.65781 -0.000763081 0.000560179 -0.00340649
1687 1 1.27702 12.466 3.6424 -0.00282915 0.000895034 0.0018173
1688 1 2.58905 10.7193 4.94632 -0.00102263 0.00528801 0.00371354
1689 1 2.5246 11.6241 3.64149 0.00362892 -0.00011822 -0.00153541
1690 1 3.78217 13.3992 4.91615 0.00200324 0.01033 -0.00852162
1691 1 1.25234 13.3835 4.91066 0.00691641 -0.00621966 -0.00408039
1692 1 2.54733 11.6471 6.11229 0.00537137 0.00473907 0.0062019
1693 1 0.054761 10.6613 4.88083 0.000453809 0.00108388 -0.00215662
1694 1 1.27862 12.462 6.12771 -0.00110963 -0.00104682 -0.00161445
1695 1 20.0991 10.7392 7.32511 -0.00690662 -0.00298164 -0.000766655
1696 1 0.00479331 11.6108 6.1025 -0.0021219 -0.00349133 -0.00253032
1697 1 1.3151 13.4291 7.34045 0.00410733 0.00383894 0.000680824
1698 1 0.0133545 11.5572 8.5865 0.00501075 -0.00592476 0.00485395
1699 1 17.6478 11.5875 -3.78166 0 0 0
1700 1 16.3872 12.4789 -3.78166 0 0 0
1701 1 13.8661 12.4789 -3.78166 0 0 0
1702 1 15.1267 10.6962 -2.52111 0 0 0
1703 1 15.1267 11.5875 -3.78166 0 0 0
1704 1 16.3872 13.3702 -2.52111 0 0 0
1705 1 13.8661 13.3702 -2.52111 0 0 0
1706 1 15.1267 11.5875 -1.26055 0 0 0
1707 1 12.6055 10.6962 -2.52111 0 0 0
1708 1 13.8661 12.4789 -1.26055 0 0 0
1709 1 11.345 12.4789 -1.26055 0 0 0
1710 1 12.6399 10.673 -0.0375447 0.00091711 0.000751807 0.00906172
1711 1 12.6055 11.5875 -1.26055 0 0 0
1712 1 13.868 13.3142 -0.0810507 0.00255076 0.00775222 -0.00854839
1713 1 11.3545 13.3486 -0.0582828 0.000799668 -0.000882553 0.00852548
1714 1 12.6346 11.5849 1.16876 -0.00363251 -0.00159859 -0.00273809
1715 1 10.0679 10.735 -0.0493089 0.000928722 0.000407676 0.000735697
1716 1 11.3897 12.4618 1.17034 0.00773128 -0.00241347 -0.00131247
1717 1 8.80245 12.5575 1.15958 -0.00370897 0.0067089 -0.00122392
1718 1 10.0991 10.7007 2.44708 -0.00129941 -0.00609232 0.00143677
1719 1 10.0689 11.6822 1.19772 -0.000776375 0.000970104 -6.33552e-05
1720 1 11.3846 13.3571 2.45792 0.00760566 -0.00391008 -0.00760884
1721 1 8.81191 13.3948 2.39458 -0.00945326 0.00256305 0.00329271
1722 1 10.0357 11.6307 3.66673 0.000116686 -0.00194589 0.0029411
1723 1 7.59751 10.7127 2.431 0.00182832 -0.00144075 0.00181125
1724 1 8.78285 12.5265 3.70376 -0.00767773 0.0107396 -0.00674337
1725 1 6.3083 12.4843 3.66926 -0.000264533 -6.37321e-05 -0.00560023
1726 1 7.57302 10.7833 4.9304 -0.000614549 0.00123801 -4.477e-05
1727 1 7.58587 11.6301 3.64089 0.00133066 0.00186427 -0.003413
1728 1 8.82351 13.3776 4.92841 0.00234089 -0.00234902 0.0046039
1729 1 6.29829 13.3973 4.92771 0.0058744 -0.00637554 0.00248947
1730 1 7.55597 11.6261 6.18791 -0.0103109 0.00708709 -0.000490457
1731 1 5.02177 10.7568 4.92033 -0.00771375 0.00381416 -0.000455164
1732 1 6.32437 12.491 6.16286 0.00142366 -0.00197392 0.00349828
1733 1 3.80574 12.5284 6.13685 -0.00384768 0.000909214 0.00474942
1734 1 5.05861 10.746 7.38983 0.000109771 -0.00217123 -0.00664807
1735 1 5.05741 11.6686 6.17079 -0.000397773 0.00380199 -0.00180452
1736 1 6.32897 13.3954 7.47096 0.00356648 -0.00111794 -0.00647778
1737 1 3.78199 13.3956 7.35836 -0.00661746 0.00136337 -0.00259706
1738 1 5.08284 11.6332 8.62874 -0.00482746 -0.00427838 -0.00263128
1739 1 2.55653 10.7414 7.35751 -0.00581527 0.00100159 0.00613076
1740 1 3.82857 12.4696 8.65363 0.00300759 -0.00132964 -0.00344787
1741 1 1.30442 12.5273 8.59405 -0.00787085 -0.00269043 -0.00838508
1742 1 2.55985 10.7073 9.89646 -0.00345883 0.00133557 0.00294301
1743 1 2.54641 11.614 8.64659 -0.00690896 -0.00151677 -0.00696891
1744 1 3.85692 13.4032 9.87185 -0.00547407 -0.00752093 -0.000799673
1745 1 1.24484 13.3611 9.80425 -0.00026682 0.00116104 -0.000486318
1746 1 2.48858 11.637 11.0782 0.00440106 0.00126584 -0.00623208
1747 1 0.030181 10.715 9.84282 -0.000257842 -0.00254934 -0.00677882
1748 1 1.25729 12.5265 11.073 -0.00269686 -0.0051988 0.000468009
1749 1 0.0195873 10.6969 12.3758 -0.00659782 0.0111108 -0.00609593
1750 1 0.0566464 11.571 11.1191 -0.00459573 -0.002047 -0.00176173
1751 1 1.33331 13.3756 12.318 0.00700575 0.00307228 -0.00528242
1752 1 0.0730077 11.6258 13.5648 0.00776505 0.00353327 -0.0117943
1753 1 18.9083 12.4789 -3.78166 0 0 0
1754 1 18.9083 13.3702 -2.52111 0 0 0
1755 1 17.6478 10.6962 -2.52111 0 0 0
1756 1 18.9083 12.4789 -1.26055 0 0 0
1757 1 16.3872 12.4789 -1.26055 0 0 0
1758 1 17.6025 10.7423 0.0255168 0.003314 -0.00608755 0.00655799
1759 1 17.6478 11.5875 -1.26055 0 0 0
1760 1 18.8976 13.3361 -0.0509484 0.00443349 -0.0051205 5.44411e-05
1761 1 16.3429 13.3864 -0.0723879 -0.0016945 0.00345503 0.00134015
1762 1 17.65 11.6095 1.19894 -0.00242027 0.00173446 -5.94456e-06
1763 1 15.1117 10.7312 -0.0400614 -0.00355883 0.00520028 -0.00369992
1764 1 16.3818 12.4549 1.24192 -0.00354635 -0.000749694 0.00815574
1765 1 13.8551 12.4658 1.1743 -0.00471403 0.00208401 -0.00622861
1766 1 15.125 10.6777 2.49101 -0.00133031 -0.000614623 -0.0068098
1767 1 15.0954 11.5894 1.19846 0.00326518 -0.00582251 0.00794196
1768 1 16.3827 13.4222 2.42905 -0.000271339 0.00621702 -0.00105809
1769 1 13.841 13.3405 2.45654 0.00852733 -0.00956411 -0.0013837
1770 1 15.1703 11.4985 3.73189 0.00494783 0.00884912 -0.00363768
1771 1 12.6434 10.7275 2.39876 -0.000147896 0.00279496 0.000110624
1772 1 13.9091 12.4165 3.70769 -0.00550103 -0.00158929 0.00298539
1773 1 11.3722 12.461 3.70997 -0.00282383 0.00230132 -0.000338242
1774 1 12.5646 10.6589 4.90106 0.000730872 0.00343394 -0.00574769
1775 1 12.6538 11.5744 3.70999 0.00186812 -0.00157061 -0.000932505
1776 1 13.9191 13.2947 4.94537 0.00308183 -0.00182378 0.00461866
1777 1 11.3328 13.3906 4.93141 0.00301579 0.000539093 -4.74688e-05
1778 1 12.6218 11.6261 6.15537 -1.15108e-06 -0.00230877 0.00645487
1779 1 10.0756 10.7555 4.90117 0.00654096 -0.00508787 -0.00800948
1780 1 11.3493 12.4978 6.10181 0.00611109 0.000313815 -0.000281723
1781 1 8.80381 12.5065 6.18653 0.00532899 0.000801332 0.000403887
1782 1 10.1155 10.7455 7.36652 -0.000915412 -0.00918757 -0.0093391
1783 1 10.1175 11.6498 6.10923 -4.63686e-05 -0.00297857 -0.00262149
1784 1 11.3729 13.3895 7.3994 0.00162183 -0.00773693 -0.000536939
1785 1 8.8482 13.3929 7.38841 0.00184381 -0.00744878 -0.0108131
1786 1 10.0798 11.5549 8.63782 -0.00901749 0.00499571 5.72825e-05
1787 1 7.60014 10.6764 7.43881 0.000829868 -0.00412479 -0.00346115
1788 1 8.85612 12.4797 8.68658 -0.00327838 0.00885873 -0.00223859
1789 1 6.39932 12.5332 8.65916 1.56581e-05 0.00196734 0.00393269
1790 1 7.61522 10.6602 9.87534 0.00131101 0.00726307 -0.00504797
1791 1 7.60451 11.6162 8.66039 2.31047e-05 0.00174403 -0.00326709
1792 1 8.8918 13.3821 9.89227 -0.00349771 0.00525361 -0.000805774
1793 1 6.33488 13.3924 9.8848 -0.000802651 0.00177578 -0.000913512
1794 1 7.6256 11.5956 11.1053 0.00354558 0.0108152 0.00237308
1795 1 5.08761 10.7703 9.85155 -0.00813621 0.00323334 -0.00249701
1796 1 6.35307 12.4752 11.1025 -0.00563583 -0.00260066 -0.00770878
1797 1 3.82116 12.4743 11.1355 0.000889121 -0.00783965 0.00383122
1798 1 5.09218 10.7123 12.3639 0.00132455 -0.00516335 0.000368091
1799 1 5.08741 11.5785 11.1356 -0.00470631 -0.00187574 0.00129583
1800 1 6.33583 13.3654 12.3451 0.00555051 -0.0113615 -0.00890755
1801 1 3.84425 13.3921 12.3716 0.00480809 0.00859729 -0.00122398
1802 1 5.0616 11.5876 13.6074 -0.00190779 -0.00112102 0.00379841
1803 1 2.54847 10.6602 12.3376 -0.00732078 0.00220001 0.00294016
1804 1 3.8109 12.4917 13.5872 0.00322665 0.00849155 -0.00634789
1805 1 1.31722 12.5146 13.5793 -0.000770935 -0.00592689 -0.00205477
1806 1 2.52822 10.7248 14.8287 -0.00281806 0.00666745 0.00461914
1807 1 2.56785 11.6175 13.5626 0.00527447 0.00530173 -0.000198686
1808 1 3.77994 13.3596 14.8336 -0.000696032 0.00338142 -0.00746907
1809 1 1.27586 13.3744 14.8269 -0.00271387 -0.0108028 0.00354294
1810 1 2.56421 11.6113 16.0331 0.00350906 0.00105721 -0.00760444
1811 1 0.000301352 10.7335 14.7944 0.000440361 0.00110569 0.00131336
1812 1 1.23851 12.5316 16.0602 -0.0031051 0.0104226 -0.00308688
1813 1 0.0058379 10.6695 17.2282 -0.00302282 0.0011969 -0.0146752
1814 1 20.1523 11.5798 16.0409 -0.00292214 -0.00620728 -0.00149121
1815 1 1.3257 13.3767 17.3388 -0.00275237 0.00384916 -0.00428921
1816 1 0.0212527 11.5545 18.5326 -0.00209876 -0.00832946 -0.00322516
1817 1 18.9525 12.4619 1.16355 0.00415223 -0.00152004 -0.00258355
1818 1 18.9247 13.4254 2.42249 -0.00507378 0.000302712 -0.00600815
1819 1 17.5858 10.6956 2.45027 -0.00759938 0.00650369 -0.00261126
1820 1 18.9889 12.4902 3.64518 0.000186718 -0.00668318 0.000170695
1821 1 16.397 12.4719 3.67483 0.00265541 0.00330301 0.00324674
1822 1 17.6986 10.7339 4.93773 0.00090589 -0.00162243 0.00136871
1823 1 17.6966 11.5925 3.65919 -0.00868943 -0.000101319 -0.00789331
1824 1 18.9265 13.3933 4.88765 0.00329982 0.000105285 0.00133142
1825 1 16.4284 13.3516 4.9144 -0.00323376 -0.00267258 0.00281686
1826 1 17.7277 11.5625 6.14257 -0.00194431 -0.00530046 -0.00887566
1827 1 15.1148 10.6306 4.9024 0.00589356 -0.0050069 -0.000265644
1828 1 16.4069 12.4517 6.13809 -0.00325199 0.0043228 0.00268638
1829 1 13.868 12.4944 6.18327 -0.000609422 -0.00178787 0.00132405
1830 1 15.1329 10.69 7.37747 0.00319029 -0.00603413 -0.00686084
1831 1 15.1408 11.5807 6.14943 -0.000226581 -0.00736929 0.00162282
1832 1 16.395 13.3953 7.37918 0.00484092 -0.0039871 -0.00127281
1833 1 13.8724 13.4032 7.43103 -0.00715341 0.00788006 -0.00662533
1834 1 15.1576 11.5659 8.65136 -0.000732711 0.00770618 -0.00938759
1835 1 12.6399 10.6962 7.33765 -0.00684829 -0.000866198 0.000371835
1836 1 13.8743 12.452 8.68657 -0.00419528 -0.00750616 -0.00150161
1837 1 11.3616 12.4765 8.63739 -6.74216e-05 0.00458043 -0.0054673
1838 1 12.6281 10.7004 9.82967 -0.0030646 0.00187695 -0.00142128
1839 1 12.6128 11.5924 8.63173 0.00901244 0.0078939 0.000758509
1840 1 13.875 13.433 9.80315 0.00012138 0.00162698 0.00469916
1841 1 11.3664 13.4156 9.87644 0.000804324 -0.00583628 -0.00269335
1842 1 12.6352 11.6655 11.1185 0.00185307 0.0012259 -0.00634031
1843 1 10.1151 10.6831 9.90179 0.00269021 -0.00244447 -0.000176634
1844 1 11.4062 12.5046 11.1366 0.00258012 0.00887592 -0.00704096
1845 1 8.88405 12.4931 11.1347 -0.000728797 -0.00103709 0.00343695
1846 1 10.0885 10.7227 12.404 -0.000981475 -0.00101497 -0.000493137
1847 1 10.1608 11.6081 11.1232 -0.00118327 -0.00452061 -0.00468711
1848 1 11.3067 13.3908 12.4189 -0.0100634 -0.00244462 0.00253943
1849 1 8.83649 13.3694 12.4131 -0.00570066 0.0141082 -0.000599492
1850 1 10.1278 11.6544 13.6229 -0.00435393 -0.00311689 -0.00756296
1851 1 7.59798 10.6705 12.3099 -0.00258369 0.00458106 -0.00410557
1852 1 8.8509 12.5069 13.6098 -0.00299947 -0.0024187 0.00011616
1853 1 6.34491 12.5051 13.5953 -0.00679151 -0.00336442 -0.00219577
1854 1 7.58031 10.7024 14.8316 0.00415442 -0.00471984 -0.00658881
1855 1 7.61508 11.6024 13.5869 -0.00232048 -0.00126435 -0.00429136
1856 1 8.82664 13.3715 14.8499 0.00731417 -0.000311543 -0.00285209
1857 1 6.29469 13.3458 14.8608 -0.0018888 0.00358435 0.000121692
1858 1 7.50462 11.6322 16.041 0.00331844 -0.0013675 0.00355111
1859 1 5.04865 10.7154 14.8108 -0.00870739 0.00163624 -0.005052
1860 1 6.27203 12.4721 16.0777 0.000160359 -0.00106049 -0.00536281
1861 1 3.8371 12.4884 16.0248 -0.00353712 -0.00128664 0.00197082
1862 1 5.02056 10.7028 17.2751 -0.00567263 -0.00647243 -0.00765094
1863 1 5.0665 11.5471 16.0528 -0.00790109 -0.00358552 0.00452721
1864 1 6.31636 13.3536 17.3123 -0.00657671 -0.00282789 -0.00304951
1865 1 3.82357 13.3849 17.3413 0.00453834 0.00262856 -0.00646835
1866 1 5.05528 11.6095 18.5101 -0.00923608 -0.00236597 -0.00892559
1867 1 2.53998 10.6635 17.3082 0.00121541 0.000315974 -0.00707155
1868 1 3.80174 12.4912 18.5856 -0.0053841 0.00431498 0.00711607
1869 1 1.25281 12.4846 18.5204 -0.00502462 -0.000439623 -0.00889649
1870 1 2.53076 10.6913 19.7924 0.0167118 0.0110648 -0.0151346
1871 1 2.50351 11.5857 18.5126 -0.00301244 -0.00406015 -0.0127421
1872 1 3.78863 13.3925 19.7999 -0.000136443 0.00375627 0.00288756
1873 1 1.30352 13.4192 19.7659 0.0134747 -0.0039527 0.00668845
1874 1 2.54369 11.6168 21.0486 -0.00415672 0.00808409 0.00685403
1875 1 0.0168424 10.7044 19.813 0.0104953 0.00225036 0.000770167
1876 1 1.31057 12.4945 21.0059 -0.00397462 0.00621136 -0.00064523
1877 1 0.0345329 10.7602 22.2886 0.00285058 0.00255565 0.00565532
1878 1 0.0374221 11.6272 21.0096 -0.00893713 -0.00402478 -1.72478e-05
1879 1 1.24996 13.3334 22.322 0.000533104 -0.00161022 -0.00304102
1880 1 0.023934 11.5818 23.5214 -0.00121692 -0.00341016 -0.0105197
1881 1 18.9487 12.561 6.09727 0.00360493 0.00298816 -0.00950136
1882 1 18.9636 13.4022 7.37596 0.000669309 0.0030865 -0.000120144
1883 1 17.6793 10.7125 7.3906 -0.00533441 -0.00279507 -0.00105798
1884 1 18.9775 12.5069 8.55238 -0.0034015 -0.0104814 -0.00679332
1885 1 16.4408 12.5139 8.64724 0.00664263 0.00731016 -0.00170261
1886 1 17.6996 10.6947 9.84511 0.0050818 -0.000562216 -0.00115615
1887 1 17.6637 11.6352 8.61171 0.00243196 0.00240258 -0.00620806
1888 1 18.9809 13.4264 9.82313 -0.00570957 -0.00339015 -0.00697586
1889 1 16.4118 13.3817 9.86392 0.00209261 0.0069041 0.00151624
1890 1 17.7051 11.6263 11.0946 0.00104131 0.00211976 0.00223338
1891 1 15.1829 10.6616 9.88774 -0.00830259 -0.00233628 -0.00732354
1892 1 16.4185 12.4955 11.1065 -0.000669445 -0.000933517 -0.00270698
1893 1 13.9233 12.5258 11.0844 -0.00933628 -0.00102063 0.00171469
1894 1 15.1747 10.672 12.3441 -0.00473647 0.00471837 -0.00112274
1895 1 15.1868 11.6097 11.0745 -0.00225046 -0.00998958 -0.00062839
1896 1 16.4013 13.4013 12.3347 0.000891796 -0.00516466 -0.00757582
1897 1 13.8575 13.3892 12.3321 -0.00444407 -0.00270166 -0.00188018
1898 1 15.1232 11.5997 13.6059 0.000235944 -0.00229882 -0.00939996
1899 1 12.6131 10.7266 12.2886 -0.000915387 -0.00509232 0.000837132
1900 1 13.8553 12.4792 13.5369 -0.00623701 0.00375513 -0.00542138
1901 1 11.2939 12.533 13.5855 0.00504069 -0.00372206 -0.0079831
1902 1 12.6166 10.7061 14.7858 -0.000992557 0.0132689 0.00402455
1903 1 12.5788 11.5977 13.5424 -0.00790619 -0.00157986 -0.00287451
1904 1 13.8538 13.4016 14.8093 0.000571731 0.00514952 0.00279897
1905 1 11.3705 13.3907 14.8367 0.00530404 -0.00815182 -0.00608409
1906 1 12.6387 11.602 16.0422 0.00436889 -0.00360789 -0.00263561
1907 1 10.0954 10.7052 14.826 -0.000183133 0.00640641 -0.00302101
1908 1 11.3476 12.4988 16.0862 -0.00543359 0.00679961 -0.0143834
1909 1 8.85104 12.4587 16.0866 0.00130069 -0.0055968 0.00213303
1910 1 10.0939 10.6655 17.3094 0.000881242 0.00594634 0.000188609
1911 1 10.1465 11.5995 16.0598 0.000343519 -0.00379035 -0.00275722
1912 1 11.3745 13.4475 17.2978 -0.000281246 0.0061336 0.000725389
1913 1 8.83848 13.3432 17.2471 -0.00290857 0.00109245 -0.00525995
1914 1 10.132 11.5715 18.5252 -0.000109576 -0.000765982 -0.00234674
1915 1 7.53666 10.713 17.2952 -0.0048104 0.00414831 -0.00754959
1916 1 8.87707 12.421 18.5315 -0.00572845 -0.0171575 -0.00795766
1917 1 6.36783 12.473 18.5289 -0.00300532 -0.00383407 -0.00301142
1918 1 7.59912 10.6635 19.7745 -0.000567953 0.00580536 0.00469058
1919 1 7.54076 11.5746 18.5499 0.00155456 0.000773752 0.00686142
1920 1 8.86693 13.3416 19.777 0.000123711 0.0034865 0.00354654
1921 1 6.28053 13.3659 19.7595 -0.00177674 0.0042487 0.000107198
1922 1 7.63718 11.5399 21.0383 0.0048897 -0.00372285 -0.00216596
1923 1 5.05142 10.7025 19.7734 -0.000492387 -0.00372224 -0.00148741
1924 1 6.29598 12.5063 21.0032 -0.000811242 -0.0015482 -0.000892713
1925 1 3.78581 12.499 21.0981 -0.0036705 0.00471861 0.00756302
1926 1 5.08307 10.6884 22.2337 -0.00410729 -0.00145963 6.91438e-05
1927 1 5.04211 11.561 20.9844 -0.00524838 -0.00305835 -0.00446159
1928 1 6.30914 13.341 22.2392 0.0031683 -0.00468543 -0.00374957
1929 1 3.78673 13.4266 22.3016 -0.0120066 -0.00494386 -0.00653482
1930 1 5.03586 11.5636 23.5399 0.00171835 -0.000769353 -0.00108843
1931 1 2.52647 10.7444 22.2231 0.00446167 0.000683875 -0.000487199
1932 1 3.81058 12.4736 23.5525 0.0029932 -0.00658645 -0.0188122
1933 1 1.25058 12.482 23.5543 0.00775359 0.00116224 -0.0108636
1934 1 2.50454 10.6935 24.7616 -0.00825976 0.00412942 -8.48488e-05
1935 1 2.53056 11.609 23.5319 -0.00136468 -0.00134367 -0.0025908
1936 1 3.77258 13.386 24.8251 -0.00719971 -0.00410873 -0.0100338
1937 1 1.27389 13.3952 24.8057 -0.00467773 0.00324299 -0.011348
1938 1 2.54017 11.5592 25.9675 0.00281952 0.00479459 0.00378491
1939 1 20.1345 10.7527 24.7815 -0.00162293 0.00131263 0.0024817
1940 1 1.28573 12.5243 26.0214 -0.00159162 0.00155953 -0.000266778
1941 1 0.0297845 10.711 27.2675 0.00524068 -0.00179703 -0.0120768
1942 1 0.0290767 11.5855 26.0632 -0.00863967 -0.000393525 0.00868616
1943 1 1.30872 13.397 27.2731 0.00376701 -0.000376776 -0.00490921
1944 1 0.0566232 11.6254 28.4946 0.00777139 0.00239259 0.00614137
1945 1 18.9853 12.5157 11.1117 0.00543218 0.00489001 -0.00350419
1946 1 18.962 13.4261 12.3094 0.00801175 -0.0029596 -0.00587988
1947 1 17.6946 10.7191 12.3099 0.00525985 -0.00220245 0.00359773
1948 1 18.9286 12.4786 13.592 -0.000196327 0.00100745 0.00196268
1949 1 16.3994 12.4285 13.5778 0.000827885 0.00521972 0.0076032
1950 1 17.6326 10.6975 14.7939 0.00952064 -0.00862156 -0.00683923
1951 1 17.6853 11.5525 13.5659 -0.00484085 0.00329412 -0.00590622
1952 1 18.9249 13.3503 14.8367 0.00935212 0.00293221 -0.0047849
1953 1 16.3503 13.3385 14.8159 0.00331516 -0.00649738 0.0048825
1954 1 17.6027 11.6131 16.0612 -0.00797546 -0.00780067 -0.00136748
1955 1 15.1397 10.705 14.8136 -0.000586369 0.00274017 -0.00941123
1956 1 16.3372 12.4791 16.0824 0.00155114 -0.000276996 -0.00698325
1957 1 13.9066 12.4744 16.0336 0.000192962 0.00326227 -0.00348019
1958 1 15.148 10.6875 17.3279 0.000700445 -0.00353565 0.00192411
1959 1 15.1528 11.5547 16.048 -0.000451081 0.00243899 0.00168692
1960 1 16.3905 13.3167 17.306 0.00185259 -0.00856329 -0.003942
1961 1 13.8435 13.3491 17.2757 0.00447268 -0.00366938 -0.0052902
1962 1 15.1373 11.527 18.5593 -0.0013923 -0.00191795 0.00192631
1963 1 12.6306 10.686 17.2504 0.00995544 0.00400963 0.00794747
1964 1 13.8823 12.5049 18.5496 -0.00311059 0.000236143 -0.00294229
1965 1 11.4025 12.4986 18.553 -0.000407769 -0.00841525 -0.0102005
1966 1 12.6301 10.7149 19.7607 0.00269266 -0.00552597 -0.00616003
1967 1 12.635 11.5762 18.5421 0.00287737 0.00310814 0.000558322
1968 1 13.8914 13.3791 19.7678 -0.00497815 0.00239147 -0.00341784
1969 1 11.3686 13.4022 19.7691 0.00575289 9.48348e-05 -0.00422586
1970 1 12.6295 11.5821 21.0285 0.00277899 0.000479566 -0.000673065
1971 1 10.1608 10.6775 19.7833 -0.00126282 -0.00853933 0.0040397
1972 1 11.3438 12.4773 21.0434 -0.00309799 -0.00569861 0.00115433
1973 1 8.88254 12.4389 21.0294 0.000802999 0.00548842 -0.0114348
1974 1 10.1172 10.6943 22.3117 -0.00522305 -0.00949923 -0.00133965
1975 1 10.1415 11.5818 21.0486 -0.00200664 0.0040199 0.00377938
1976 1 11.3562 13.3801 22.259 0.00276587 -0.0026592 -0.00600593
1977 1 8.83656 13.3495 22.2409 -0.00224614 0.00305689 0.00431624
1978 1 10.0717 11.5763 23.5401 0.00229606 -0.00430607 0.00134689
1979 1 7.58412 10.7009 22.2906 0.00925977 -0.00475481 -0.0051314
1980 1 8.81076 12.4779 23.5097 -0.00571039 0.00321654 0.00187275
1981 1 6.32209 12.492 23.5179 0.00300308 0.00104979 0.00291535
1982 1 7.56096 10.7121 24.7257 -0.00666194 -0.00139357 0.001364
1983 1 7.58127 11.5946 23.4656 -0.00411184 -0.0019201 -0.00135712
1984 1 8.86477 13.361 24.7344 -0.00477169 0.00187503 0.00342908
1985 1 6.3408 13.3665 24.7631 0.00076657 -0.00281814 0.00521463
1986 1 7.5889 11.6522 26.0133 0.00156408 0.00841811 0.00160002
1987 1 5.02429 10.724 24.7659 0.00385083 0.00543318 0.00203671
1988 1 6.30666 12.5127 26.0231 0.00423881 -0.00269573 -0.000611193
1989 1 3.7736 12.4848 25.9824 -0.00275867 -0.00927647 -0.00201067
1990 1 5.06705 10.7099 27.3049 -0.0130619 -0.00216732 0.000645552
1991 1 5.07484 11.6077 25.9887 0.000835831 -0.000389907 -2.54238e-05
1992 1 6.31112 13.4157 27.2476 0.00642403 0.0051989 0.000185294
1993 1 3.8135 13.3939 27.2613 -0.00685247 -0.00135018 0.00258839
1994 1 5.04297 11.5964 28.5201 0.00742274 -0.00329412 -0.00771504
1995 1 2.56956 10.6966 27.2575 0.00198061 0.00466102 0.000690969
1996 1 3.82683 12.4794 28.4746 0.000789313 -0.00270291 -0.000662823
1997 1 1.32338 12.4645 28.5026 -0.007844 -0.000307249 0.00452568
1998 1 2.5496 10.6762 29.7549 0.00108961 -0.000167702 0.00818073
1999 1 2.59262 11.5894 28.4488 -0.00223161 0.00345019 -0.00256775
2000 1 3.83973 13.3954 29.7793 -0.00409659 -0.00614916 -0.00358666
2001 1 1.30812 13.3771 29.7593 0.00417473 0.00433646 0.00108486
2002 1 2.55163 11.619 30.9794 0.00236745 0.00558472 -0.00647742
2003 1 0.0294937 10.7097 29.7101 0.00869231 0.004149 -0.00253297
2004 1 1.31145 12.4978 31.021 0.000225794 -0.000600563 -0.00253002
2005 1 0.0479841 10.7086 32.2684 -0.00169253 0.00138765 -0.00822682
2006 1 0.0124259 11.6241 30.9779 -0.00428602 -0.00306446 0.000881593
2007 1 1.32413 13.3562 32.2736 -0.000386496 -0.00162417 0.00275724
2008 1 0.00299788 11.5764 33.4846 0.0010712 -0.00237209 -0.0037629
2009 1 18.8983 12.5137 16.0606 -0.00373939 0.000898791 0.00205903
2010 1 18.9421 13.4178 17.3137 -0.00465539 0.00281121 -0.0127966
2011 1 17.6744 10.662 17.2204 0.00683897 -0.00574755 -0.000907301
2012 1 18.8849 12.4785 18.5411 -0.00229397 -0.0026125 -0.0015427
2013 1 16.3975 12.4194 18.583 -0.00042589 -0.00542294 -0.00660539
2014 1 17.6732 10.6913 19.7265 -0.00390398 0.000698876 -0.00930119
2015 1 17.6885 11.4985 18.5013 0.000916791 -0.00307042 0.0031041
2016 1 18.8722 13.3154 19.7826 -0.00242639 0.00297658 -0.0104713
2017 1 16.3923 13.3848 19.8012 -0.00494733 -0.00254093 -0.00554908
2018 1 17.6477 11.5921 20.9969 0.00735676 -0.00560396 -0.000234738
2019 1 15.1206 10.6641 19.8163 0.0042039 -0.00815817 0.00186314
2020 1 16.4475 12.5154 21.0142 -0.00148328 -0.0035449 0.00214634
2021 1 13.8544 12.4908 20.9918 0.00359325 0.00267599 0.00331099
2022 1 15.1394 10.7128 22.235 0.00307224 0.00325824 -0.00283663
2023 1 15.1377 11.6043 21.0123 -0.000261105 -0.000383276 0.00413815
2024 1 16.3679 13.4066 22.2867 -0.00249272 0.000369389 -0.00426951
2025 1 13.8236 13.3858 22.2969 -0.00081298 0.000782202 0.005039
2026 1 15.0953 11.5859 23.4972 -0.0105885 0.000206392 -0.00219033
2027 1 12.709 10.7038 22.2859 0.00564109 -0.00142014 0.000340862
2028 1 13.8722 12.4366 23.5216 0.00106793 0.00319722 -0.00411939
2029 1 11.3668 12.4592 23.4944 -0.0106466 0.000355189 0.00362608
2030 1 12.6818 10.6637 24.7759 -0.00545049 -0.00197588 -0.00198827
2031 1 12.6449 11.5475 23.4896 0.00198146 -0.00369641 -0.00311695
2032 1 13.8864 13.3744 24.7177 0.00433214 -0.00882966 0.00447904
2033 1 11.3711 13.3326 24.7489 -0.0133233 -0.00377865 0.000134659
2034 1 12.6519 11.6132 26.0503 -0.00229072 0.0042658 -0.00563189
2035 1 10.1054 10.6841 24.757 9.39612e-06 0.00252079 0.0031674
2036 1 11.3605 12.4903 26.008 -0.00607693 -0.00312633 -0.00162496
2037 1 8.82581 12.502 25.9919 0.00258265 0.00509705 -0.0019847
2038 1 10.1096 10.7467 27.2713 -0.00246346 0.00457198 -0.00428724
2039 1 10.0966 11.5791 26.0016 0.00307583 0.0016348 0.0070324
2040 1 11.3313 13.3506 27.233 -0.00338377 0.00269197 0.00135219
2041 1 8.82666 13.4181 27.3001 -0.00553157 -0.00858772 -4.4309e-05
2042 1 10.0835 11.6353 28.4841 4.84869e-06 0.000399037 0.011582
2043 1 7.58521 10.7186 27.2378 -0.0125227 -0.00231766 -0.00111208
2044 1 8.86002 12.53 28.5249 0.00593496 0.00245294 -0.00601553
2045 1 6.3499 12.4975 28.4762 -0.00940681 0.0149087 -0.000691454
2046 1 7.59278 10.7431 29.7346 -0.00279008 -0.00403328 -0.0021958
2047 1 7.60654 11.6174 28.4685 0.00445882 0.000622365 1.06502e-05
2048 1 8.877 13.4487 29.7445 0.00200999 -0.00211217 -0.00135673
2049 1 6.3128 13.4188 29.7494 0.00231211 0.00300253 0.000964388
2050 1 7.63849 11.7008 30.9598 0.00255132 0.000212369 -0.00234091
2051 1 5.11008 10.7462 29.7967 0.000596953 -0.00334476 -0.00481426
2052 1 6.35805 12.5148 30.9219 0.00735092 0.00227115 0.00346834
2053 1 3.86325 12.5187 30.9913 -0.00011824 0.00405185 -0.000840546
2054 1 5.10703 10.8074 32.2991 0.00312927 0.00512951 0.000604082
2055 1 5.05747 11.6293 31.0234 0.00104594 -0.00226627 -0.00293799
2056 1 6.31767 13.3903 32.2489 0.0024353 -0.00158193 0.00394796
2057 1 3.84499 13.3692 32.2601 9.62192e-05 -0.00912845 -8.27667e-05
2058 1 5.10897 11.6544 33.5248 -0.00475093 0.00311941 -0.00108776
2059 1 2.58377 10.7626 32.2781 -0.00341532 -0.00276589 0.0024951
2060 1 3.8017 12.48 33.5285 -0.000271222 -0.000113594 0.00255346
2061 1 1.33606 12.4689 33.5615 -0.00277223 -0.0111359 -0.00380924
2062 1 2.62199 10.743 34.7992 -0.00494027 -0.000685221 -0.00236976
2063 1 2.57026 11.5951 33.5473 -0.000864525 -0.0151276 -0.0071715
2064 1 3.87242 13.3818 34.7435 -0.00543155 0.00343439 -0.00156614
2065 1 1.36037 13.3837 34.8093 0.00683087 0.000654906 0.00433318
2066 1 2.59583 11.6482 36.0044 0.00307541 -0.00169174 0.00484478
2067 1 0.0292748 10.6994 34.794 0.00464463 -0.00139931 0.00595035
2068 1 1.32461 12.4618 36.0697 -0.00404031 0.00273999 0.00302771
2069 1 0.0681173 10.5308 37.1549 0.00252035 0.00684202 -0.00374031
2070 1 0.0441725 11.5367 36.0966 0.000594573 -4.24465e-05 -0.0078846
2071 1 1.3593 13.4193 37.1722 -0.00678884 0.00202333 -0.00318806
2072 1 18.9857 12.4325 21.0522 -3.4156e-05 0.00298463 -0.00463145
2073 1 18.889 13.2754 22.2915 -0.00976029 0.00456478 0.00704465
2074 1 17.6595 10.7061 22.2654 0.00697553 0.00480118 -0.00906033
2075 1 18.8907 12.4755 23.5018 -0.00595984 -0.00800388 -0.0103119
2076 1 16.3905 12.4583 23.5495 0.00200181 0.000671928 -0.00280238
2077 1 17.6453 10.712 24.7667 -0.00740422 -0.00605622 -0.00816924
2078 1 17.6406 11.5896 23.4973 0.00145601 0.00236775 -0.00310166
2079 1 18.9298 13.3531 24.7427 0.00223286 0.00476907 0.00128321
2080 1 16.3796 13.3364 24.7886 0.00952325 0.00454233 -0.00671615
2081 1 17.6412 11.6082 25.9659 -0.000399384 -0.00677762 -0.00449287
2082 1 15.1434 10.7055 24.7729 0.00394851 -0.00437096 -0.000127314
2083 1 16.3826 12.4923 26.0069 -0.00671924 -0.0012058 -0.00523151
2084 1 13.8983 12.5018 26.0183 0.0014788 -0.00184054 -0.00413478
2085 1 15.1545 10.7619 27.2221 -0.0079674 0.000793966 0.00461473
2086 1 15.1066 11.6199 26.025 0.00271857 -0.00273718 -0.00453721
2087 1 16.4036 13.3678 27.2795 -0.0010377 0.00570367 0.00183206
2088 1 13.904 13.3777 27.2859 0.00558083 0.00610383 0.0019685
2089 1 15.2042 11.6097 28.5354 -0.00222912 0.00160522 0.00567296
2090 1 12.6288 10.7189 27.2589 -0.00955005 -0.00157513 0.00595381
2091 1 13.9563 12.5096 28.5047 -0.00385238 0.00815601 0.00393586
2092 1 11.4058 12.5088 28.4731 -0.00221846 0.00401268 -4.62599e-05
2093 1 12.6349 10.753 29.748 -0.000689583 -0.00271066 -0.00335982
2094 1 12.6321 11.6241 28.488 0.00186162 -0.00790541 -0.00416115
2095 1 13.8895 13.3855 29.7623 0.00341697 -0.00200505 -0.000525664
2096 1 11.3819 13.3641 29.7196 -0.00350706 -0.00038103 -0.00154691
2097 1 12.6037 11.6343 31.0214 0.0052419 0.00733132 -0.010018
2098 1 10.1332 10.7273 29.7593 0.0024295 -0.00264454 -0.00663215
2099 1 11.4144 12.5524 30.9678 -0.000404619 0.000855691 0.00106863
2100 1 8.8599 12.5272 30.9631 6.06968e-05 -0.00493118 -0.00717365
2101 1 10.1543 10.691 32.2321 -0.0029048 0.00398017 -0.00673118
2102 1 10.1418 11.6377 30.9928 0.00307897 0.00416286 0.00671447
2103 1 11.3956 13.3828 32.2876 -0.00273269 0.00391542 0.00414132
2104 1 8.91933 13.3958 32.2578 -0.00128976 0.00105337 -0.00260486
2105 1 10.1418 11.5656 33.4743 -0.00425298 -0.00742386 0.00274574
2106 1 7.59583 10.7437 32.2222 0.00621621 -0.00816652 -0.00257718
2107 1 8.90286 12.4928 33.4859 -0.000913361 0.00308972 0.00562297
2108 1 6.33067 12.4844 33.4561 0.000521386 0.00443509 -0.00116381
2109 1 7.64808 10.7728 34.7086 -0.00154648 0.00955299 -0.00214593
2110 1 7.6351 11.6088 33.4491 0.000816445 0.00252849 0.004562
2111 1 8.8711 13.309 34.8122 -0.00222442 -0.00693078 0.000586647
2112 1 6.35682 13.4204 34.6991 -0.0121211 -0.00273054 -0.00388694
2113 1 7.57924 11.607 35.9989 -4.28177e-06 0.002167 -0.0068963
2114 1 5.11042 10.7039 34.7703 0.00466453 0.00459785 0.00615519
2115 1 6.35014 12.4799 36.0098 -1.49463e-05 0.00602115 0.00691572
2116 1 3.82934 12.512 36.0242 -0.00780067 -0.00379241 0.00174141
2117 1 5.17514 10.7174 37.1788 -0.00160452 -0.00283676 0.00181824
2118 1 5.10702 11.6038 36.029 0.00435572 -0.00720475 0.00884734
2119 1 6.38414 13.5 37.1191 -0.00407604 -0.0107001 -0.000124874
2120 1 3.82542 13.4491 37.1339 -0.00494657 -0.0055421 -0.00439731
2121 1 2.58051 10.6406 37.1614 0.002013 -0.00482147 0.0048229
2122 1 18.9262 12.5208 26.0211 0.00401979 -0.000681821 -0.0033194
2123 1 18.9564 13.3939 27.2576 -0.000605621 0.000439443 0.00138639
2124 1 17.6394 10.7039 27.2862 0.000940057 0.000505654 0.00400142
2125 1 18.9466 12.5088 28.5371 0.00412175 0.00881837 -0.00285782
2126 1 16.4456 12.4894 28.5003 0.000729845 -0.00281542 -0.000487694
2127 1 17.6654 10.7247 29.7482 -0.000320239 -0.0067033 -0.000409001
2128 1 17.6726 11.6421 28.5411 -0.00371851 0.00179282 0.00215418
2129 1 18.9456 13.3728 29.7782 -0.00159609 -0.000865148 -0.00280375
2130 1 16.4197 13.3891 29.7558 -0.0092382 -0.000492194 0.00394449
2131 1 17.652 11.6166 30.9985 -0.000560926 0.00702423 -0.00111714
2132 1 15.1582 10.719 29.751 0.00110394 -0.000632994 -0.00394661
2133 1 16.4516 12.5281 31.052 0.00267154 -0.0019001 -0.00308798
2134 1 13.9201 12.5079 31.0202 0.000314708 -0.000888008 -0.00299724
2135 1 15.1359 10.7578 32.2708 0.00314005 -0.00193968 -0.00245696
2136 1 15.1681 11.6027 31.0524 -0.00135012 -0.000921227 -0.000986146
2137 1 16.5438 13.4035 32.3168 -0.000801373 0.00699669 -0.000168862
2138 1 13.9201 13.3815 32.2729 -0.00120499 -0.00181978 -0.000629913
2139 1 15.2017 11.6667 33.5628 0.000268422 -0.00309525 -0.00133016
2140 1 12.6288 10.7284 32.2163 -0.00262639 0.00931816 0.000159222
2141 1 13.9076 12.5019 33.4933 -0.000718521 0.00789503 -0.00246331
2142 1 11.4468 12.455 33.49 0.00343132 0.00159921 -0.00743557
2143 1 12.6276 10.722 34.7855 -0.00225999 -0.00520467 -0.00280048
2144 1 12.6384 11.6322 33.5055 0.000203417 0.00408633 -0.00373604
2145 1 13.9946 13.3635 34.7826 0.00916925 -0.00644634 -0.002264
2146 1 11.3967 13.3382 34.7859 0.000999138 -0.000935481 -0.00397713
2147 1 12.6937 11.5753 36.0107 0.000848969 0.00261684 0.00102521
2148 1 10.0975 10.6698 34.7137 -0.00126417 -0.00357359 0.00956865
2149 1 11.4083 12.4718 36.0496 -0.00162314 -0.00516599 -0.00481941
2150 1 8.87483 12.4533 36.0826 0.00296433 -0.00557499 0.00101897
2151 1 10.22 10.6001 37.141 -0.0038573 -0.00438154 0.0107299
2152 1 10.1435 11.6184 35.9915 0.0015828 -9.25271e-05 0.004076
2153 1 11.421 13.4527 37.0809 0.00339442 -0.00248022 0.00213166
2154 1 8.86601 13.4583 37.2142 -0.000235346 0.00725878 -0.00925225
2155 1 7.61149 10.6424 37.0922 0.00726034 -0.00225434 -0.00224731
2156 1 18.9436 12.5218 31.03 0.00171453 -0.00245806 0.000352857
2157 1 18.988 13.3812 32.2722 0.00323655 -0.000725026 -0.00552977
2158 1 17.7215 10.7162 32.25 0.00348955 0.00500472 0.00754267
2159 1 19.0047 12.4887 33.5387 -0.00556702 -0.00436852 0.00334507
2160 1 16.5067 12.5244 33.565 0.000244401 0.00249925 -0.00429063
2161 1 17.7483 10.702 34.7951 0.00701968 -0.00424912 -0.00303183
2162 1 17.7491 11.6028 33.58 -0.00364289 0.00198157 -0.00654986
2163 1 19.0234 13.3348 34.8318 -0.00407426 -0.00149402 0.00303182
2164 1 16.4225 13.3787 34.8429 0.00220406 -0.00138258 0.00562019
2165 1 17.6864 11.5554 36.1203 -0.003746 0.00621743 -0.00111359
2166 1 15.2297 10.7438 34.8197 -0.00149616 -0.0102316 0.00210416
2167 1 16.433 12.4814 36.0931 -0.00389564 0.00123688 0.000899841
2168 1 14.0178 12.4237 36.0728 0.00423642 0.00199226 -0.00713271
2169 1 15.2185 10.6283 37.2127 0.00242929 -0.000856821 -0.00405728
2170 1 15.2343 11.6214 36.0865 0.00195626 -0.00998296 0.00636986
2171 1 16.4797 13.4607 37.152 0.00106929 0.000940613 7.69934e-06
2172 1 13.9585 13.4918 37.1505 -0.00213249 -0.00423189 -0.000301714
2173 1 12.6908 10.6115 37.1511 0.00525438 0.00239513 -0.000426542
2174 1 18.9647 12.4186 36.0567 0.00515054 0.00479306 -0.000324623
2175 1 19.0999 13.4102 37.2621 0.00683191 0.000823771 -0.00280545
2176 1 17.7054 10.5543 37.2075 -0.00084116 -0.00152554 0.00199469
2177 1 2.52111 15.1529 -3.78166 0 0 0
2178 1 1.26055 16.0442 -3.78166 0 0 0
2179 1 0 14.2615 -2.52111 0 0 0
2180 1 0 15.1529 -3.78166 0 0 0
2181 1 1.26055 16.9356 -2.52111 0 0 0
2182 1 0 15.1529 -1.26055 0 0 0
2183 1 7.56333 15.1529 -3.78166 0 0 0
2184 1 6.30277 16.0442 -3.78166 0 0 0
2185 1 3.78166 16.0442 -3.78166 0 0 0
2186 1 5.04222 14.2615 -2.52111 0 0 0
2187 1 5.04222 15.1529 -3.78166 0 0 0
2188 1 6.30277 16.9356 -2.52111 0 0 0
2189 1 3.78166 16.9356 -2.52111 0 0 0
2190 1 5.04222 15.1529 -1.26055 0 0 0
2191 1 2.52111 14.2615 -2.52111 0 0 0
2192 1 3.78166 16.0442 -1.26055 0 0 0
2193 1 1.26055 16.0442 -1.26055 0 0 0
2194 1 2.54931 14.312 -0.0528778 0.00125712 -0.00133271 -0.00303202
2195 1 2.52111 15.1529 -1.26055 0 0 0
2196 1 3.83543 16.9627 -0.0224584 -0.00352736 0.00535044 0.00344427
2197 1 1.28066 16.9259 -0.0599234 0.000239235 -0.00654503 -0.0101524
2198 1 2.56463 15.2188 1.18027 -0.00447534 -0.000272871 0.000841306
2199 1 0.0186124 14.2145 -0.0214616 -0.0109934 -0.00303944 -0.00231172
2200 1 1.23111 16.0438 1.19443 0.00523487 0.00173107 -0.0102562
2201 1 0.0253756 14.2852 2.35258 -0.00394059 -0.004981 -6.60252e-05
2202 1 0.0534178 15.1606 1.18083 -0.00646122 0.00151518 0.00148852
2203 1 1.24383 16.935 2.44828 -0.00175066 -0.00172389 0.000446718
2204 1 0.0437493 15.1677 3.63293 0.00387524 7.27215e-05 0.00361814
2205 1 12.6055 15.1529 -3.78166 0 0 0
2206 1 11.345 16.0442 -3.78166 0 0 0
2207 1 8.82388 16.0442 -3.78166 0 0 0
2208 1 10.0844 14.2615 -2.52111 0 0 0
2209 1 10.0844 15.1529 -3.78166 0 0 0
2210 1 11.345 16.9356 -2.52111 0 0 0
2211 1 8.82388 16.9356 -2.52111 0 0 0
2212 1 10.0844 15.1529 -1.26055 0 0 0
2213 1 7.56333 14.2615 -2.52111 0 0 0
2214 1 8.82388 16.0442 -1.26055 0 0 0
2215 1 6.30277 16.0442 -1.26055 0 0 0
2216 1 7.52237 14.2561 -0.0740888 0.00496196 0.00601838 -0.00818476
2217 1 7.56333 15.1529 -1.26055 0 0 0
2218 1 8.86583 16.9393 -0.0453931 -0.0011836 0.000718927 -0.000536642
2219 1 6.30856 16.994 -0.0178522 -0.000157954 -0.00647193 0.00157792
2220 1 7.54544 15.2191 1.1764 0.0066713 0.0020821 -0.00483702
2221 1 5.02737 14.2374 -0.0123496 -0.00192832 -0.00186197 -0.00706078
2222 1 6.25953 16.0829 1.18748 -0.00363461 0.00126832 0.00724303
2223 1 3.85385 16.0348 1.25076 0.00663054 -0.0133043 -0.00268221
2224 1 5.05885 14.3078 2.43245 -0.000412326 -0.00273792 -0.000251712
2225 1 5.10071 15.1526 1.22316 -0.00118349 -0.00189255 -0.00652085
2226 1 6.30984 16.9806 2.46499 -0.00519849 -0.00534907 -0.000278548
2227 1 3.79833 16.9601 2.46332 -0.00127289 -0.00827331 -0.00778633
2228 1 5.09517 15.1773 3.67041 0.0047501 0.00733006 -0.000825778
2229 1 2.5141 14.3078 2.40336 0.00394188 0.0014096 0.00268795
2230 1 3.81942 16.0235 3.69129 -0.00139193 0.00407261 -0.00304592
2231 1 1.31296 16.0812 3.6694 -0.00110425 0.00267775 0.00860602
2232 1 2.52742 14.239 4.93565 -0.00395474 0.000158372 6.03413e-05
2233 1 2.56783 15.1594 3.6826 0.00291229 0.00501634 -0.00404533
2234 1 3.81078 16.9751 4.91071 0.0063742 0.00603199 0.00165669
2235 1 1.33848 16.9786 4.91573 -0.000689589 -0.00158465 0.00549508
2236 1 2.57628 15.1454 6.21351 0.000923074 0.00581148 -0.000515941
2237 1 20.1631 14.2775 4.82887 0.000675979 -0.00291804 -0.0033194
2238 1 1.32327 16.0846 6.12412 -0.00341766 0.00488542 1.58e-05
2239 1 0.0598438 14.2753 7.31389 -0.00113504 0.0103391 -0.00133656
2240 1 0.066509 15.2067 6.14843 8.98844e-05 -0.000650697 -0.00770947
2241 1 1.26822 16.9539 7.39592 -0.00243042 0.00352869 -3.96082e-05
2242 1 0.0386379 15.1609 8.637 -0.00367139 -0.0023365 0.00599231
2243 1 17.6478 15.1529 -3.78166 0 0 0
2244 1 16.3872 16.0442 -3.78166 0 0 0
2245 1 13.8661 16.0442 -3.78166 0 0 0
2246 1 15.1267 14.2615 -2.52111 0 0 0
2247 1 15.1267 15.1529 -3.78166 0 0 0
2248 1 16.3872 16.9356 -2.52111 0 0 0
2249 1 13.8661 16.9356 -2.52111 0 0 0
2250 1 15.1267 15.1529 -1.26055 0 0 0
2251 1 12.6055 14.2615 -2.52111 0 0 0
2252 1 13.8661 16.0442 -1.26055 0 0 0
2253 1 11.345 16.0442 -1.26055 0 0 0
2254 1 12.6567 14.2292 -0.0552936 -0.00232733 0.00122904 0.00573934
2255 1 12.6055 15.1529 -1.26055 0 0 0
2256 1 13.8722 16.9257 -0.05234 0.00422235 -0.00116022 0.00108447
2257 1 11.3623 16.9592 -0.015096 -0.00508462 -0.00220566 0.000532858
2258 1 12.5627 15.1439 1.16005 0.00100549 0.00597227 0.00492744
2259 1 10.0859 14.275 -0.0117837 -0.00793805 -0.00701519 -0.000744333
2260 1 11.3441 16.0691 1.19178 0.00348628 0.00222053 0.00126323
2261 1 8.8341 16.0819 1.21312 0.00110033 -0.00510757 -0.00628978
2262 1 10.0761 14.2641 2.41459 -0.00322799 0.00016039 -0.00127263
2263 1 10.0803 15.2191 1.214 0.00314374 -0.00376143 0.00188474
2264 1 11.3476 16.9509 2.44491 0.0032098 -0.00106567 -0.000735755
2265 1 8.85602 16.993 2.43306 0.00923623 -0.00851782 -0.00332392
2266 1 10.1036 15.1881 3.66198 -0.00329263 -0.00659804 9.70643e-05
2267 1 7.60133 14.3375 2.44124 -0.00380571 -0.000763981 0.00321781
2268 1 8.83881 16.0708 3.68174 0.00115944 -0.00988316 -0.00224406
2269 1 6.31719 16.0941 3.71258 0.0024363 0.000784627 0.00831733
2270 1 7.49959 14.3233 4.94842 -0.00259383 -0.00607812 -0.000853718
2271 1 7.58536 15.1807 3.69792 0.00334945 -0.00770653 -0.00221136
2272 1 8.81485 16.9698 4.86848 0.000897821 0.00183937 -0.00399486
2273 1 6.34849 16.9639 4.9084 -0.00222613 0.000147542 -0.00341733
2274 1 7.52091 15.2065 6.17817 -9.00769e-05 0.000552647 0.00813044
2275 1 5.08149 14.2444 4.94138 -0.00974492 -0.00459199 -0.00261063
2276 1 6.31261 16.0438 6.20167 0.00354421 0.0114308 0.00220136
2277 1 3.78776 16.0548 6.15804 -0.00754177 0.00414044 -0.0105709
2278 1 5.052 14.3192 7.39587 -0.00964406 -0.00131768 -0.00351261
2279 1 5.07287 15.1789 6.1584 0.00659547 -0.0125336 0.000144367
2280 1 6.3362 16.9851 7.35589 0.0052293 -0.00118655 -0.00196466
2281 1 3.82612 17.0301 7.37169 0.00901143 0.00507018 -0.00672313
2282 1 5.10044 15.2368 8.61784 0.003664 -0.00628044 -0.00352537
2283 1 2.55514 14.265 7.37473 0.000524977 0.0016265 -0.0040972
2284 1 3.80497 16.1307 8.63632 -0.000857564 0.00398197 -0.000523044
2285 1 1.27293 16.0802 8.67488 0.00484484 0.00247573 -0.0012809
2286 1 2.53827 14.3093 9.89116 -0.00163154 0.00751006 0.00277592
2287 1 2.57066 15.197 8.64729 -0.00562612 -0.00219103 -0.000933791
2288 1 3.77958 17.0236 9.84422 0.00415562 0.000810226 0.00698906
2289 1 1.21802 16.9592 9.88833 0.0018675 -4.19299e-05 -0.00484264
2290 1 2.53005 15.1469 11.117 0.00265173 0.00757672 -0.00304098
2291 1 20.1502 14.2062 9.82104 0.002298 -0.00226537 -0.00118035
2292 1 1.23795 16.0961 11.114 0.00010658 -0.00780932 -0.00341625
2293 1 0.093276 14.2958 12.3323 0.00235489 -0.000645821 0.00678402
2294 1 0.0131925 15.1321 11.108 0.00364543 -0.00784476 0.000714308
2295 1 1.26096 16.9415 12.3663 0.000688613 0.00201784 0.00360784
2296 1 0.012466 15.1681 13.5767 -0.00322416 -0.00290238 0.000263294
2297 1 18.9083 16.0442 -3.78166 0 0 0
2298 1 18.9083 16.9356 -2.52111 0 0 0
2299 1 17.6478 14.2615 -2.52111 0 0 0
2300 1 18.9083 16.0442 -1.26055 0 0 0
2301 1 16.3872 16.0442 -1.26055 0 0 0
2302 1 17.644 14.2114 -0.0649678 -0.00455377 0.00546882 -0.0025178
2303 1 17.6478 15.1529 -1.26055 0 0 0
2304 1 18.9169 16.9393 -0.0132846 0.00576014 0.00821932 0.00102598
2305 1 16.41 16.9463 -0.0207394 0.0020562 0.00139415 0.000776179
2306 1 17.6456 15.1077 1.15482 0.00332743 0.00229978 0.0001156
2307 1 15.0872 14.227 -0.0365709 -0.00130755 0.00207639 -0.00707674
2308 1 16.3707 16.0071 1.19168 0.00524664 0.00666892 0.00397954
2309 1 13.8606 16.0479 1.13618 -0.00121155 0.00170477 -0.00373783
2310 1 15.1363 14.2567 2.44131 -0.0017328 0.00651794 -0.00933267
2311 1 15.1043 15.1455 1.18539 0.00206406 -0.0112831 0.00455353
2312 1 16.3612 16.9454 2.45077 -0.000211101 -0.00955732 -0.00446714
2313 1 13.895 16.9643 2.40364 0.000368585 5.33521e-05 -0.00372544
2314 1 15.1757 15.1418 3.65232 0.00131331 0.00760698 0.00567531
2315 1 12.577 14.2694 2.44676 -0.00496807 -0.000836095 -0.00373148
2316 1 13.8891 16.0806 3.63456 0.00150011 0.00384554 -0.00987784
2317 1 11.3572 15.9955 3.64607 -0.00066221 -0.0122473 0.00172468
2318 1 12.6374 14.2113 4.83443 0.00457272 -0.00588904 -0.00508999
2319 1 12.6065 15.1448 3.63138 -0.00744992 0.0103315 -0.00464473
2320 1 13.87 16.9339 4.91524 -0.0101215 0.00532371 -0.000483696
2321 1 11.3862 16.9865 4.83792 0.00142699 -0.000397257 -0.00484144
2322 1 12.62 15.1085 6.06313 0.00388871 0.0129519 -0.00497737
2323 1 10.0823 14.3092 4.87901 0.00341475 -0.0098202 0.00482672
2324 1 11.3667 16.0456 6.10859 -0.00604459 0.00146686 -0.0025109
2325 1 8.80284 16.0773 6.14641 -0.00289887 -0.00604399 -0.00672648
2326 1 10.103 14.3091 7.40041 -0.00107281 -0.00108853 0.00249503
2327 1 10.0926 15.2036 6.11727 -0.000643054 0.00179333 -0.00224482
2328 1 11.4003 16.9308 7.34274 -0.00639494 -0.00508 0.0030545
2329 1 8.8539 16.9727 7.38015 -0.0141948 0.0101024 0.00208451
2330 1 10.0895 15.1912 8.63444 0.000166373 0.004859 0.00921738
2331 1 7.54408 14.2581 7.42236 0.00431809 -0.00269786 -0.0018826
2332 1 8.79686 16.0361 8.65202 0.00671189 -0.00444777 5.26835e-05
2333 1 6.31906 16.099 8.61519 0.00221088 0.000454112 -0.00815879
2334 1 7.5951 14.2581 9.89573 0.0125515 0.000988003 0.0012133
2335 1 7.59156 15.1893 8.63076 -0.00347419 0.00380618 -0.00189546
2336 1 8.82683 16.9166 9.88434 0.00620201 -0.000538587 0.00275716
2337 1 6.34152 16.9901 9.82027 -0.00665441 -0.00711138 -0.000985633
2338 1 7.57062 15.1272 11.1374 0.00290325 -0.00219615 -0.00384128
2339 1 5.07497 14.2753 9.87475 -0.00355337 0.00224988 0.00851529
2340 1 6.36601 16.0043 11.0475 -0.00403573 0.000607323 -0.00468874
2341 1 3.76188 16.0632 11.0669 -0.0051471 -0.00435209 -0.00621619
2342 1 5.0746 14.2767 12.3663 -0.00476272 -0.00261936 0.00297655
2343 1 5.10412 15.1383 11.1036 -0.00445513 -0.00505956 0.00356651
2344 1 6.32131 16.8964 12.3369 0.00010096 0.00448162 -0.00451337
2345 1 3.82537 16.9483 12.3315 -0.0027764 0.000550381 -5.23743e-05
2346 1 5.07671 15.159 13.6233 0.00478723 0.00220337 -0.00483169
2347 1 2.6146 14.2527 12.3186 0.00865748 0.00126329 -0.0133105
2348 1 3.86281 16.0556 13.5847 0.00148694 0.00230503 0.00782422
2349 1 1.31898 16.0684 13.6172 -0.00184705 -0.00559922 -0.00457106
2350 1 2.55798 14.2572 14.7996 0.00515792 0.00208014 -0.00191298
2351 1 2.56836 15.207 13.5155 -0.00608243 0.00874914 -0.00618452
2352 1 3.79171 16.9516 14.8459 0.00265695 -0.00820759 -0.00333325
2353 1 1.319 16.9273 14.8578 -0.0018276 -0.00272489 -0.000320677
2354 1 2.55003 15.1002 16.0563 0.00675512 -0.000359963 0.00126003
2355 1 0.0604873 14.2467 14.8397 0.00257517 0.00181558 0.000803329
2356 1 1.2522 16.0721 16.1048 -0.00224819 0.00457034 -0.00824975
2357 1 20.1645 14.2358 17.2849 0.00496266 -0.00174699 -0.00661394
2358 1 0.0453587 15.1822 16.1085 -0.00856815 0.000417629 0.00306696
2359 1 1.29525 17.0004 17.3562 -0.00327955 -0.00282773 -0.00130346
2360 1 20.167 15.1504 18.5049 0.00239996 0.00496048 0.00393244
2361 1 18.9092 16.0092 1.23097 -0.000444253 0.000643786 -0.00324399
2362 1 18.9049 16.9687 2.45849 0.00451269 -0.00967809 -0.00487117
2363 1 17.6344 14.2484 2.43939 -0.00443196 -0.000978589 0.000933068
2364 1 18.8978 16.1156 3.69954 -0.000795052 -0.00803014 -0.0032554
2365 1 16.4223 16.0557 3.67986 -0.00293589 -0.00580153 0.00110948
2366 1 17.7001 14.2801 4.86406 -0.00110124 -0.00526463 -0.00526388
2367 1 17.7283 15.152 3.68073 0.0120155 -0.00583859 0.000174758
2368 1 18.9499 16.9704 4.93812 -0.00390649 -0.00284982 -0.00339953
2369 1 16.4031 16.9272 4.91725 -0.00603981 0.00551427 -0.00422567
2370 1 17.6879 15.127 6.10645 0.00883345 0.00361086 0.00557209
2371 1 15.1428 14.243 4.87598 -0.0013332 0.00561441 0.0020589
2372 1 16.4351 15.9994 6.07795 -0.00497108 0.00438138 -0.00807813
2373 1 13.8628 16.0307 6.13946 -0.000664056 -0.00616272 -0.00265684
2374 1 15.1715 14.2127 7.38578 0.00167017 -0.00529387 0.00106959
2375 1 15.1898 15.1741 6.09293 -0.00456619 0.00334895 -0.00862797
2376 1 16.3937 16.9105 7.32374 -0.00580262 0.000875685 -0.000721474
2377 1 13.84 16.9319 7.36122 0.00256439 -0.0041424 -0.00129595
2378 1 15.1366 15.2169 8.58537 -0.000161002 -0.00884556 -4.93938e-05
2379 1 12.6124 14.2578 7.40487 0.00129917 0.00118734 0.00499532
2380 1 13.8947 16.0263 8.59957 0.0138996 -0.00158382 -0.00144515
2381 1 11.3163 16.0097 8.61146 0.0042794 0.00276227 -0.0073201
2382 1 12.6255 14.3136 9.85308 -0.00381046 0.00261773 -0.00290724
2383 1 12.5908 15.1746 8.62684 0.00306737 0.00555309 -0.00791592
2384 1 13.8452 16.9054 9.8445 -7.4937e-05 0.00379245 0.00363398
2385 1 11.3689 16.9253 9.81179 -0.00337127 0.000961497 -0.0114165
2386 1 12.6671 15.2185 11.1462 -0.00348612 4.38898e-05 0.00295042
2387 1 10.1126 14.2568 9.87933 -0.00233893 -0.00166658 0.0019881
2388 1 11.3356 16.0121 11.0849 0.00310539 0.00658941 -0.00133126
2389 1 8.83316 15.999 11.093 -0.00428314 -0.00606338 0.00676617
2390 1 10.1208 14.3518 12.3764 -0.00365766 -0.00226717 -0.00608656
2391 1 10.0751 15.1874 11.1355 0.00643133 0.0022137 -7.12533e-05
2392 1 11.3357 16.9666 12.3554 0.00181145 0.000334574 0.00600518
2393 1 8.79538 16.9096 12.3876 0.0061266 -0.00277243 0.000551993
2394 1 10.0884 15.1826 13.5982 0.00533677 0.00548555 -0.00604079
2395 1 7.58001 14.3175 12.3721 0.00177484 -0.0065176 -0.00256581
2396 1 8.84958 16.0879 13.6139 -0.00210108 0.00413136 0.00743652
2397 1 6.30995 16.0104 13.6256 5.89674e-05 -0.00229576 0.00579543
2398 1 7.58271 14.216 14.8869 -0.00762717 0.000666554 -0.000719649
2399 1 7.59213 15.1314 13.6154 0.00149132 0.00111116 -0.00118443
2400 1 8.84724 16.9569 14.8628 0.00125231 0.00710667 -0.00380324
2401 1 6.31693 16.8928 14.8295 0.000573584 -0.000812803 0.000699154
2402 1 7.55986 15.117 16.1298 0.00234765 0.00223395 -0.00379874
2403 1 5.06989 14.2641 14.8511 -0.00155658 -0.0059425 -0.00481789
2404 1 6.29422 16.0699 16.1109 -0.00119771 0.00504368 0.00495133
2405 1 3.79746 16.0503 16.0644 0.00515578 -0.00360895 -0.00270249
2406 1 5.02602 14.2407 17.3084 -0.00701184 -0.00671197 -0.00240286
2407 1 5.02589 15.1875 16.085 -4.4291e-05 -0.00463298 -8.9928e-05
2408 1 6.3401 16.9262 17.3496 0.00685699 0.00673389 0.0129418
2409 1 3.85187 16.9537 17.3253 0.000817456 -0.00281979 0.00146065
2410 1 5.02384 15.1952 18.6091 0.00366952 -0.00275792 -0.00643991
2411 1 2.54459 14.2612 17.2957 -0.00506776 -0.000622348 -0.00351791
2412 1 3.81378 16.1178 18.5627 -0.00411942 0.00213799 -0.00769149
2413 1 1.23893 16.0908 18.5665 0.00291691 0.00859307 -0.00312874
2414 1 2.52049 14.294 19.7556 0.000712132 0.0100775 0.00298494
2415 1 2.57794 15.2457 18.5277 -0.00102971 -0.00215569 -0.00312566
2416 1 3.78804 16.9717 19.8082 0.00784434 -0.000209495 -0.00398825
2417 1 1.26021 16.9566 19.8571 0.00269582 -0.00545682 -0.00808977
2418 1 2.57913 15.1664 21.0583 0.000772784 0.00578521 -0.00272179
2419 1 0.00535624 14.2624 19.7914 -0.00173532 0.00229592 0.00862475
2420 1 1.29146 16.0735 21.0756 0.00613638 0.00149622 0.000104477
2421 1 20.1608 14.2018 22.258 -0.00554657 0.000331828 -0.00659121
2422 1 0.0655389 15.1266 21.036 -0.00607265 0.00618797 0.00513081
2423 1 1.26445 16.9402 22.3263 -0.00203933 -0.00253047 -0.00171224
2424 1 0.00576972 15.1214 23.5018 0.006882 -0.0029228 -0.00576248
2425 1 18.8928 16.0379 6.15685 0.000769365 -0.00687441 -0.0100288
2426 1 18.9006 16.9483 7.37947 -0.00215949 -0.000342769 -0.00656199
2427 1 17.6549 14.2562 7.36873 -0.00482743 -0.0010376 0.00677654
2428 1 18.9046 15.9948 8.62437 0.00447501 -0.00283034 -0.00104347
2429 1 16.3875 16.0748 8.60361 -0.00269925 -0.00194671 0.00494587
2430 1 17.6495 14.292 9.8805 0.00385192 -0.000230741 -0.00105597
2431 1 17.658 15.1382 8.60472 0.00423472 0.00402604 -0.00431558
2432 1 18.8846 16.8847 9.85284 0.000694357 -0.00196693 0.000451451
2433 1 16.4007 16.9483 9.83697 -0.000477172 -0.00810551 -0.00409566
2434 1 17.6871 15.177 11.1579 -0.00395643 -0.00646703 -0.00623803
2435 1 15.1338 14.323 9.79216 0.00461966 0.00447583 0.00281869
2436 1 16.4037 16.0798 11.084 -0.00518054 0.0003979 -0.00126218
2437 1 13.9188 16.056 11.1669 0.00137856 -0.000911041 0.00641222
2438 1 15.094 14.2646 12.318 -0.00187786 -0.000107685 -0.00404523
2439 1 15.1283 15.1334 11.0951 0.00528313 -0.00185134 -0.00250608
2440 1 16.4153 16.9632 12.4037 0.00538005 0.0083193 -0.00403096
2441 1 13.87 16.9856 12.3706 0.00373959 -0.000775531 0.00141712
2442 1 15.1214 15.169 13.5885 0.00133212 -0.00425052 0.00890475
2443 1 12.6379 14.2665 12.3605 0.00327357 0.00171753 0.00177234
2444 1 13.8351 16.1013 13.6387 0.01168 0.000903635 0.00109357
2445 1 11.3723 16.0088 13.6337 -0.00702975 -0.000666532 0.00330592
2446 1 12.6068 14.2944 14.8247 0.00246669 0.00551883 -0.00230005
2447 1 12.6272 15.1847 13.5944 -2.81165e-05 0.00418848 -0.00483096
2448 1 13.9413 16.9303 14.9119 0.000313878 -0.00950326 0.00413679
2449 1 11.351 16.962 14.8158 0.00229851 0.00314968 -0.00241341
2450 1 12.5892 15.1921 16.0714 0.00283708 0.00561609 0.000500885
2451 1 10.1142 14.2934 14.8178 0.00210634 -6.42624e-05 0.00150075
2452 1 11.3263 16.128 16.0758 -0.000829369 0.00374978 -0.00195382
2453 1 8.83833 16.0657 16.0719 0.00311253 -0.000639491 -0.000942472
2454 1 10.0823 14.3158 17.3254 5.53475e-05 -0.0037013 -0.00465009
2455 1 10.1391 15.125 16.0443 -0.006654 0.00600161 -0.0076342
2456 1 11.35 17.0114 17.3025 0.0010397 0.00157817 -0.00552035
2457 1 8.83416 16.9029 17.3554 -0.00293733 0.000744374 0.00107022
2458 1 10.0975 15.208 18.5383 0.00667627 0.00409795 -0.00134457
2459 1 7.54954 14.1938 17.3121 0.00288214 0.00101208 0.00855297
2460 1 8.79416 16.0137 18.6012 -0.00181316 -0.00332112 -0.00852961
2461 1 6.34344 16.0471 18.5621 0.00142621 -0.00493666 0.00124957
2462 1 7.57883 14.1813 19.7637 -0.00199481 -0.00709331 -0.00304285
2463 1 7.5582 15.1356 18.5384 0.0067774 -0.00315833 -0.00538214
2464 1 8.86094 16.9156 19.8679 0.00271333 0.000774824 0.00245742
2465 1 6.32884 16.964 19.8315 -0.000827919 0.00225464 -0.0043885
2466 1 7.57825 15.082 21.0471 -0.0102609 -0.0101812 -0.00224531
2467 1 5.07697 14.2659 19.8094 -0.0142942 -0.00535426 0.00361817
2468 1 6.34773 16.0301 21.0298 0.00952973 -0.000764052 -0.00288842
2469 1 3.81437 16.0533 21.0583 -0.00623671 -0.00221063 0.00296443
2470 1 5.0858 14.2976 22.2695 0.0121607 0.00627408 -0.00500259
2471 1 5.08991 15.1806 21.0993 -0.00684239 0.0039487 0.00224826
2472 1 6.3364 16.9127 22.3095 -0.00251147 -0.00174408 0.000654052
2473 1 3.79927 16.9404 22.3359 -0.0017214 0.00329435 -0.00627502
2474 1 5.05914 15.1402 23.5372 0.000106056 0.00108549 0.00553451
2475 1 2.5619 14.3236 22.2995 0.00712843 -0.000840488 0.00287226
2476 1 3.82267 16.052 23.567 0.00382728 -0.000328714 0.00643872
2477 1 1.31688 16.04 23.5106 -0.00522394 -0.000523769 -0.00137355
2478 1 2.55516 14.302 24.7762 0.00318148 -0.00485326 -0.00687889
2479 1 2.53333 15.1835 23.5719 0.00724697 0.00807114 -0.000745369
2480 1 3.79174 16.9461 24.7686 0.0024427 -0.00116205 -0.000654492
2481 1 1.2762 16.9733 24.8091 -0.00517879 -0.00631279 0.00409038
2482 1 2.53995 15.2166 26.0185 -0.00710796 -0.00635718 0.00253746
2483 1 0.012094 14.2834 24.7057 -0.00109345 0.0129 -0.00036554
2484 1 1.2315 15.9763 26.0337 -0.00790625 0.0085847 0.00902804
2485 1 0.0581159 14.2453 27.3086 -0.00837163 -0.00754916 0.00518195
2486 1 0.0103006 15.1532 26.0394 -0.00253258 -0.0021133 -0.00417876
2487 1 1.2636 16.9527 27.3103 0.0046276 0.00522065 -0.00257425
2488 1 0.0837796 15.1789 28.5438 -0.00200324 -0.00650792 0.000709171
2489 1 18.9183 16.0851 11.0971 0.00326426 0.00321186 -0.00524274
2490 1 18.9306 16.9699 12.3136 -0.00797862 -0.00206384 -0.00903786
2491 1 17.7262 14.2368 12.3107 -0.00575547 0.000196161 0.00207842
2492 1 18.9172 16.0157 13.6008 -0.00314026 -0.000667962 -0.00259641
2493 1 16.4022 16.0297 13.6069 0.000723808 0.000554279 0.00517036
2494 1 17.6655 14.2309 14.8177 -0.00172165 -0.00647556 -0.00627968
2495 1 17.6348 15.1628 13.5761 0.000717288 -0.00234085 -0.00932877
2496 1 18.9002 16.9309 14.8775 0.00432032 0.00233382 0.00394289
2497 1 16.3905 16.938 14.8855 0.0070733 0.00192783 -0.00684219
2498 1 17.6383 15.1043 16.046 -0.0051041 0.00111708 -0.00196255
2499 1 15.1418 14.262 14.7903 -0.00097402 0.0116776 -0.0045607
2500 1 16.4077 16.0724 16.0593 -0.00319707 0.00454288 -0.00381134
2501 1 13.8564 16.0887 16.0986 -0.00587528 -0.0061649 0.00227012
2502 1 15.1879 14.2499 17.2914 0.0025096 -0.0033177 -0.000963608
2503 1 15.176 15.1346 16.0478 0.00114125 -0.00315138 0.00274714
2504 1 16.4224 16.941 17.312 -0.00154965 -0.00238312 0.00516439
2505 1 13.9471 16.9655 17.344 0.00559217 -0.0101035 0.00250347
2506 1 15.154 15.1115 18.52 0.000642931 -0.00159883 0.000878892
2507 1 12.6167 14.2903 17.2961 -0.0037426 0.00723737 -0.000849443
2508 1 13.8989 16.0318 18.5595 -0.00714062 0.00902945 -0.000398379
2509 1 11.3579 16.0974 18.5437 -0.00255543 0.00216551 -0.00805624
2510 1 12.6303 14.2259 19.7338 -0.0035389 0.00453153 0.00263667
2511 1 12.5895 15.1889 18.5255 -0.00207635 -0.00958827 0.00304002
2512 1 13.8546 16.9351 19.7418 0.0039174 0.00560436 -0.00592048
2513 1 11.3197 16.9287 19.8078 0.00037717 0.00151666 0.000283215
2514 1 12.6142 15.1211 21.0275 0.00159398 0.00739127 -0.00570324
2515 1 10.035 14.2758 19.7788 0.00686147 -0.000938141 -0.00199779
2516 1 11.3973 16.0427 21.0437 -0.00341489 5.96369e-05 -0.000784288
2517 1 8.84712 16.0357 21.0292 -0.00673478 0.00697586 -0.000733615
2518 1 10.1164 14.3259 22.214 -0.00504881 -0.00450818 -0.0025929
2519 1 10.0856 15.1887 20.9731 0.00476867 0.00197233 0.00625773
2520 1 11.3401 16.9586 22.2141 0.00130092 0.00818646 0.00062239
2521 1 8.87729 16.9845 22.315 0.0107107 -0.00631782 -0.00892916
2522 1 10.0708 15.1589 23.5228 -0.000893974 0.00399504 0.0020771
2523 1 7.60202 14.2192 22.2505 0.00213352 0.0027496 0.00797034
2524 1 8.78097 16.0624 23.5373 -0.00303827 -0.00612935 -0.000829977
2525 1 6.35651 16.0395 23.5041 -0.00673921 0.00197209 -0.00135113
2526 1 7.596 14.2689 24.7653 0.00179576 0.00874402 0.000721813
2527 1 7.58856 15.1037 23.484 0.003844 -0.00233867 0.00585157
2528 1 8.84777 16.9514 24.8122 0.00208847 -0.00755318 -0.00192505
2529 1 6.32923 16.9531 24.8477 0.00488698 -0.00781512 -0.00489828
2530 1 7.65798 15.1445 26.0352 -0.00194997 -0.00645519 0.000560043
2531 1 5.07271 14.2894 24.7642 -0.00151754 0.00224362 -0.000597219
2532 1 6.36642 16.0564 26.0346 0.000546108 -0.00750631 -0.007187
2533 1 3.8052 16.0626 26.0245 0.00602642 -0.00886392 0.00758068
2534 1 5.05879 14.3441 27.2636 0.0029119 0.00257826 0.00237352
2535 1 5.05999 15.1857 26.0289 -0.00458412 -0.00816268 -0.00666391
2536 1 6.36033 16.9564 27.255 -0.0075459 0.0071647 -0.00740876
2537 1 3.84162 16.9445 27.3011 0.00210394 -0.00157906 0.00738576
2538 1 5.06946 15.2454 28.5074 -0.00157645 -0.00333553 -0.00680476
2539 1 2.56721 14.2548 27.2296 0.00498758 -0.00358481 0.00175249
2540 1 3.83779 16.0746 28.536 0.00287375 -0.00569718 0.00338606
2541 1 1.31241 16.097 28.501 0.00617161 0.00122808 -0.00784319
2542 1 2.56857 14.2533 29.7398 0.00429086 0.00508368 0.00159629
2543 1 2.5689 15.247 28.5198 -0.0029798 0.00324838 0.000844349
2544 1 3.76586 16.993 29.8156 -0.00269795 -0.00143816 -0.0019011
2545 1 1.31061 16.944 29.7758 0.00149853 -0.00338321 0.00109274
2546 1 2.58552 15.1544 31.0261 0.00470147 -0.00045107 -0.00734974
2547 1 0.0441265 14.2918 29.7917 0.00322826 -0.00151632 -0.0121997
2548 1 1.29144 16.0507 31.0428 -0.00238836 -0.00260188 0.00209568
2549 1 0.105465 14.3008 32.2698 -0.000348205 -0.00293189 -0.00168607
2550 1 0.0730992 15.2053 31.0075 -0.00177295 -0.00797371 -5.93096e-05
2551 1 1.3048 16.9197 32.2722 -0.00540882 0.000383589 -0.00176391
2552 1 0.0447952 15.1657 33.5572 -0.00227302 -0.00357695 0.00424576
2553 1 18.8899 16.0668 16.0939 -0.00695646 -0.000120023 -0.00429259
2554 1 18.9186 16.9507 17.2995 0.0025844 0.00349784 0.00452157
2555 1 17.6674 14.1992 17.3212 0.00665523 -0.0113585 0.000648777
2556 1 18.931 16.0657 18.5883 0.00424366 -0.00572311 0.00117417
2557 1 16.4131 16.0048 18.5627 0.00160852 -0.000809785 -0.00113066
2558 1 17.6903 14.2585 19.8044 -8.88272e-05 -0.00676656 -0.00531171
2559 1 17.6742 15.1309 18.5333 0.00244005 -0.00237774 0.00203977
2560 1 18.9264 16.9129 19.8028 0.00212059 0.00340857 0.00206783
2561 1 16.3816 16.9073 19.8225 -0.00281019 -0.000424713 -0.00355162
2562 1 17.6381 15.1359 21.0992 0.00139486 0.00675512 -0.0103759
2563 1 15.1983 14.2971 19.7502 0.000811783 -0.00907802 0.00152897
2564 1 16.4038 15.9767 21.0906 0.0018069 0.00433473 0.00368873
2565 1 13.8677 16.0339 21.0155 0.00249239 -0.000378436 -0.00549773
2566 1 15.079 14.2607 22.3069 0.00177989 0.0033223 -0.00649613
2567 1 15.1039 15.1412 21.052 0.00573721 -0.00711554 0.00281012
2568 1 16.3733 16.894 22.3173 -0.00979908 0.0100091 -0.00540596
2569 1 13.8601 16.9075 22.3174 -0.00493863 0.006134 -0.00579504
2570 1 15.1403 15.1412 23.5484 -0.00255755 0.00692324 0.00189404
2571 1 12.616 14.2633 22.2826 -0.0090255 -0.00710289 -0.00427453
2572 1 13.9057 16.0126 23.566 -0.000590386 -0.010596 0.00308109
2573 1 11.35 16.0365 23.5592 -0.00813196 -0.0012899 -0.000417512
2574 1 12.6393 14.2306 24.6946 -0.00397674 -0.00282127 0.0044301
2575 1 12.591 15.1606 23.4895 0.0102664 0.000915137 0.00148314
2576 1 13.9397 16.9396 24.7619 -4.5222e-05 0.00321705 -0.00251412
2577 1 11.3527 16.9236 24.7786 0.00102214 -2.35086e-05 -0.000269554
2578 1 12.6786 15.1621 25.9902 0.00203699 -0.000950925 -0.00142082
2579 1 10.1083 14.2275 24.7164 0.00148773 -0.00615466 -0.00338067
2580 1 11.366 16.0571 26.019 0.0034981 -0.0101653 -0.00600505
2581 1 8.81171 15.985 25.9631 0.00166743 0.00527074 -0.000673613
2582 1 10.1015 14.2684 27.2418 -0.00457482 -0.00363064 -0.00912761
2583 1 10.1226 15.1331 26.0109 0.00279405 -0.00755065 -0.000741884
2584 1 11.3483 16.9923 27.2783 -0.00251472 0.00282639 0.00289586
2585 1 8.8267 16.8832 27.2702 0.00380238 0.000797851 -0.00133652
2586 1 10.1092 15.2017 28.4928 0.00464986 0.00111161 0.0032664
2587 1 7.60741 14.2503 27.281 0.00682055 0.00166684 0.0018118
2588 1 8.85872 16.02 28.5237 -0.00101081 2.97779e-07 -0.00405748
2589 1 6.34617 16.0745 28.558 -0.00692039 0.00648974 -0.0100735
2590 1 7.58128 14.2519 29.7473 -0.000396846 0.0042873 -8.93746e-05
2591 1 7.58981 15.174 28.5018 0.00339871 0.00217394 -0.00299527
2592 1 8.78879 16.9787 29.7912 -0.00313457 -0.00108149 -0.00101548
2593 1 6.36233 16.9633 29.791 0.00740133 -0.00363073 0.00168985
2594 1 7.60288 15.1608 30.9666 -0.00833481 0.00625482 -0.00310273
2595 1 5.0828 14.2699 29.7611 0.00411736 -0.00217755 -0.00176682
2596 1 6.38104 16.0382 31.0327 -0.000169869 0.00119123 0.00300102
2597 1 3.79913 16.0415 31.0434 -0.00317985 -0.000154683 -0.00141561
2598 1 5.08934 14.2919 32.2554 -0.00334026 0.0015593 0.00212101
2599 1 5.04962 15.1702 30.988 0.0037927 0.00204364 0.000482902
2600 1 6.32421 16.984 32.3182 -0.00285838 -0.00479224 -7.60986e-05
2601 1 3.84819 16.9706 32.2427 -0.00374191 -0.000188683 0.00740617
2602 1 5.07893 15.1861 33.4787 -0.00368034 0.00496344 -0.00217174
2603 1 2.60391 14.2675 32.2704 -0.00156568 0.00823526 0.00563711
2604 1 3.78804 16.0656 33.5035 0.00742829 -0.0021183 0.0034081
2605 1 1.30706 16.0434 33.5134 -0.0107683 -0.00723361 -0.00776569
2606 1 2.5473 14.2467 34.7627 -0.00450801 4.98866e-05 0.000174622
2607 1 2.54608 15.1398 33.5538 0.000572811 0.000353093 -0.00359564
2608 1 3.84045 16.974 34.7371 0.000718204 -0.00580539 0.000217093
2609 1 1.31457 16.9093 34.7552 0.00392685 0.0026567 0.00724633
2610 1 2.57554 15.1269 36.0222 0.00163371 0.00559553 -0.0037491
2611 1 0.0839068 14.3093 34.806 -0.0108765 0.00265603 -0.013998
2612 1 1.35135 16.016 36.0658 0.005309 -0.00157369 0.00121406
2613 1 0.123504 14.1687 37.1976 0.00386957 0.00800696 -0.00130144
2614 1 0.10532 15.1606 36.0836 -0.00278038 0.00633756 0.00873705
2615 1 1.34837 16.9545 37.2386 -0.00209678 -0.00263991 -0.000611663
2616 1 18.9283 16.0393 21.0495 0.000980727 0.00429052 0.0016912
2617 1 18.9055 16.9482 22.3476 -0.000475641 0.00925739 -0.00677726
2618 1 17.6818 14.2558 22.294 -0.000226088 -0.00116544 -0.0014448
2619 1 18.9455 16.0154 23.5413 -0.0018914 0.00767334 -0.00114228
2620 1 16.4249 15.9954 23.5597 -0.00551552 -0.00155521 0.00494883
2621 1 17.6511 14.2468 24.8058 0.000861932 -0.00283579 -0.000757373
2622 1 17.6522 15.1718 23.5703 0.00334654 0.00828205 0.00159351
2623 1 18.9144 16.9056 24.7662 0.00227297 -0.00362829 0.000664962
2624 1 16.3656 16.9416 24.8509 -0.000546512 -0.00892481 -0.00871314
2625 1 17.615 15.1569 26.0676 0.000331078 0.00576175 -0.00390334
2626 1 15.1486 14.2786 24.8003 -0.00169247 0.00242581 0.00377873
2627 1 16.3913 16.0276 26.0887 -0.00201555 0.00245744 0.0035396
2628 1 13.9091 16.038 26.0042 0.00631027 -0.00719967 0.000483311
2629 1 15.1567 14.3224 27.3201 -0.00749647 0.00899029 0.00761127
2630 1 15.1736 15.1069 26.0365 -0.0030276 -0.00609674 -0.00508821
2631 1 16.4259 16.9437 27.3488 -0.000635487 0.00312984 -0.00472304
2632 1 13.8459 16.9662 27.268 -0.00348734 -0.00206308 0.000612549
2633 1 15.2098 15.2207 28.5307 0.004142 -0.00311664 -0.0040568
2634 1 12.6377 14.2852 27.2729 0.00525496 0.000618075 0.00231407
2635 1 13.9247 16.1008 28.4939 -0.00722549 0.0034919 0.00648636
2636 1 11.3678 16.0861 28.4953 -0.00616462 0.00209789 -0.00196787
2637 1 12.6793 14.286 29.7421 -0.00493401 -0.00615566 -0.00778702
2638 1 12.6366 15.196 28.4768 0.00208353 -0.00606663 0.00254352
2639 1 13.9232 16.9263 29.7999 0.00351244 0.0033504 -0.00792542
2640 1 11.3739 16.9622 29.7638 0.000904296 0.000604937 0.00360312
2641 1 12.597 15.1687 31.005 -0.00669346 0.0026693 -0.00188939
2642 1 10.1245 14.2792 29.7723 -0.0047476 -0.000171245 -0.000792211
2643 1 11.4071 16.0283 31.0136 -0.00552894 -0.00642956 0.00302501
2644 1 8.86545 16.0442 30.9887 0.00747267 -0.00117897 0.00139515
2645 1 10.1347 14.2738 32.3079 -0.00375957 4.13335e-05 0.00318906
2646 1 10.1504 15.1259 31.0459 -0.00429934 -0.000354479 -0.000421583
2647 1 11.3708 16.919 32.2134 0.00198946 0.0013906 -0.00178836
2648 1 8.85753 16.9846 32.2288 0.00403405 0.00765901 -0.00415225
2649 1 10.1768 15.1684 33.5118 0.00817897 0.00441118 -0.00551904
2650 1 7.62974 14.3061 32.2935 0.00527344 0.00221659 -0.00302505
2651 1 8.88671 16.0575 33.5303 0.00229942 0.0042179 -0.00624255
2652 1 6.40864 16.0748 33.5325 0.00150015 0.00583067 0.00304267
2653 1 7.6281 14.2154 34.7366 0.00175645 -0.00613213 0.00285159
2654 1 7.6799 15.1722 33.5485 0.00520843 0.00077817 -0.00257817
2655 1 8.9401 16.9827 34.7782 -0.00951898 -0.00841215 0.0017907
2656 1 6.38061 16.9222 34.7776 0.00284334 0.00934932 -0.00790703
2657 1 7.60554 15.1261 36.0018 -0.00689271 0.00126473 -0.0013766
2658 1 5.14842 14.2994 34.7001 0.000741998 -0.00510137 0.00107856
2659 1 6.39588 16.0364 35.9815 0.00381577 0.00579838 0.00726974
2660 1 3.88773 16.0268 36.0184 -0.00482293 0.000503784 0.000322344
2661 1 5.10597 14.1254 37.0868 -0.00470668 0.00305047 -0.00449075
2662 1 5.16632 15.1115 35.9465 -0.00452209 -0.0107564 -0.003204
2663 1 6.42941 17.0035 37.1579 -0.0017936 -0.00844167 0.00482339
2664 1 3.89812 16.9599 37.1308 -0.00642363 -0.00182127 -0.007604
2665 1 2.61404 14.1491 37.1428 -0.00252529 -0.00363853 -0.000837534
2666 1 18.9472 16.042 26.0081 -0.00410287 -0.000918841 -0.00355084
2667 1 18.9076 16.9412 27.2477 -0.00519248 -0.00136177 0.00330104
2668 1 17.6742 14.2482 27.2999 0.000994303 -0.00215712 0.00324887
2669 1 18.9283 16.0001 28.5007 -0.00137981 0.000820288 -0.0010368
2670 1 16.4735 16.0359 28.5402 -0.00541285 -0.00319969 0.000409098
2671 1 17.6583 14.3075 29.7739 0.00157535 0.00550392 0.000843603
2672 1 17.7017 15.1356 28.4874 0.00269329 -0.00169315 0.000711763
2673 1 18.9845 16.9065 29.7542 0.00229742 0.000558237 -0.00457447
2674 1 16.4838 16.9339 29.8033 -0.00474778 0.00291535 0.00329084
2675 1 17.7455 15.1087 31.0484 -0.00652252 0.00163603 0.00183454
2676 1 15.2022 14.249 29.7704 -0.00742794 -0.011534 -0.00318612
2677 1 16.4723 16.0011 31.0431 -0.000404741 0.0036297 0.00729703
2678 1 13.9133 16.0379 31.0123 -0.00520856 0.00666082 0.00450325
2679 1 15.2224 14.2728 32.3113 -0.00378801 -0.002257 -0.00300265
2680 1 15.2014 15.1108 31.0137 -0.00715183 -0.00234644 -0.00400978
2681 1 16.3985 16.8775 32.3163 0.00243092 -0.00263513 0.00431738
2682 1 13.9194 16.9425 32.268 -0.00274992 -0.000815997 0.00457941
2683 1 15.1444 15.1371 33.5305 0.00283553 -0.00475336 0.0041285
2684 1 12.6496 14.2519 32.2567 0.00147676 -0.00423842 0.00615375
2685 1 13.9306 15.9841 33.5262 -0.00519246 0.0113698 0.000908652
2686 1 11.4326 16.0483 33.5485 0.00422197 -0.00267465 -0.00224657
2687 1 12.7341 14.2276 34.7528 -0.00255071 0.00268444 -0.00568321
2688 1 12.6392 15.1143 33.5218 0.00783368 -0.000862342 0.00258216
2689 1 13.9515 16.983 34.7447 -0.0102308 0.00291257 -0.00281161
2690 1 11.4808 16.9937 34.7249 -0.00184884 -0.00575109 -0.00508121
2691 1 12.7013 15.161 36.0578 0.00643113 -0.00905886 0.00189693
2692 1 10.1827 14.2556 34.7644 0.00530747 -0.00298581 0.00323677
2693 1 11.3852 16.1109 36.0253 -0.00683681 0.00523736 0.00519447
2694 1 8.84662 16.0091 36.0764 -0.00411106 -0.00508063 0.00120518
2695 1 10.1412 14.1371 37.1062 0.00188121 0.00297647 -0.0037692
2696 1 10.1152 15.1614 36.0594 0.00232174 0.00321171 -0.00740282
2697 1 11.4286 17.0631 37.1564 0.00245019 0.00634742 0.00170693
2698 1 8.89368 16.9948 37.1756 0.00202235 0.00270977 0.00324033
2699 1 7.63683 14.1363 37.1533 0.00303747 -0.00691727 -0.00172119
2700 1 18.9776 16.0025 30.9904 0.00552974 -0.00910832 0.00838252
2701 1 18.9557 16.9451 32.2209 0.00395949 -0.00384444 0.00809277
2702 1 17.7919 14.287 32.2947 -0.00226812 0.00244496 -0.00497064
2703 1 18.8894 16.0909 33.5227 -0.000178103 0.00820503 -0.00268855
2704 1 16.4141 16.0567 33.5285 -0.0085286 0.00104885 0.00275717
2705 1 17.7365 14.2732 34.7711 0.00249567 0.00239573 -0.00507184
2706 1 17.6756 15.18 33.542 -0.00836843 0.000465593 -0.0105624
2707 1 18.9704 16.9767 34.7897 0.00389241 -0.00336071 -0.00384234
2708 1 16.4505 17.0087 34.7223 -0.0052993 -0.0026924 0.00782528
2709 1 17.7543 15.1744 36.061 -0.0090355 0.000852443 0.00182332
2710 1 15.1814 14.2969 34.7914 0.000144732 0.00236078 -0.00137703
2711 1 16.4855 16.0184 36.0295 -0.00155209 0.00674061 0.00272925
2712 1 13.9057 16.0695 36.0414 -0.00395055 -0.000792363 -0.00531142
2713 1 15.2113 14.21 37.1789 0.0060856 -0.00234778 0.00584912
2714 1 15.2322 15.2371 36.0603 0.00611504 0.00361969 -0.00229532
2715 1 16.4479 17.036 37.1216 0.00293452 0.00093633 0.00604777
2716 1 13.9102 17.0011 37.2315 0.00207105 0.0032006 2.87719e-05
2717 1 12.6924 14.1342 37.1241 0.000729184 -0.00089532 0.00262644
2718 1 18.996 16.0932 36.0368 -0.00203636 0.0034695 -0.0023328
2719 1 18.9309 16.9866 37.143 -0.00117749 0.00522471 0.00201676
2720 1 17.7736 14.1438 37.1594 0.00490182 0.0104247 0.010381
2721 1 2.52111 18.7183 -3.78166 0 0 0
2722 1 1.26055 19.6096 -3.78166 0 0 0
2723 1 0 17.8269 -2.52111 0 0 0
2724 1 0 18.7183 -3.78166 0 0 0
2725 1 1.26055 20.501 -2.52111 0 0 0
2726 1 0 18.7183 -1.26055 0 0 0
2727 1 7.56333 18.7183 -3.78166 0 0 0
2728 1 6.30277 19.6096 -3.78166 0 0 0
2729 1 3.78166 19.6096 -3.78166 0 0 0
2730 1 5.04222 17.8269 -2.52111 0 0 0
2731 1 5.04222 18.7183 -3.78166 0 0 0
2732 1 6.30277 20.501 -2.52111 0 0 0
2733 1 3.78166 20.501 -2.52111 0 0 0
2734 1 5.04222 18.7183 -1.26055 0 0 0
2735 1 2.52111 17.8269 -2.52111 0 0 0
2736 1 3.78166 19.6096 -1.26055 0 0 0
2737 1 1.26055 19.6096 -1.26055 0 0 0
2738 1 2.54738 17.8748 -0.0079892 0.00133614 0.00424166 -0.000479204
2739 1 2.52111 18.7183 -1.26055 0 0 0
2740 1 3.77752 20.5511 -0.0474574 -0.00143325 0.00522914 -0.000311387
2741 1 1.20069 20.5145 0.0193843 -0.00478729 0.00159653 0.00185363
2742 1 2.53207 18.741 1.2308 0.00725973 0.00374227 -0.00219445
2743 1 20.158 17.8451 -0.0671436 0.00255735 0.0045991 0.00446732
2744 1 1.27045 19.6095 1.22298 -0.0056035 0.00150901 -0.0100675
2745 1 0.0390562 17.7984 2.44558 -0.00572111 -0.00260087 -0.00398487
2746 1 20.1644 18.7363 1.23957 -0.000906258 0.0041299 0.00806376
2747 1 1.27235 20.5029 2.4634 -0.00324004 0.00277283 -0.00258608
2748 1 20.1688 18.7506 3.69379 0.00473434 0.00855582 0.00248
2749 1 12.6055 18.7183 -3.78166 0 0 0
2750 1 11.345 19.6096 -3.78166 0 0 0
2751 1 8.82388 19.6096 -3.78166 0 0 0
2752 1 10.0844 17.8269 -2.52111 0 0 0
2753 1 10.0844 18.7183 -3.78166 0 0 0
2754 1 11.345 20.501 -2.52111 0 0 0
2755 1 8.82388 20.501 -2.52111 0 0 0
2756 1 10.0844 18.7183 -1.26055 0 0 0
2757 1 7.56333 17.8269 -2.52111 0 0 0
2758 1 8.82388 19.6096 -1.26055 0 0 0
2759 1 6.30277 19.6096 -1.26055 0 0 0
2760 1 7.59488 17.7974 -0.105456 -0.00513815 0.00171035 0.00254711
2761 1 7.56333 18.7183 -1.26055 0 0 0
2762 1 8.81548 20.5375 -0.0177462 0.000225957 0.00411683 0.0049001
2763 1 6.32312 20.4932 -0.0997417 0.00346739 0.0059363 -0.00561139
2764 1 7.62563 18.7361 1.18883 -0.00172182 0.000839647 0.00312163
2765 1 5.0927 17.8399 -0.00895525 4.43074e-05 -0.00333796 0.00342464
2766 1 6.31581 19.6681 1.1533 -0.00115551 0.0045816 0.00328411
2767 1 3.77046 19.6318 1.23159 0.0072702 -0.00137788 -0.00235979
2768 1 5.09169 17.8667 2.46795 -0.00330024 -0.00115616 0.00012841
2769 1 5.06866 18.802 1.18727 -0.00528468 -0.0071894 -0.000532325
2770 1 6.33882 20.5341 2.37236 -0.00104136 0.00287242 -0.000195612
2771 1 3.71747 20.5211 2.48843 0.00192508 -0.00300228 -0.00336149
2772 1 5.05197 18.7913 3.65468 0.00863254 -0.00798122 0.00458312
2773 1 2.5234 17.8241 2.38628 0.00769154 -0.00719158 -0.00387382
2774 1 3.78871 19.6903 3.65452 -0.00128097 0.00515727 0.006605
2775 1 1.27625 19.646 3.67421 -0.00916274 -0.0102695 -0.0050061
2776 1 2.5943 17.8632 4.90281 -0.0103508 0.000916283 0.000176566
2777 1 2.49879 18.7605 3.68819 0.00242924 0.00287575 0.00132817
2778 1 3.73541 20.5303 4.90881 -0.00102081 -0.0120475 -0.00154
2779 1 1.25583 20.5467 4.90479 0.00796957 0.00215855 -0.00374387
2780 1 2.55466 18.7631 6.15038 0.00177836 0.00362596 -0.00567022
2781 1 0.0460299 17.8526 4.94381 0.00313775 -0.00248067 -0.00877235
2782 1 1.23596 19.6249 6.19307 0.00663817 0.0015381 0.00440779
2783 1 0.00733651 17.775 7.37818 -0.00883642 0.00794206 -0.00164338
2784 1 0.0149375 18.7268 6.18643 0.00848403 0.00258367 -0.0062716
2785 1 1.24753 20.5575 7.42987 -0.0108922 0.00235442 -0.00315028
2786 1 20.1217 18.7635 8.63295 0.00576476 -0.00215813 -0.000929316
2787 1 17.6478 18.7183 -3.78166 0 0 0
2788 1 16.3872 19.6096 -3.78166 0 0 0
2789 1 13.8661 19.6096 -3.78166 0 0 0
2790 1 15.1267 17.8269 -2.52111 0 0 0
2791 1 15.1267 18.7183 -3.78166 0 0 0
2792 1 16.3872 20.501 -2.52111 0 0 0
2793 1 13.8661 20.501 -2.52111 0 0 0
2794 1 15.1267 18.7183 -1.26055 0 0 0
2795 1 12.6055 17.8269 -2.52111 0 0 0
2796 1 13.8661 19.6096 -1.26055 0 0 0
2797 1 11.345 19.6096 -1.26055 0 0 0
2798 1 12.6298 17.8003 0.00980566 -0.00271129 -0.00591534 0.00220554
2799 1 12.6055 18.7183 -1.26055 0 0 0
2800 1 13.8208 20.4846 -0.0764883 0.0026925 0.000276397 -0.00650266
2801 1 11.3124 20.5311 -0.085408 0.00755352 0.00436966 0.000986832
2802 1 12.5609 18.7682 1.21064 -0.00401703 -0.00181769 -0.00558916
2803 1 10.0705 17.8544 -0.0311398 -0.00169854 -0.00805951 0.00373639
2804 1 11.3415 19.68 1.15913 -0.00266059 0.00389622 -0.00260777
2805 1 8.89986 19.6081 1.19508 0.00692984 -0.00327837 -0.00461967
2806 1 10.1324 17.8732 2.42969 0.00778743 -0.00259522 0.00297361
2807 1 10.1403 18.7356 1.20411 -0.00545024 0.0060419 -0.0035243
2808 1 11.3322 20.5336 2.46809 -0.00617425 0.00357613 -0.00200546
2809 1 8.82958 20.4866 2.40283 0.000351482 0.00539078 0.000800852
2810 1 10.0824 18.7574 3.66786 -0.00436239 0.00603218 -0.00151875
2811 1 7.58607 17.8764 2.43251 -0.000527618 -0.0032378 -0.000867655
2812 1 8.84994 19.6305 3.68825 0.000679922 0.00477524 -0.00516809
2813 1 6.33157 19.6352 3.65634 0.00511816 0.00484403 0.00148213
2814 1 7.57108 17.8811 4.9054 -0.00522603 -0.00488228 0.00948917
2815 1 7.6017 18.7543 3.65976 -0.00420234 -0.00210009 -0.00999058
2816 1 8.84984 20.5391 4.9081 -0.00283531 -0.000936129 -0.000350972
2817 1 6.29677 20.5247 4.89205 0.00126369 0.00231135 -0.00404632
2818 1 7.59158 18.7989 6.15463 0.000862611 0.00159071 0.0129974
2819 1 5.0706 17.889 4.90585 -0.00695119 -0.0081108 -0.00291913
2820 1 6.29473 19.6611 6.15318 -0.00692629 -0.00419513 -0.00109945
2821 1 3.8239 19.6537 6.21971 0.00497761 -0.00373655 -0.00202836
2822 1 5.10996 17.8459 7.4037 -0.00164189 -0.0134913 0.000156569
2823 1 5.10666 18.793 6.15451 0.00738418 -0.00571913 0.00421241
2824 1 6.23995 20.541 7.42403 -0.00340459 -0.0109503 -0.00351302
2825 1 3.73102 20.5187 7.42335 0.000511531 0.00259968 0.00300092
2826 1 5.03225 18.7643 8.62537 0.0025886 -0.000427447 0.00579227
2827 1 2.52215 17.844 7.37073 -0.00087914 0.00160635 -0.00778397
2828 1 3.74915 19.5932 8.65544 0.00189622 0.000293856 -0.0067479
2829 1 1.20196 19.6387 8.64978 0.00659682 0.00053402 -0.00377579
2830 1 2.5242 17.8139 9.88122 -0.0016891 -0.0057875 -0.00262737
2831 1 2.47324 18.7463 8.62436 -0.00130327 0.00479385 0.00180834
2832 1 3.72737 20.457 9.89007 -0.00143614 -0.00359762 -0.00717932
2833 1 1.22278 20.4778 9.91055 -0.00270934 0.00371906 -0.00845404
2834 1 2.5611 18.7288 11.1215 -0.00300248 -0.000573825 0.00116923
2835 1 20.1497 17.833 9.87389 0.00211156 0.00377213 0.000163508
2836 1 1.29215 19.5927 11.131 -0.00109403 -0.00491729 0.0031692
2837 1 0.0128381 17.8226 12.3608 -0.00631317 0.00409823 -0.000772636
2838 1 20.1609 18.7144 11.1191 -0.00194122 0.00123193 -0.00666208
2839 1 1.29856 20.4879 12.3139 -0.00324189 -0.000727929 -0.0044382
2840 1 0.0298894 18.7082 13.6293 -6.73323e-05 0.00115185 -0.00312111
2841 1 18.9083 19.6096 -3.78166 0 0 0
2842 1 18.9083 20.501 -2.52111 0 0 0
2843 1 17.6478 17.8269 -2.52111 0 0 0
2844 1 18.9083 19.6096 -1.26055 0 0 0
2845 1 16.3872 19.6096 -1.26055 0 0 0
2846 1 17.6303 17.7848 0.0012011 -0.00661451 0.00498655 -0.00420023
2847 1 17.6478 18.7183 -1.26055 0 0 0
2848 1 18.9 20.4815 0.00679266 -0.000366608 0.00838034 -0.00541121
2849 1 16.44 20.5409 -0.0505997 -0.000762341 0.00861494 0.00105141
2850 1 17.6314 18.7185 1.22497 0.00953761 -0.00365191 -0.000169831
2851 1 15.1329 17.8428 -0.0143006 0.000276792 0.00320761 -0.0043766
2852 1 16.3668 19.6228 1.20833 0.00129912 0.00584748 0.00613169
2853 1 13.8199 19.6188 1.18241 0.00542919 0.0101776 0.000567339
2854 1 15.1451 17.8552 2.46395 0.00379417 0.00108186 -0.00235772
2855 1 15.125 18.726 1.21662 -0.00666488 -0.000657084 -0.00620289
2856 1 16.4254 20.5144 2.46154 -0.00460789 0.00191558 0.00611311
2857 1 13.8869 20.5027 2.44538 0.000345745 -0.00166921 0.00206175
2858 1 15.1583 18.7324 3.70762 -0.00143604 0.00443239 -0.00295498
2859 1 12.6153 17.8694 2.46643 0.0040994 0.00351074 0.00282816
2860 1 13.9412 19.6349 3.69597 0.0020871 -0.00406051 -0.00153858
2861 1 11.3655 19.6456 3.69272 -0.00451307 0.00862232 -0.0022452
2862 1 12.6788 17.8727 4.93665 -0.00112491 0.00229998 0.000539704
2863 1 12.6351 18.7917 3.71001 0.00114495 -0.00137603 -0.000367295
2864 1 13.8775 20.4861 4.95253 0.00127577 0.000627912 8.11622e-05
2865 1 11.3652 20.5372 4.96639 -0.000265895 -0.00125103 -0.00120301
2866 1 12.6257 18.7182 6.12291 0.00112185 0.00160373 0.00588245
2867 1 10.0705 17.8534 4.88522 -0.00138635 -0.00530789 0.00152935
2868 1 11.3438 19.6153 6.15933 0.00803563 -0.00432658 0.0015942
2869 1 8.82846 19.6871 6.19768 -0.000860517 0.000262106 0.00597555
2870 1 10.1002 17.863 7.39211 0.0082685 -0.00513192 -0.0108853
2871 1 10.0942 18.7528 6.16855 -0.00261267 -0.0120512 0.00586372
2872 1 11.3246 20.5643 7.42973 0.000780358 0.00539661 -0.00146099
2873 1 8.83551 20.5732 7.41542 -0.00792316 0.00020318 0.000326955
2874 1 10.1192 18.7029 8.66446 0.00321558 0.00245282 -0.00312292
2875 1 7.60905 17.8493 7.35876 -0.00336619 0.00638277 0.00392995
2876 1 8.87835 19.6678 8.61039 -0.00477162 -0.00119292 0.0048958
2877 1 6.25146 19.6081 8.66692 0.00280718 -0.00122209 0.00405128
2878 1 7.57138 17.8746 9.84115 0.000800148 -0.00503953 -0.00992718
2879 1 7.57727 18.7723 8.65685 -0.00631775 0.00320612 -0.00417992
2880 1 8.84929 20.5609 9.88208 -0.00438426 -0.00466641 -0.000451983
2881 1 6.30094 20.5156 9.87606 0.00538421 -0.00357146 -0.0042794
2882 1 7.58864 18.6599 11.0921 -0.00478251 0.00164707 -0.00137384
2883 1 5.01738 17.8952 9.82476 0.00457733 -0.00140066 -0.00370853
2884 1 6.36375 19.5518 11.0482 0.00252546 0.000355071 -0.0012945
2885 1 3.83281 19.6078 11.1575 0.00767365 0.00743433 -0.0031689
2886 1 5.07245 17.8376 12.3017 -0.00830742 -0.00665921 -0.00139889
2887 1 5.06451 18.64 11.0866 -0.000691821 -0.000226709 -0.000244998
2888 1 6.35488 20.4583 12.3732 -0.00323043 -0.00288919 0.00465413
2889 1 3.81245 20.5024 12.369 0.00318942 0.00500316 0.00681332
2890 1 5.01733 18.6992 13.5535 0.00325425 0.00128285 -0.00485264
2891 1 2.51957 17.801 12.334 0.00203537 0.0024103 -0.000213898
2892 1 3.78943 19.5974 13.5696 0.00673346 -0.000865265 -0.00650808
2893 1 1.26934 19.6165 13.585 0.000790176 0.00582338 0.00334799
2894 1 2.5395 17.8453 14.8769 0.00164503 -0.00249319 -0.00718855
2895 1 2.48051 18.7298 13.5874 0.000600132 0.00479401 -0.00489877
2896 1 3.7452 20.4254 14.8561 -0.0066158 -0.00893082 -0.0062188
2897 1 1.3005 20.5403 14.8201 0.0024542 0.00237835 -0.00567248
2898 1 2.51986 18.7066 16.0985 0.00477008 0.00457579 -0.00350955
2899 1 0.0317961 17.8228 14.8508 -0.00259257 -0.00217274 -0.00897814
2900 1 1.23384 19.6523 16.0904 0.0018701 0.000499037 0.00209904
2901 1 0.0445668 17.7996 17.2876 0.00141398 -0.000955589 1.47584e-05
2902 1 20.1612 18.7297 16.0968 -0.00568857 -0.0136176 -0.00253996
2903 1 1.26184 20.4277 17.3317 -0.00822276 -0.000407057 -0.00271391
2904 1 20.1623 18.7047 18.5599 0.00262194 0.00239826 0.00384263
2905 1 18.8964 19.6617 1.25415 -0.00476403 -0.0034161 -0.0013633
2906 1 18.8853 20.4741 2.48979 0.0043769 -0.00583647 -0.000673339
2907 1 17.5958 17.876 2.41899 0.00315703 -0.000254043 0.000791478
2908 1 18.8683 19.5978 3.71495 0.00299956 -0.000726975 0.000787785
2909 1 16.3888 19.6625 3.71604 -0.0089178 0.000118632 -0.000698817
2910 1 17.6545 17.7938 4.8977 -0.00211493 -0.00134005 0.000913075
2911 1 17.6027 18.7206 3.70918 -0.00668665 -0.00671917 0.00862338
2912 1 18.8916 20.5183 4.94655 -0.00127097 -0.00320547 -0.00126905
2913 1 16.4278 20.5084 4.9633 0.000378346 0.00184544 -0.00513297
2914 1 17.627 18.7028 6.15519 -0.000685719 -0.00402311 0.000462358
2915 1 15.1789 17.7973 4.90898 0.00346073 0.00102711 -0.00162086
2916 1 16.4169 19.6169 6.21926 -0.00373439 0.00396263 0.00442104
2917 1 13.8878 19.5865 6.19894 0.00190043 -0.000902762 0.00540537
2918 1 15.1091 17.8132 7.38298 0.00699454 -0.00616137 -0.00318629
2919 1 15.1802 18.7779 6.14982 0.00564667 0.00828032 -0.00365308
2920 1 16.3153 20.5099 7.43931 0.0076233 0.00331525 0.00528654
2921 1 13.8216 20.5191 7.43522 -0.00112964 -0.000973706 -0.0044013
2922 1 15.0985 18.6887 8.62762 -0.00382889 0.00962048 -0.00284317
2923 1 12.604 17.8099 7.43502 -0.00703672 7.97206e-05 0.00450936
2924 1 13.8344 19.6401 8.66025 -0.00229001 -0.00335321 -0.00178608
2925 1 11.3247 19.612 8.66002 0.00377854 -0.000428649 0.00100356
2926 1 12.6068 17.8249 9.90185 0.00432429 0.00559399 0.00298286
2927 1 12.5736 18.7172 8.62801 -0.00796109 0.00451694 -0.00159734
2928 1 13.8733 20.4873 9.85045 0.0118846 0.00487682 -0.0019731
2929 1 11.3014 20.5341 9.89964 -8.53422e-05 -0.000218651 0.00656356
2930 1 12.6189 18.7807 11.0895 0.00583373 -0.000831207 0.000115864
2931 1 10.0858 17.8067 9.87517 -0.000751302 0.00186251 0.00305372
2932 1 11.3302 19.619 11.0491 0.00646834 -0.00383752 0.00172566
2933 1 8.84656 19.6349 11.1386 0.00436026 0.00492369 -0.00477178
2934 1 10.1011 17.784 12.3199 -0.00349946 -0.00354429 -0.00339838
2935 1 10.1307 18.6995 11.0735 -0.00072524 0.00501494 -0.00280151
2936 1 11.3547 20.5196 12.3279 -0.000436193 0.00160683 0.000230703
2937 1 8.84744 20.4415 12.4085 -0.00670517 -0.00943165 -0.00397746
2938 1 10.1419 18.7428 13.587 0.00560316 -0.00500311 0.00339825
2939 1 7.54005 17.7769 12.3134 0.0106679 0.00182685 0.00066387
2940 1 8.8571 19.5741 13.6204 -0.00832898 -0.00366861 -0.00198324
2941 1 6.30305 19.5599 13.6164 -0.00534094 0.000438489 -0.00446488
2942 1 7.54934 17.8402 14.8571 -0.00135228 0.0031046 0.00387152
2943 1 7.59364 18.6176 13.5508 -0.00824321 0.00495496 0.0075976
2944 1 8.79865 20.503 14.8294 -0.00364995 0.00253832 0.00161169
2945 1 6.34832 20.4719 14.7986 -0.010911 0.008416 0.0058228
2946 1 7.56507 18.7415 16.0381 -0.00801034 -0.000288377 -0.00324582
2947 1 5.01825 17.8483 14.8259 -0.00315663 -0.00331382 0.000888952
2948 1 6.2849 19.595 16.1123 0.0116653 -0.00291496 0.00628434
2949 1 3.77498 19.5853 16.0596 -0.00603791 0.00195659 0.00387641
2950 1 5.05647 17.8239 17.317 -0.00126296 -0.00604344 -0.00119158
2951 1 5.05524 18.7249 16.0627 -0.00240637 -0.00791569 -0.0067144
2952 1 6.35079 20.436 17.3202 0.00401376 -0.0032601 -0.00354197
2953 1 3.81519 20.5164 17.3279 -0.000320811 0.00683497 -0.00270355
2954 1 5.07321 18.7219 18.6027 -0.0112354 0.00233564 0.000503197
2955 1 2.50913 17.8231 17.3459 0.00216143 -0.000628112 -0.00123307
2956 1 3.77155 19.5666 18.6387 0.00167666 -0.00576019 0.00146755
2957 1 1.28833 19.5947 18.5671 -0.00832574 0.0047624 -0.00334941
2958 1 2.51611 17.8217 19.8412 0.00244534 0.0021759 0.00186179
2959 1 2.57505 18.6923 18.5444 -0.00555379 0.00202237 0.0004448
2960 1 3.78082 20.4928 19.8244 -0.00402406 -0.00267228 -0.00151367
2961 1 1.26753 20.538 19.8276 0.00264337 -0.00275631 -0.00315776
2962 1 2.52924 18.7368 21.0736 0.00652441 0.00140907 -0.00135396
2963 1 0.0304629 17.8296 19.8923 -0.00105671 0.00277831 -0.000225188
2964 1 1.2164 19.6164 21.0549 -0.00169622 -0.00393597 0.0034678
2965 1 20.1619 17.8011 22.3029 -0.00161881 0.00166343 -0.00387941
2966 1 20.1561 18.7563 21.0528 9.26447e-05 0.0016884 -0.000339326
2967 1 1.25037 20.5455 22.3267 -0.00300752 -0.00139751 0.00199197
2968 1 20.1548 18.7221 23.5308 0.00539451 0.00630301 -0.00366645
2969 1 18.9261 19.6119 6.20895 -0.00314357 0.00270456 0.00490013
2970 1 18.8333 20.5276 7.41311 0.00347266 0.000136949 -0.00150069
2971 1 17.6204 17.8353 7.37168 0.00227219 0.00862777 -0.0081531
2972 1 18.9099 19.6362 8.65055 0.00065327 0.00511256 0.00478074
2973 1 16.4014 19.6097 8.63591 -0.000307345 -0.00027845 0.00143813
2974 1 17.6603 17.8167 9.87026 -0.00290877 0.00541091 -0.00626222
2975 1 17.6291 18.7173 8.66706 -0.000906259 0.000853355 0.00258517
2976 1 18.8312 20.4821 9.89755 0.00360839 0.00405378 -0.00476515
2977 1 16.3645 20.5381 9.89748 0.000137622 -0.000732553 -0.00477313
2978 1 17.6411 18.6893 11.1239 -0.00177705 0.00132733 -0.00557487
2979 1 15.1008 17.8181 9.85951 0.000414979 0.00930113 0.00262531
2980 1 16.4216 19.5963 11.0857 -0.0077265 -0.00491887 -0.00492008
2981 1 13.8699 19.6202 11.1174 -0.00214436 -0.00594732 -0.00471239
2982 1 15.1035 17.8536 12.3296 -0.00436886 0.00988241 -0.00573695
2983 1 15.143 18.7328 11.09 -0.000900786 0.00152352 -0.00147922
2984 1 16.396 20.5216 12.3397 0.0013775 0.0047726 -0.00933655
2985 1 13.8958 20.5307 12.3428 0.000942721 -0.000891368 -0.00847489
2986 1 15.1287 18.7209 13.6011 -0.006747 0.000276808 -0.00116793
2987 1 12.5974 17.8301 12.3352 -0.00222212 -0.00549976 -0.00317429
2988 1 13.9011 19.6312 13.5665 0.00194042 0.00532397 0.000179057
2989 1 11.3591 19.6299 13.6072 -0.0018135 -0.00529338 0.00078891
2990 1 12.6407 17.8206 14.8448 0.00631752 0.00448352 -0.00860586
2991 1 12.6624 18.6799 13.5897 0.000536776 -0.00170391 -0.00511984
2992 1 13.8869 20.5129 14.8031 0.00424414 -0.00309052 0.00133333
2993 1 11.4116 20.4989 14.8367 -0.00822918 0.00359866 -0.00602264
2994 1 12.6834 18.7426 16.0761 0.00375427 0.00780284 -0.00260322
2995 1 10.1346 17.8046 14.8419 -0.00228222 0.00637065 0.000779318
2996 1 11.3565 19.616 16.0945 0.00397138 0.00469499 -0.00197848
2997 1 8.85306 19.6433 16.0737 0.00822288 5.56019e-05 -0.0013496
2998 1 10.0836 17.7982 17.3073 -0.00549002 0.00140354 -0.000659023
2999 1 10.0696 18.7168 16.0272 -0.00157435 0.00477528 -0.00426278
3000 1 11.3239 20.4972 17.3452 0.00581661 -0.000863046 -0.0054057
3001 1 8.87248 20.5186 17.3565 0.00310436 0.00153893 0.00182064
3002 1 10.0843 18.6748 18.5843 -0.00269409 0.00785728 -0.00536545
3003 1 7.62695 17.8307 17.3404 -0.00446134 0.00502159 -0.00909835
3004 1 8.86511 19.5808 18.536 -0.000475216 -0.0148384 0.00660227
3005 1 6.37701 19.6019 18.5695 -0.00685359 0.00226615 0.00424018
3006 1 7.62747 17.8648 19.7914 -0.0002157 0.008931 0.00589494
3007 1 7.58039 18.7208 18.5139 0.00248288 0.00209183 -0.00203844
3008 1 8.8447 20.5141 19.7881 0.00393676 -0.00146716 -0.000157171
3009 1 6.35211 20.4775 19.8361 0.00354639 -0.00183737 -0.00628423
3010 1 7.59631 18.7374 21.1205 0.00144776 0.0108426 -0.00548375
3011 1 5.05135 17.8765 19.8663 -0.00166591 0.00151826 0.0039542
3012 1 6.36796 19.6082 21.0569 -0.00223273 0.0120495 0.00132636
3013 1 3.85513 19.5933 21.0488 0.00517129 0.0014868 -0.000121967
3014 1 5.07188 17.8486 22.3362 -4.13343e-05 0.0116263 0.00151813
3015 1 5.07492 18.7094 21.0582 0.00461324 0.00351513 0.00383633
3016 1 6.32097 20.527 22.2629 0.00315743 -0.000904686 0.00938272
3017 1 3.81523 20.5031 22.2984 0.000587199 0.00371723 0.00598053
3018 1 5.10271 18.7493 23.5326 -0.0045764 -0.00102377 0.00305281
3019 1 2.4934 17.8225 22.3379 0.00417558 0.00169241 -0.00139985
3020 1 3.79434 19.5807 23.5471 0.000214212 -0.00291429 -0.0017995
3021 1 1.25418 19.6478 23.5477 -7.90076e-05 0.000774673 -0.000848062
3022 1 2.52189 17.907 24.8327 0.00552866 -0.00849019 4.17401e-05
3023 1 2.46589 18.7012 23.5849 0.00493207 -0.0021218 0.00742979
3024 1 3.81863 20.5299 24.8041 0.00226541 -0.00440953 0.00560029
3025 1 1.29449 20.5181 24.8164 0.00334556 -0.00314245 -0.00191109
3026 1 2.55132 18.7757 26.0588 0.00208562 0.00785376 0.00337783
3027 1 0.0117105 17.8419 24.7959 -0.000712017 -0.00402259 -0.000422572
3028 1 1.2865 19.6442 26.0754 0.0076539 -0.00365961 0.00259508
3029 1 0.00809338 17.7969 27.3174 0.00547384 0.00286533 -0.00149466
3030 1 20.154 18.7528 26.0139 0.00897113 0.00350017 -0.00175092
3031 1 1.34372 20.5263 27.3246 -0.00425205 0.0068391 0.000354821
3032 1 0.0417156 18.7326 28.5075 0.000270648 0.000273932 -0.000932558
3033 1 18.862 19.6498 11.1338 -0.00244066 -0.00146194 -0.00227437
3034 1 18.9089 20.4824 12.325 0.00922659 0.00431919 -0.00641756
3035 1 17.6427 17.8233 12.376 0.00370869 -0.00412409 -0.00664397
3036 1 18.9396 19.5395 13.5584 0.00332208 0.00175055 -0.00153247
3037 1 16.4431 19.5859 13.5932 0.00579071 0.00475217 -0.000758876
3038 1 17.66 17.8221 14.8493 -0.00290393 -0.00217126 0.00406361
3039 1 17.7085 18.6889 13.5853 -0.00321547 0.000517356 0.0045609
3040 1 18.9273 20.4979 14.8381 -0.00253251 -0.00327399 -0.0164457
3041 1 16.4119 20.507 14.8471 0.001162 0.00295001 -0.00590121
3042 1 17.6529 18.7679 16.1174 0.00218268 -0.00341237 -0.00749703
3043 1 15.1628 17.8446 14.8216 -0.00293134 -0.00472803 -0.00336019
3044 1 16.4168 19.6894 16.1058 0.00898304 -0.0025134 -3.32593e-05
3045 1 13.9191 19.6301 16.0536 -0.00435297 0.00789103 -0.00305338
3046 1 15.1336 17.8501 17.3403 -0.00948935 0.00166986 0.00139167
3047 1 15.2022 18.7417 16.0442 -0.0105006 -0.0105054 0.00475018
3048 1 16.4007 20.5047 17.3191 0.0027726 0.00515033 -0.000838219
3049 1 13.9297 20.5142 17.3138 -0.00203495 0.0041265 -0.0105961
3050 1 15.182 18.7259 18.5785 -0.00651341 0.0022462 -0.00454945
3051 1 12.6393 17.8886 17.3165 0.00350505 0.0050986 0.000650272
3052 1 13.9009 19.6303 18.5688 0.00678604 0.000134488 0.00778946
3053 1 11.3555 19.5877 18.6119 -0.0024723 0.00166164 -0.00797242
3054 1 12.5847 17.8016 19.8144 -0.00549621 -0.00437062 0.00103576
3055 1 12.6194 18.7049 18.5611 0.0013835 -0.00509497 -0.0031923
3056 1 13.9242 20.531 19.7959 0.00262096 0.0036516 0.00386976
3057 1 11.3684 20.4992 19.8177 0.000276439 -0.000548397 -0.00190411
3058 1 12.6058 18.7433 21.0549 0.00695067 0.0061592 0.00242926
3059 1 10.0734 17.8333 19.8204 -0.0088261 -0.00223102 -0.00661916
3060 1 11.3802 19.603 21.0738 -0.00960038 0.00148085 0.00852047
3061 1 8.83027 19.6226 21.1008 0.00283264 -0.00546032 0.0056571
3062 1 10.1496 17.8307 22.304 0.00341252 0.000242354 -0.00322031
3063 1 10.0947 18.7447 21.0523 -0.00214702 0.00146275 0.000828195
3064 1 11.3711 20.559 22.271 0.00352781 -0.00158742 0.00316996
3065 1 8.82535 20.4825 22.2816 0.00916819 -0.00404868 0.00580564
3066 1 10.1542 18.7044 23.5032 -0.00389164 -0.0153288 0.00401855
3067 1 7.60648 17.8607 22.3494 0.00650852 0.00728267 0.00183315
3068 1 8.86427 19.6113 23.5132 -0.00517947 0.00273506 -0.0018606
3069 1 6.34411 19.6179 23.5843 0.00316045 0.000867671 0.0055326
3070 1 7.61378 17.8722 24.7978 -0.00284537 0.0041801 -0.000207523
3071 1 7.59198 18.7785 23.5681 0.000891346 0.00659755 -0.00358255
3072 1 8.86244 20.4598 24.7619 0.00629213 0.00455271 -0.00308689
3073 1 6.36934 20.5468 24.7881 0.00142627 0.00213336 -0.000467186
3074 1 7.62052 18.7103 26.062 -0.00647775 0.00264788 -0.00640564
3075 1 5.05991 17.8652 24.7942 0.00518883 -0.00974575 -0.00227718
3076 1 6.3751 19.6256 26.0394 0.00138043 0.00436249 -0.0024249
3077 1 3.83338 19.6819 26.0225 -0.00341104 0.00707457 0.00511397
3078 1 5.07954 17.8037 27.3008 0.00275817 0.00435306 0.00728012
3079 1 5.0477 18.7433 26.0375 0.00348273 -0.00274011 -0.00226877
3080 1 6.33451 20.5629 27.2889 0.00310866 0.000248795 -0.00197589
3081 1 3.80935 20.5663 27.2898 0.00352413 0.00585175 6.76385e-05
3082 1 5.06525 18.7664 28.498 -0.00184351 -0.00304995 -0.000691684
3083 1 2.53254 17.8347 27.298 -0.00239948 -0.000997094 0.000627278
3084 1 3.85083 19.6125 28.5234 0.00483211 0.00446618 -0.00308485
3085 1 1.277 19.6204 28.6044 -0.00134798 0.00105558 -0.0102912
3086 1 2.55498 17.8742 29.8596 0.00368194 0.00350724 0.00112704
3087 1 2.55321 18.6875 28.5478 -0.00416458 3.109e-05 -0.00326506
3088 1 3.80864 20.4815 29.7956 -0.00240962 0.00736522 0.00201202
3089 1 1.28742 20.4896 29.824 0.0023912 0.000964626 -0.00283288
3090 1 2.58746 18.758 31.0796 -0.00365786 0.00395075 0.00944376
3091 1 0.042938 17.831 29.7462 -0.0023583 0.0030804 -0.00196386
3092 1 1.346 19.6004 31.0536 0.00560091 0.00222825 -0.00104936
3093 1 0.0391645 17.8102 32.2639 -0.00207475 -0.000121552 0.00333409
3094 1 0.0929754 18.7433 31.0505 -0.00180516 0.00136102 0.00332896
3095 1 1.32287 20.5298 32.2977 -0.0120857 8.26792e-05 -0.00377029
3096 1 20.1273 18.7647 33.4958 -0.0032095 0.00262443 -0.00412251
3097 1 18.8719 19.6157 16.0866 0.00074678 -0.00367811 -0.00357056
3098 1 18.8724 20.4734 17.3179 -0.00746384 -0.000960862 -1.01783e-05
3099 1 17.6421 17.8308 17.3029 0.000967366 -0.0067707 -0.00756493
3100 1 18.9171 19.5888 18.5977 -0.00249158 2.90431e-05 0.00573514
3101 1 16.4074 19.5832 18.5707 0.00215 -0.00150106 0.00854881
3102 1 17.6427 17.7965 19.8326 0.00399843 -0.00150821 -0.00291157
3103 1 17.6518 18.7047 18.578 -0.00519999 -0.00124864 0.000476869
3104 1 18.9477 20.5236 19.765 0.00596025 -0.00162062 0.00522725
3105 1 16.3986 20.5061 19.8004 -0.00060347 -0.00110371 -0.00446582
3106 1 17.6587 18.6795 21.1146 -0.00586 -0.00703645 -0.00597487
3107 1 15.1105 17.8389 19.7665 -0.00980935 0.00659112 0.00427922
3108 1 16.3606 19.5964 21.0759 -0.00528126 0.00292113 0.00496379
3109 1 13.8945 19.6499 21.048 0.00354797 -0.00268108 -0.013189
3110 1 15.1727 17.7834 22.3343 -0.00333852 1.37618e-05 -0.00485929
3111 1 15.1142 18.7051 21.0299 -0.00145605 0.00326867 -0.00166797
3112 1 16.4032 20.4858 22.328 -0.00206028 0.00378332 -0.00522636
3113 1 13.887 20.5083 22.2818 -0.00829109 -0.00785835 0.0052317
3114 1 15.1551 18.6963 23.6082 -0.000755701 1.15989e-05 0.00620837
3115 1 12.6084 17.7958 22.3148 -0.00374484 -0.00348843 3.93602e-05
3116 1 13.8669 19.6313 23.5907 -0.00280542 0.00165619 -0.00741317
3117 1 11.3397 19.5795 23.5524 0.00548559 -0.00110171 0.00485568
3118 1 12.6174 17.7756 24.8277 -0.000565492 0.00106831 0.00193397
3119 1 12.6131 18.737 23.5833 -0.0040353 -0.000220373 0.00260608
3120 1 13.887 20.5447 24.8002 -0.00175001 0.00211903 -0.00262134
3121 1 11.3753 20.5153 24.8108 3.45457e-05 -0.00322492 -0.00702781
3122 1 12.5979 18.7766 26.0504 0.000341566 -0.00604681 -0.00219515
3123 1 10.0978 17.8039 24.7745 -3.67895e-06 -0.00893787 -0.00112568
3124 1 11.3374 19.629 26.1073 -0.00121855 0.00376545 0.00497255
3125 1 8.8239 19.6513 26.0137 -0.00846738 0.00179523 0.00316208
3126 1 10.0076 17.8441 27.295 0.0066559 -0.00108581 -0.00813791
3127 1 10.0975 18.7418 26.0568 -0.00358403 -0.00459949 0.0046448
3128 1 11.3711 20.5306 27.3365 0.00678926 0.0046104 0.000363322
3129 1 8.88924 20.5003 27.2856 -0.00273035 -0.0034951 -0.00110242
3130 1 10.0362 18.7334 28.5427 -0.00841129 -0.00135041 0.00265591
3131 1 7.59388 17.8519 27.3254 -0.0035405 0.00308505 -0.00273212
3132 1 8.82829 19.6841 28.5399 0.00576882 -0.00412395 -0.00321515
3133 1 6.30609 19.6961 28.5262 -0.000557748 -0.000948234 -0.00344504
3134 1 7.62643 17.8511 29.7648 0.00673494 -0.00138724 -0.00265463
3135 1 7.53133 18.7346 28.5195 0.00366667 0.00122014 -0.00407469
3136 1 8.82773 20.5261 29.8195 0.00590858 -0.00560845 -0.00947112
3137 1 6.35267 20.5638 29.7905 0.00569337 -0.000621834 -0.00162156
3138 1 7.58929 18.7522 31.0486 -0.00220577 -0.00131051 0.00316605
3139 1 5.05054 17.8622 29.8279 -0.000254034 -0.00775328 -0.0071272
3140 1 6.29687 19.655 30.971 0.00940886 -0.00373416 -0.00369882
3141 1 3.79189 19.6657 31.0624 -0.00168411 0.00344623 -0.00266464
3142 1 5.07176 17.8941 32.2933 0.000588789 -0.007041 0.000311977
3143 1 5.06174 18.7964 30.9921 -0.00369608 0.003605 0.00237024
3144 1 6.36537 20.5696 32.2755 -0.00692435 -0.00459757 0.00533015
3145 1 3.77951 20.5363 32.331 -0.00278814 0.00256091 0.000120503
3146 1 5.09104 18.8121 33.5613 -0.00791203 0.00202317 0.00287435
3147 1 2.59857 17.8323 32.3297 -0.00593095 -0.00710286 -0.00652305
3148 1 3.80808 19.602 33.4703 -0.00172243 0.00429467 -0.00148906
3149 1 1.28906 19.656 33.5034 -0.00354223 -0.00636788 0.00465102
3150 1 2.57765 17.8536 34.7614 0.00388956 0.0103585 -0.00691239
3151 1 2.56014 18.6846 33.5444 0.00657228 -0.00592048 0.00197823
3152 1 3.84529 20.4544 34.7725 0.00376353 0.00340991 0.00417798
3153 1 1.33371 20.5163 34.7453 -0.00162314 -0.000636523 -0.00335801
3154 1 2.56785 18.6851 36.0421 0.00572483 -0.0103638 0.0053923
3155 1 0.025155 17.865 34.7158 0.00191719 -0.000841047 -0.00242965
3156 1 1.39722 19.5912 36.0216 -0.00517641 0.00617307 -0.000805691
3157 1 0.120187 17.7011 37.2472 -0.0030694 -0.00287685 -0.00355155
3158 1 0.0544994 18.6736 36.0558 -0.00580776 0.00422252 -0.00740519
3159 1 1.41112 20.5971 37.1358 -0.00154599 -0.00496666 0.000112729
3160 1 18.9191 19.6402 21.0502 -0.0003764 -3.71075e-05 0.00490778
3161 1 18.8786 20.4963 22.3446 -0.00497164 -0.000784321 -0.0060302
3162 1 17.6051 17.7952 22.35 0.00399306 7.00874e-05 0.00642389
3163 1 18.8778 19.6097 23.5665 -0.00679232 0.00034711 0.000506334
3164 1 16.3997 19.5865 23.5524 0.00427674 -0.00137687 -0.00678041
3165 1 17.594 17.8355 24.8464 -0.00860679 -0.00505869 0.00391927
3166 1 17.6037 18.7006 23.5622 -0.00404123 -0.00680387 -0.000230026
3167 1 18.9464 20.5141 24.7924 0.00300265 -1.77173e-05 -0.000362354
3168 1 16.3793 20.4785 24.7779 -0.000295465 0.00258115 0.00260644
3169 1 17.6366 18.7063 26.0725 0.00449726 0.00203173 -0.00362458
3170 1 15.1347 17.8646 24.8213 -0.00662768 0.00211012 0.00575148
3171 1 16.3873 19.6426 26.0782 0.0108707 -0.000604631 -0.0048594
3172 1 13.8318 19.6281 26.0629 -0.00922361 -0.00355586 -0.00166535
3173 1 15.1478 17.8562 27.2781 -0.00300699 0.00469197 -0.00668624
3174 1 15.1271 18.7118 26.0047 0.00441221 -0.00229629 -0.00488948
3175 1 16.4181 20.5801 27.3237 -0.0030179 0.000619828 -0.00648536
3176 1 13.887 20.4611 27.2987 -0.00154181 -0.00419677 0.00510934
3177 1 15.1722 18.7379 28.5339 0.000659691 -0.00358249 -0.00964176
3178 1 12.5534 17.8729 27.3377 0.00294216 0.00406381 0.00390967
3179 1 13.8973 19.6277 28.519 -0.00150846 0.0117048 -0.000255136
3180 1 11.3735 19.6405 28.5743 -0.00126759 0.00355503 -0.00751982
3181 1 12.6542 17.8304 29.7797 0.0118031 0.00223511 -0.00103158
3182 1 12.5965 18.7528 28.5492 -0.00225808 0.00423636 0.000428632
3183 1 13.9083 20.502 29.732 -0.00143636 0.00567169 -0.00116937
3184 1 11.3776 20.5208 29.84 0.00485682 0.000221362 -0.00580852
3185 1 12.6062 18.7433 31.0031 0.00326337 -0.00622428 0.00293643
3186 1 10.0638 17.7939 29.7905 0.00755313 0.00887514 -0.00364188
3187 1 11.372 19.6186 31.0585 -0.00778848 0.00224035 -0.00251184
3188 1 8.85924 19.624 31.0197 0.00278178 0.00385091 0.00202887
3189 1 10.118 17.8739 32.2924 0.00243168 -0.00391735 -0.00355733
3190 1 10.1327 18.7594 31.0204 0.0048901 0.000956301 -0.00453116
3191 1 11.3696 20.521 32.2407 -0.00334004 0.00713161 0.000352393
3192 1 8.89547 20.5138 32.2929 0.00730565 0.00624947 0.00498126
3193 1 10.0864 18.7422 33.5278 0.00674148 0.00261508 -0.00428524
3194 1 7.6063 17.8613 32.3049 -0.00363771 0.0102174 -0.000650592
3195 1 8.90489 19.6295 33.5263 0.00670365 -0.00673669 -0.000286542
3196 1 6.39397 19.6128 33.5395 0.00204873 -0.000586014 0.0067622
3197 1 7.65767 17.9014 34.727 -0.0014717 -0.00660189 0.00185771
3198 1 7.64118 18.7208 33.5081 -0.00546348 0.00166979 0.00600499
3199 1 8.86641 20.4557 34.7553 0.00755229 -0.00533347 -0.00634513
3200 1 6.38772 20.4849 34.8065 0.00192857 -0.00256258 0.00110439
3201 1 7.65971 18.7321 36.0687 -0.00702113 0.00206515 -0.00619207
3202 1 5.07849 17.882 34.7467 -0.000901283 -0.000557273 0.00130877
3203 1 6.38474 19.5647 36.1133 0.000639828 0.00770041 0.0100636
3204 1 3.87219 19.523 36.0845 -0.00802999 0.00486117 -0.00671583
3205 1 5.20738 17.6803 37.1963 -0.00335124 0.0042233 0.0055851
3206 1 5.13185 18.7045 36.095 0.00467954 0.000838434 0.00466512
3207 1 6.36451 20.654 37.1317 0.00228652 -0.00873997 -0.00282283
3208 1 3.90697 20.6028 37.1434 0.000118123 -0.00150978 -0.00261878
3209 1 2.5997 17.6729 37.2193 -0.00567036 -0.00539329 0.0039353
3210 1 18.932 19.6103 25.9996 -0.00149249 -0.00223305 -0.00319227
3211 1 19.0055 20.4756 27.2657 -0.0016319 -0.00319503 -0.00355212
3212 1 17.6759 17.859 27.3114 -0.00120272 -0.00386357 -0.000707013
3213 1 18.9772 19.5744 28.5151 -0.0057051 0.00233118 0.00157301
3214 1 16.4443 19.6958 28.5441 0.00728591 0.00138981 0.00222702
3215 1 17.6853 17.8468 29.7714 -0.00574628 -0.00173723 -0.00231397
3216 1 17.6811 18.7629 28.5217 -0.00571304 -0.00419436 0.00114814
3217 1 18.9588 20.5338 29.7356 0.00198498 0.00886735 -0.00462406
3218 1 16.3837 20.4975 29.7985 0.00311268 -0.00401133 0.000739679
3219 1 17.7175 18.7235 31.0273 0.00600847 -0.00329243 -0.00385577
3220 1 15.219 17.8418 29.7905 -0.00334325 -0.0078406 -0.00169131
3221 1 16.362 19.6205 31.056 -0.00220342 -0.00584037 9.02046e-05
3222 1 13.8802 19.6063 31.0027 -0.00565387 -0.00520395 -2.90125e-05
3223 1 15.1324 17.8071 32.3034 -0.00345135 -0.0014223 0.00349647
3224 1 15.1807 18.7054 31.0523 0.00454848 -0.000783728 0.00348415
3225 1 16.3869 20.5048 32.2996 -0.00711486 -0.00345848 0.000649776
3226 1 13.8428 20.5221 32.2537 0.00205765 0.00432633 0.00116955
3227 1 15.137 18.777 33.551 0.00448457 0.00627062 0.000310514
3228 1 12.6366 17.8141 32.2856 -0.00920781 -0.00206581 0.00207762
3229 1 13.8945 19.6313 33.5695 -0.000918262 0.00102257 -0.00176012
3230 1 11.404 19.609 33.4964 0.00276318 -0.00123285 0.00701823
3231 1 12.676 17.9002 34.7951 -0.00178992 -0.00437953 0.00159985
3232 1 12.6752 18.7017 33.5705 0.000171211 0.0078084 0.00614641
3233 1 13.9353 20.5218 34.8225 -0.00597734 0.00135378 0.00608601
3234 1 11.4306 20.5043 34.8074 0.0103709 -0.00218336 -0.00322284
3235 1 12.6922 18.7617 36.1024 0.000343324 -0.00449025 -0.00197893
3236 1 10.1762 17.8645 34.7716 -0.0017868 -0.00287363 0.00540307
3237 1 11.402 19.6413 36.1568 -0.00609584 -0.00384668 0.00703434
3238 1 8.89871 19.5434 36.0797 0.00361904 -0.000608432 0.00114383
3239 1 10.1124 17.7012 37.1745 -0.00384832 -0.00282412 0.00840927
3240 1 10.1125 18.7075 36.111 -0.00194214 -0.00483673 -0.0125855
3241 1 11.3787 20.6462 37.2556 -0.00557432 -0.0063733 -0.00370883
3242 1 8.91569 20.649 37.173 -0.00609329 -0.000107361 -0.00405506
3243 1 7.64763 17.6648 37.1524 -0.00520704 -0.0073814 -0.000395699
3244 1 18.9565 19.6082 31.0094 -0.00751344 0.00439533 0.00423049
3245 1 18.9313 20.4831 32.2662 0.00279411 0.00181056 0.000329182
3246 1 17.6724 17.827 32.2267 -0.00915899 0.00270087 0.00813529
3247 1 18.8954 19.6343 33.4851 -0.000515586 -0.000932291 -0.0001
3248 1 16.3872 19.6241 33.5104 -0.00366799 0.0067547 -0.00332587
3249 1 17.7291 17.8742 34.7758 0.00533681 0.00266247 0.000587378
3250 1 17.6578 18.7308 33.4999 0.00439952 0.00283664 -0.00325194
3251 1 18.9369 20.5144 34.7079 0.00452488 0.00287106 0.00448335
3252 1 16.4716 20.5828 34.7841 0.00267984 -0.00475594 -0.00508924
3253 1 17.7555 18.7647 36.1112 0.00410694 -0.0115112 -0.0107817
3254 1 15.1984 17.8486 34.8025 0.000394735 0.000357946 -0.00611554
3255 1 16.5024 19.617 36.1012 0.0134087 -0.00914073 0.000430616
3256 1 13.9862 19.5417 36.1378 -0.000167128 0.00408391 -0.00128654
3257 1 15.1839 17.6906 37.2573 -0.00272517 0.000396625 -0.00633294
3258 1 15.2138 18.6905 36.1619 0.00206926 0.00885997 -0.00362829
3259 1 16.479 20.6684 37.1953 -0.0089132 -0.000689011 0.0023216
3260 1 13.9776 20.6721 37.2519 0.00868516 -0.0027121 0.00733477
3261 1 12.6868 17.7154 37.1674 0.0038181 0.000212974 0.00601537
3262 1 19.0122 19.6217 36.0479 0.00314162 0.00458705 -0.00835349
3263 1 19.0471 20.7106 37.1177 -0.000953222 -2.70655e-05 0.0106667
3264 1 17.6983 17.729 37.1783 -0.00926631 0.00744348 -0.000159565
3265 3 1.18371e-24 7.25497e-10 39.7075 0 0 0
3266 3 1.26055 2.67404 39.7075 0 0 0
3267 3 5.04222 7.25497e-10 39.7075 0 0 0
3268 3 6.30277 2.67404 39.7075 0 0 0
3269 3 3.78166 2.67404 39.7075 0 0 0
3270 3 2.52111 7.25497e-10 39.7075 0 0 0
3271 3 10.0844 7.25497e-10 39.7075 0 0 0
3272 3 11.345 2.67404 39.7075 0 0 0
3273 3 8.82388 2.67404 39.7075 0 0 0
3274 3 7.56333 7.25497e-10 39.7075 0 0 0
3275 3 15.1267 7.25497e-10 39.7075 0 0 0
3276 3 16.3872 2.67404 39.7075 0 0 0
3277 3 13.8661 2.67404 39.7075 0 0 0
3278 3 12.6055 7.25497e-10 39.7075 0 0 0
3279 3 18.9083 2.67404 39.7075 0 0 0
3280 3 17.6478 7.25497e-10 39.7075 0 0 0
3281 3 0 3.56539 39.7075 0 0 0
3282 3 1.26055 6.23943 39.7075 0 0 0
3283 3 5.04222 3.56539 39.7075 0 0 0
3284 3 6.30277 6.23943 39.7075 0 0 0
3285 3 3.78166 6.23943 39.7075 0 0 0
3286 3 2.52111 3.56539 39.7075 0 0 0
3287 3 10.0844 3.56539 39.7075 0 0 0
3288 3 11.345 6.23943 39.7075 0 0 0
3289 3 8.82388 6.23943 39.7075 0 0 0
3290 3 7.56333 3.56539 39.7075 0 0 0
3291 3 15.1267 3.56539 39.7075 0 0 0
3292 3 16.3872 6.23943 39.7075 0 0 0
3293 3 13.8661 6.23943 39.7075 0 0 0
3294 3 12.6055 3.56539 39.7075 0 0 0
3295 3 18.9083 6.23943 39.7075 0 0 0
3296 3 17.6478 3.56539 39.7075 0 0 0
3297 3 0 7.13077 39.7075 0 0 0
3298 3 1.26055 9.80481 39.7075 0 0 0
3299 3 5.04222 7.13077 39.7075 0 0 0
3300 3 6.30277 9.80481 39.7075 0 0 0
3301 3 3.78166 9.80481 39.7075 0 0 0
3302 3 2.52111 7.13077 39.7075 0 0 0
3303 3 10.0844 7.13077 39.7075 0 0 0
3304 3 11.345 9.80481 39.7075 0 0 0
3305 3 8.82388 9.80481 39.7075 0 0 0
3306 3 7.56333 7.13077 39.7075 0 0 0
3307 3 15.1267 7.13077 39.7075 0 0 0
3308 3 16.3872 9.80481 39.7075 0 0 0
3309 3 13.8661 9.80481 39.7075 0 0 0
3310 3 12.6055 7.13077 39.7075 0 0 0
3311 3 18.9083 9.80481 39.7075 0 0 0
3312 3 17.6478 7.13077 39.7075 0 0 0
3313 3 3.88403e-25 10.6962 39.7075 0 0 0
3314 3 1.26055 13.3702 39.7075 0 0 0
3315 3 5.04222 10.6962 39.7075 0 0 0
3316 3 6.30277 13.3702 39.7075 0 0 0
3317 3 3.78166 13.3702 39.7075 0 0 0
3318 3 2.52111 10.6962 39.7075 0 0 0
3319 3 10.0844 10.6962 39.7075 0 0 0
3320 3 11.345 13.3702 39.7075 0 0 0
3321 3 8.82388 13.3702 39.7075 0 0 0
3322 3 7.56333 10.6962 39.7075 0 0 0
3323 3 15.1267 10.6962 39.7075 0 0 0
3324 3 16.3872 13.3702 39.7075 0 0 0
3325 3 13.8661 13.3702 39.7075 0 0 0
3326 3 12.6055 10.6962 39.7075 0 0 0
3327 3 18.9083 13.3702 39.7075 0 0 0
3328 3 17.6478 10.6962 39.7075 0 0 0
3329 3 0 14.2615 39.7075 0 0 0
3330 3 1.26055 16.9356 39.7075 0 0 0
3331 3 5.04222 14.2615 39.7075 0 0 0
3332 3 6.30277 16.9356 39.7075 0 0 0
3333 3 3.78166 16.9356 39.7075 0 0 0
3334 3 2.52111 14.2615 39.7075 0 0 0
3335 3 10.0844 14.2615 39.7075 0 0 0
3336 3 11.345 16.9356 39.7075 0 0 0
3337 3 8.82388 16.9356 39.7075 0 0 0
3338 3 7.56333 14.2615 39.7075 0 0 0
3339 3 15.1267 14.2615 39.7075 0 0 0
3340 3 16.3872 16.9356 39.7075 0 0 0
3341 3 13.8661 16.9356 39.7075 0 0 0
3342 3 12.6055 14.2615 39.7075 0 0 0
3343 3 18.9083 16.9356 39.7075 0 0 0
3344 3 17.6478 14.2615 39.7075 0 0 0
3345 3 0 17.8269 39.7075 0 0 0
3346 3 1.26055 20.501 39.7075 0 0 0
3347 3 5.04222 17.8269 39.7075 0 0 0
3348 3 6.30277 20.501 39.7075 0 0 0
3349 3 3.78166 20.501 39.7075 0 0 0
3350 3 2.52111 17.8269 39.7075 0 0 0
3351 3 10.0844 17.8269 39.7075 0 0 0
3352 3 11.345 20.501 39.7075 0 0 0
3353 3 8.82388 20.501 39.7075 0 0 0
3354 3 7.56333 17.8269 39.7075 0 0 0
3355 3 15.1267 17.8269 39.7075 0 0 0
3356 3 16.3872 20.501 39.7075 0 0 0
3357 3 13.8661 20.501 39.7075 0 0 0
3358 3 12.6055 17.8269 39.7075 0 0 0
3359 3 18.9083 20.501 39.7075 0 0 0
3360 3 17.6478 17.8269 39.7075 0 0 0
