Loading lammps/kokkos/gpu_della9_2022
  Loading requirement: gcc-toolset/14 openmpi/gcc/4.1.6
    fftw/gcc/openmpi-4.1.6/3.3.10 cudatoolkit/12.8
LAMMPS (23 Jun 2022)
KOKKOS mode is enabled (src/KOKKOS/kokkos.cpp:105)
  will use up to 1 GPU(s) per node
WARNING: When using a single thread, the Kokkos Serial backend (i.e. Makefile.kokkos_mpi_only) gives better performance than the OpenMP backend (src/KOKKOS/kokkos.cpp:217)
  using 1 OpenMP thread(s) per MPI task
BOTTOM -0.625
Lattice spacing in x,y,z = 2.5211094 8.3615741 5.3750234
Created orthogonal box = (-2.5211094e-06 -8.3615741e-06 -3.3593896) to (22.689985 25.084722 43.000187)
  1 by 1 by 1 MPI processor grid
Created 2160 atoms
  using lattice units in orthogonal box = (-2.5211094e-06 -8.3615741e-06 -3.3593896) to (22.689985 25.084722 43.000187)
  create_atoms CPU = 0.005 seconds
Setting atom values ...
  2160 settings made for charge
N_LAT_0 648
324 atoms in group anchor
0 atoms in group insert
1836 atoms in group mobile
2160 atoms in group carbon
Reading potential file ffield.reax with DATE: 2011-02-18
WARNING: Changed valency_val to valency_boc for X (src/REAXFF/reaxff_ffield.cpp:296)
Changing box ...
  orthogonal box = (0 -8.3615741e-06 -3.3593896) to (22.689985 25.084722 43.000187)
  orthogonal box = (0 0 -3.3593896) to (22.689985 25.084722 43.000187)
  orthogonal box = (0 0 -3.3593896) to (22.689985 25.084722 43.000187)
System init for delete_atoms ...
Neighbor list info ...
  update every 1 steps, delay 10 steps, check yes
  max neighbors/atom: 2000, page size: 100000
  master list distance cutoff = 12
  ghost atom cutoff = 12
  binsize = 12, bins = 2 3 4
  3 neighbor lists, perpetual/occasional/extra = 2 1 0
  (1) command delete_atoms, occasional
      attributes: full, newton on
      pair build: full/bin/atomonly
      stencil: full/bin/3d
      bin: standard
  (2) pair reaxff/kk, perpetual
      attributes: half, newton off, ghost, kokkos_device
      pair build: half/bin/ghost/kk/device
      stencil: full/ghost/bin/3d
      bin: kk/device
  (3) fix qeq/reaxff/kk, perpetual
      attributes: full, newton off, kokkos_device
      pair build: full/bin/kk/device
      stencil: full/bin/3d
      bin: kk/device
WARNING: Fixes cannot yet send exchange data in Kokkos communication, switching to classic exchange/border communication (src/KOKKOS/comm_kokkos.cpp:581)
Deleted 0 atoms, new total = 2160

CITE-CITE-CITE-CITE-CITE-CITE-CITE-CITE-CITE-CITE-CITE-CITE-CITE

Your simulation uses code contributions which should be cited:
- pair reaxff command:
- fix qeq/reaxff command:
The log file lists these citations in BibTeX format.

CITE-CITE-CITE-CITE-CITE-CITE-CITE-CITE-CITE-CITE-CITE-CITE-CITE

WARNING: Using 'neigh_modify every 1 delay 0 check yes' setting during minimization (src/min.cpp:187)
Neighbor list info ...
  update every 1 steps, delay 0 steps, check yes
  max neighbors/atom: 2000, page size: 100000
  master list distance cutoff = 12
  ghost atom cutoff = 12
  binsize = 12, bins = 2 3 4
  2 neighbor lists, perpetual/occasional/extra = 2 0 0
  (1) pair reaxff/kk, perpetual
      attributes: half, newton off, ghost, kokkos_device
      pair build: half/bin/ghost/kk/device
      stencil: full/ghost/bin/3d
      bin: kk/device
  (2) fix qeq/reaxff/kk, perpetual
      attributes: full, newton off, kokkos_device
      pair build: full/bin/kk/device
      stencil: full/bin/3d
      bin: kk/device
Setting up cg/kk style minimization ...
  Unit style    : real
  Current step  : 0
Per MPI rank memory allocation (min/avg/max) = 69.39 | 69.39 | 69.39 Mbytes
   Step          Temp          E_pair         E_mol          TotEng         Press          Volume    
         0   0             -384554.44      0             -384554.44      64775.522      26386.572    
         1   0             -384554.44      0             -384554.44      64775.522      26386.572    
Loop time of 0.586928 on 1 procs for 1 steps with 2160 atoms

99.6% CPU use with 1 MPI tasks x 1 OpenMP threads

Minimization stats:
  Stopping criterion = energy tolerance
  Energy initial, next-to-last, final = 
     -384554.436112754  -384554.436112754  -384554.436118293
  Force two-norm initial, final = 1010.5582 1010.5582
  Force max component initial, final = 61.869679 61.869679
  Final line search alpha, max atom move = 6.0211889e-12 3.7252903e-10
  Iterations, force evaluations = 1 36

MPI task timing breakdown:
Section |  min time  |  avg time  |  max time  |%varavg| %total
---------------------------------------------------------------
Pair    | 0.42231    | 0.42231    | 0.42231    |   0.0 | 71.95
Neigh   | 0          | 0          | 0          |   0.0 |  0.00
Comm    | 0.0006446  | 0.0006446  | 0.0006446  |   0.0 |  0.11
Output  | 0          | 0          | 0          |   0.0 |  0.00
Modify  | 0.15151    | 0.15151    | 0.15151    |   0.0 | 25.81
Other   |            | 0.01247    |            |       |  2.12

Nlocal:           2160 ave        2160 max        2160 min
Histogram: 1 0 0 0 0 0 0 0 0 0
Nghost:           6518 ave        6518 max        6518 min
Histogram: 1 0 0 0 0 0 0 0 0 0
Neighs:    1.49124e+06 ave 1.49124e+06 max 1.49124e+06 min
Histogram: 1 0 0 0 0 0 0 0 0 0
FullNghs:   2.2019e+06 ave  2.2019e+06 max  2.2019e+06 min
Histogram: 1 0 0 0 0 0 0 0 0 0

Total # of neighbors = 2201904
Ave neighs/atom = 1019.4
Neighbor list builds = 0
Dangerous builds = 0
System init for write_data ...
WARNING: Temperature for thermo pressure is not for group all (src/thermo.cpp:520)
Setting up Verlet run ...
  Unit style    : real
  Current step  : 0
  Time step     : 1
Per MPI rank memory allocation (min/avg/max) = 68.79 | 68.79 | 68.79 Mbytes
   Step          Time           Temp     
         0   0              300          
      1000   1000           342.41498    
      2000   2000           350.02969    
      3000   3000           350.30341    
      4000   4000           364.94469    
      5000   5000           349.62766    
      6000   6000           360.70821    
      7000   7000           358.21187    
      8000   8000           361.32976    
      9000   9000           352.19054    
     10000   10000          365.66896    
Loop time of 132.845 on 1 procs for 10000 steps with 2160 atoms

Performance: 6.504 ns/day, 3.690 hours/ns, 75.276 timesteps/s
99.7% CPU use with 1 MPI tasks x 1 OpenMP threads

MPI task timing breakdown:
Section |  min time  |  avg time  |  max time  |%varavg| %total
---------------------------------------------------------------
Pair    | 97.922     | 97.922     | 97.922     |   0.0 | 73.71
Neigh   | 0          | 0          | 0          |   0.0 |  0.00
Comm    | 2.9069     | 2.9069     | 2.9069     |   0.0 |  2.19
Output  | 0.0029246  | 0.0029246  | 0.0029246  |   0.0 |  0.00
Modify  | 31.702     | 31.702     | 31.702     |   0.0 | 23.86
Other   |            | 0.3116     |            |       |  0.23

Nlocal:           2160 ave        2160 max        2160 min
Histogram: 1 0 0 0 0 0 0 0 0 0
Nghost:           6518 ave        6518 max        6518 min
Histogram: 1 0 0 0 0 0 0 0 0 0
Neighs:    1.49126e+06 ave 1.49126e+06 max 1.49126e+06 min
Histogram: 1 0 0 0 0 0 0 0 0 0
FullNghs:   2.2019e+06 ave  2.2019e+06 max  2.2019e+06 min
Histogram: 1 0 0 0 0 0 0 0 0 0

Total # of neighbors = 2201904
Ave neighs/atom = 1019.4
Neighbor list builds = 0
Dangerous builds = 0
System init for write_data ...
System init for write_data ...
0 648 0 0
0 -0.625 648
Total wall time: 0:02:13
srun: error: della-l02g15: task 0: Exited with exit code 1
srun: Terminating StepId=6632492.1
LAMMPS exited with code 1 — not re-submitting.
