# head.lmp - generated by DiamondEtchMD (carbon-etch)
# config_file=/scratch/gpfs/DGRAVES/lh0534/jack_reax/graphullerene/graphullerene_start.dat  species=Ar  20.0eV  300.0K  angle=45.0deg
package kokkos neigh/qeq full neigh half newton on
units		real
include     config.lmp
if "${pot} == COMB3" then &
"atom_style charge" &
elif "${pot} == REAX" &
"atom_style charge" &
else &
"atom_style atomic"

boundary	p p m

# Load user-supplied config (type 1 = C only); allocate types 2-4 for H/O/Ar
read_data   ${data_file}

variable 	lp equal $(v_end_fluence*v_ML)-${n_complete}
variable    a loop ${lp}

# Regions
region          bbox block EDGE EDGE EDGE EDGE EDGE EDGE
region          anchor block INF INF INF INF INF ${anchor_z_max} units box

# Groups
group 	anchor region anchor
group	insert empty
group 	mobile subtract all anchor
group   carbon type 1

# Thin-slab threshold: 2x frozen atom count
variable    n_anchor_2x equal 2*count(anchor)
# Channeling threshold: 2 Å below the lowest anchor atom (avoids false positives)
variable    channeling_z equal bound(anchor,zmin)-2.0

# mass 1 is set by read_data; set here again to use consistent M_C variable
mass        1 ${M_C}
mass        2 ${M_H}
mass        3 ${M_O}
mass        4 ${M_Ar}

# Potential
if "${pot} == REAX" then &
"pair_style  hybrid reaxff NULL mincap 200 safezone 1.5 zbl 5.0 6.0" &
"pair_coeff * * reaxff ffield.reax C H O NULL" &
"pair_coeff 1 4 zbl 6.0 18.0" &
"pair_coeff 2 4 zbl 1.0 18.0" &
"pair_coeff 3 4 zbl 8.0 18.0" &
"pair_coeff 4 4 zbl 18.0 18.0" &
"group nonargon type 1 2 3" &
"fix reax_qeq nonargon qeq/reaxff 1 0.0 6.0 1e-6 reaxff"

variable c equal ${n_complete}
variable event_count equal ${n_events}
variable    cn equal 0

variable	nfixed   equal count(anchor)
variable	nmobile  equal count(mobile)
variable 	ninject  equal count(insert)

variable 	vel equal sqrt(2*${energ}*6.02214129*1.0e+7/${M_incident}/6242)/1000
variable 	velz equal cos(${ion_angl}*PI/180)*${vel}
variable 	vely equal sin(${ion_angl}*PI/180)*${vel}

compute     ake all ke
compute     ape all pe
compute     ike insert ke
variable    ate equal c_ake+c_ape+ecouple

variable	checkevery equal 1000
compute	    clusts all cluster/atom 3.0
compute	    clust_min all reduce min c_clusts
compute	    clust_max all reduce max c_clusts
variable    one_clust equal "c_clust_min == c_clust_max"
fix		    stopclust all halt ${checkevery} v_one_clust == 0 error continue message yes

compute     cclusts carbon cluster/atom 1.8
compute     cc1 carbon chunk/atom c_cclusts compress yes
compute     nclusts carbon reduce max c_cc1

thermo_style    custom step time v_ninject temp c_ike dt ecouple v_ate v_one_clust c_nclusts
compute     	mtemp mobile temp
compute_modify  mtemp dynamic/dof yes
thermo_modify   temp mtemp
thermo_modify   lost warn flush yes

print "${c}" file begin.txt
if "${n_complete} == 0" then "include init_thermalization.lmp"


# ========================= Begin Per-Impact Outer Loop =========================
label		loop
region bbox delete
region bbox block EDGE EDGE EDGE EDGE EDGE EDGE
# Carbon-etch thin-slab stop: halt if fewer than 2x anchor atoms remain
variable    n_total_now equal count(all)
if "${n_total_now} < ${n_anchor_2x}" then "jump SELF end_sim"


group       insert clear
group 	    mobile subtract all anchor
group nonargon type 1 2 3

variable    c equal ${c}+1
dump current_dump all custom 100 etch_event_trajs/event_dump_${c}.dump id type x y z vx vy vz fx fy fz q
variable    deposeed equal floor(random(1,72099+${seed_adjust},${c}))
fix     depo insert deposit 1 ${incident_type_index} 10000000000 ${deposeed} global ${i_above} ${i_above} vx 0.0 0.0 vy ${vely} ${vely} vz -${velz} -${velz} region bbox units box

fix     2 mobile nve
fix     3 insert nve

timestep 1e-10
run 1 post no
variable starting_nclusts equal $(c_nclusts)

fix ats all dt/reset 1 NULL 1.00 0.01 units box
thermo      100

variable    t0 equal $(time)
variable    time_elapsed equal time-${t0}
fix         thalt all halt 1 v_time_elapsed > ${impact_time} error continue message yes

# Track penetration depth: log Ar z every timestep during impact
group       argon_pen type 4
compute     argon_zmin argon_pen reduce min z
fix         log_pen all print 1 "$(time) $(c_argon_zmin)" file penetration/impact_${c}.txt screen no

run         0 post no
variable    n_channelled equal 0
# =========================== begin inner loop ===========================
label		continue_impact

run         1000000000 pre no post no
run         0
if "$(c_nclusts) > ${starting_nclusts}" then &
"variable event_count equal ${event_count}+1" &
"variable starting_nclusts equal $(c_nclusts)"
if "${one_clust} == 0" then &
"include sweep.lmp" &
"region channelled block INF INF INF INF INF ${channeling_z} units box" &
"group channelled_group region channelled" &
"variable n_channelled equal count(channelled_group)" &
"region channelled delete" &

if "${n_channelled} > 0" then &
"variable event_count equal ${event_count}+1" &
"delete_atoms group channelled_group" &
"run 0" &
"group channelled_group delete" &
"variable n_channelled equal 0" &
"print 'Impact ${c}: atom channeled below anchor region.' append ATOM_CHANNELED"

if "$(time-v_t0) < ${impact_time}" then "jump SELF continue_impact"
unfix thalt
# ============================ end inner loop ============================

unfix   log_pen
uncompute argon_zmin
group   argon_pen delete

unfix   depo
unfix   ats

include thermalize.lmp

unfix       2
unfix       3

# Remove any implanted Ar
group       argon type 4
delete_atoms group argon
group       argon delete

# Atom counts (no replenishment in carbon-etch)
group       carbon type 1
group       hydrogen type 2
group       oxygen type 3
variable    ncarbon equal count(carbon)
variable    nhydrogen equal count(hydrogen)
variable    noxygen equal count(oxygen)

print "Run ${c} complete"
print "C_COUNT: ${ncarbon}"
print "${c} ${ncarbon} ${nhydrogen} ${noxygen}" append ncarbon.txt

write_data impact_snaps/${c}.data nofix nocoeff
if '$(v_c%v_ML) == 0' then "write_dump all custom ML_impacts.dump id type q x y z vx vy vz modify sort id append yes"

undump current_dump
# ========================= End Per-Impact Outer Loop =========================
next		a
jump		SELF loop

label end_sim
print "SLAB_DEPLETED: carbon count below 2x anchor region" file SLAB_DEPLETED
