LAMMPS (23 Jun 2022)
KOKKOS mode is enabled (src/KOKKOS/kokkos.cpp:105)
  will use up to 1 GPU(s) per node
WARNING: When using a single thread, the Kokkos Serial backend (i.e. Makefile.kokkos_mpi_only) gives better performance than the OpenMP backend (src/KOKKOS/kokkos.cpp:217)
  using 1 OpenMP thread(s) per MPI task
package kokkos
package kokkos neigh/qeq full neigh half newton on
units		real
include     config.lmp
# DiamondEtchMD generated config
# orientation=113  surface=
# species=O  energy=0.5eV  angle=0.0deg  T=300.0K

variable    ML equal 108            # atoms per monolayer
variable    end_fluence equal 50   # in ML

variable    energ equal 0.5     # incident energy per atom (eV)
variable    angl equal 0.0       # incident particle angle (deg from normal)
variable    T equal 300.0    # substrate temperature (K)
variable    pot string REAX

variable    use_starting_data_file equal false
variable    starting_data_file string data.truncated

if "${pot} == REAX" then "variable    lat_a file lat_a.txt"
variable    lat_a file lat_a.txt

variable    x equal 9
variable    y equal 3
variable    lat_top equal 3
variable    z equal ${lat_top}+5
variable    z equal 3+5

variable    reconstruct equal false
variable    O_terminate equal false
variable    O_ether_terminate equal false

variable    i_above equal 6.0    # Å above surface to inject particle
variable    impact_time equal 2000.0
variable    thermalization_time equal 500.0

variable    M_C equal 12.011
variable    M_H equal 1.00784
variable    M_O equal 16.0
variable    M_Ar equal 39.948
variable    M_incident equal ${M_O}
variable    M_incident equal 16
variable    incident_type_index equal 3  # O

variable    seed_adjust equal 0
variable    simdepo equal 1
atom_style charge

boundary	p p m

variable    bottom equal -5/8 # edge is in the gap between layers to avoid flop issues
print       'BOTTOM ${bottom}'
BOTTOM -0.625

# Create the entire simulation space "big box" with 3 types of atoms (C, H, O)
lattice    diamond ${lat_a} orient z 1 1 3 orient x -1 1 0 orient y -3 -3 2 spacing $(1/sqrt(2)) $(11/sqrt(22)) $(5/sqrt(11)) origin 0 0 0
lattice    diamond 3.5653871687699 orient z 1 1 3 orient x -1 1 0 orient y -3 -3 2 spacing $(1/sqrt(2)) $(11/sqrt(22)) $(5/sqrt(11)) origin 0 0 0
lattice    diamond 3.5653871687699 orient z 1 1 3 orient x -1 1 0 orient y -3 -3 2 spacing 0.70710678118654746172 $(11/sqrt(22)) $(5/sqrt(11)) origin 0 0 0
lattice    diamond 3.5653871687699 orient z 1 1 3 orient x -1 1 0 orient y -3 -3 2 spacing 0.70710678118654746172 2.3452078799117148655 $(5/sqrt(11)) origin 0 0 0
lattice    diamond 3.5653871687699 orient z 1 1 3 orient x -1 1 0 orient y -3 -3 2 spacing 0.70710678118654746172 2.3452078799117148655 1.5075567228888180349 origin 0 0 0
Lattice spacing in x,y,z = 2.5211094 8.3615741 5.3750234
region     bbox block -1e-6 ${x} -1e-6 ${y} ${bottom} ${z} units lattice
region     bbox block -1e-6 9 -1e-6 ${y} ${bottom} ${z} units lattice
region     bbox block -1e-6 9 -1e-6 3 ${bottom} ${z} units lattice
region     bbox block -1e-6 9 -1e-6 3 -0.625 ${z} units lattice
region     bbox block -1e-6 9 -1e-6 3 -0.625 8 units lattice
create_box 3 bbox
Created orthogonal box = (-2.5211094e-06 -8.3615741e-06 -3.3593896) to (22.689985 25.084722 43.000187)
  1 by 1 by 1 MPI processor grid

# Create diamond cubic lattice in a subregion of bbox
region	        lbox block  -1e-6 ${x} -1e-6 ${y} $(v_bottom-1e-6) $(v_lat_top+1/4+1e-6) units lattice
region	        lbox block  -1e-6 9 -1e-6 ${y} $(v_bottom-1e-6) $(v_lat_top+1/4+1e-6) units lattice
region	        lbox block  -1e-6 9 -1e-6 3 $(v_bottom-1e-6) $(v_lat_top+1/4+1e-6) units lattice
region	        lbox block  -1e-6 9 -1e-6 3 -0.62500100000000002876 $(v_lat_top+1/4+1e-6) units lattice
region	        lbox block  -1e-6 9 -1e-6 3 -0.62500100000000002876 3.2500010000000001398 units lattice
variable        sublat equal ${bottom}+1/2 # 2 layers == half a unit cell
variable        sublat equal -0.625+1/2 
region          anchor block INF INF INF INF ${bottom} ${sublat} units lattice # anchor bottom 2 layers
region          anchor block INF INF INF INF -0.625 ${sublat} units lattice 
region          anchor block INF INF INF INF -0.625 -0.125 units lattice 

if "${use_starting_data_file}" then     "read_data       ${starting_data_file} add merge"     "group carbon type 1"     "variable        n_lat_0  equal $(count(carbon)) # n_lat_0 is the starting number of carbon" else     "create_atoms    1 region lbox"     "variable        n_lat_0  equal $(8*v_x*v_y*v_lat_top) # 8 times the number of unit cells for 113"
create_atoms    1 region lbox
Created 2160 atoms
  using lattice units in orthogonal box = (-2.5211094e-06 -8.3615741e-06 -3.3593896) to (22.689985 25.084722 43.000187)
  create_atoms CPU = 0.005 seconds
variable        n_lat_0  equal $(8*v_x*v_y*v_lat_top) # 8 times the number of unit cells for 113
variable        n_lat_0  equal 648 

set group all charge 0.0
Setting atom values ...
  2160 settings made for charge
print 'N_LAT_0 ${n_lat_0}'
N_LAT_0 648

# Groups
group 	anchor region anchor
324 atoms in group anchor
group	insert empty
0 atoms in group insert
group 	mobile subtract all anchor
1836 atoms in group mobile
group   carbon type 1
2160 atoms in group carbon

# Particle masses
mass        1 ${M_C}
mass        1 12.011
mass        2 ${M_H}
mass        2 1.00784
mass        3 ${M_O}
mass        3 16

# Potential
pair_style reaxff NULL
pair_coeff * * ffield.reax C H O
Reading potential file ffield.reax with DATE: 2011-02-18
WARNING: Changed valency_val to valency_boc for X (src/REAXFF/reaxff_ffield.cpp:296)
fix reax_qeq all qeq/reaxff 1 0.0 6.0 1e-6 reaxff

change_box all x final 0 ${x} y final 0 ${y} z final ${bottom} ${z}
change_box all x final 0 9 y final 0 ${y} z final ${bottom} ${z}
change_box all x final 0 9 y final 0 3 z final ${bottom} ${z}
change_box all x final 0 9 y final 0 3 z final -0.625 ${z}
change_box all x final 0 9 y final 0 3 z final -0.625 8
Changing box ...
  orthogonal box = (0 -8.3615741e-06 -3.3593896) to (22.689985 25.084722 43.000187)
  orthogonal box = (0 0 -3.3593896) to (22.689985 25.084722 43.000187)
  orthogonal box = (0 0 -3.3593896) to (22.689985 25.084722 43.000187)
delete_atoms overlap $(sqrt(3)/8) all all
delete_atoms overlap 0.21650635094610964915 all all
System init for delete_atoms ...
Neighbor list info ...
  update every 1 steps, delay 10 steps, check yes
  max neighbors/atom: 2000, page size: 100000
  master list distance cutoff = 12
  ghost atom cutoff = 12
  binsize = 12, bins = 2 3 4
  3 neighbor lists, perpetual/occasional/extra = 2 1 0
  (1) command delete_atoms, occasional
      attributes: full, newton on
      pair build: full/bin/atomonly
      stencil: full/bin/3d
      bin: standard
  (2) pair reaxff/kk, perpetual
      attributes: half, newton off, ghost, kokkos_device
      pair build: half/bin/ghost/kk/device
      stencil: full/ghost/bin/3d
      bin: kk/device
  (3) fix qeq/reaxff/kk, perpetual
      attributes: full, newton off, kokkos_device
      pair build: full/bin/kk/device
      stencil: full/bin/3d
      bin: kk/device
WARNING: Fixes cannot yet send exchange data in Kokkos communication, switching to classic exchange/border communication (src/KOKKOS/comm_kokkos.cpp:581)
Deleted 0 atoms, new total = 2160

# no reconstruction for 113

if "${O_terminate} && !${use_starting_data_file}" then "variable term_top equal ${lat_top}+1/8" "variable term_bottom equal ${lat_top}" "region term block -1e-6 ${x} -1e-6 ${y} $(v_term_bottom-1e-6) $(v_term_top+1e-6) units lattice" "create_atoms 3 region term" "group O type 3" "displace_atoms O move 0.0 0.0 $(1/4) units lattice" "group O delete"

minimize 1.0e-5 1.0e-6 1000 10000

CITE-CITE-CITE-CITE-CITE-CITE-CITE-CITE-CITE-CITE-CITE-CITE-CITE

Your simulation uses code contributions which should be cited:

- pair reaxff command:

@Article{Aktulga12,
 author = {H. M. Aktulga, J. C. Fogarty, S. A. Pandit, A. Y. Grama},
 title = {Parallel reactive molecular dynamics: Numerical methods and algorithmic techniques},
 journal = {Parallel Computing},
 year =    2012,
 volume =  38,
 pages =   {245--259}
}

- fix qeq/reaxff command:

@Article{Aktulga12,
 author = {H. M. Aktulga, J. C. Fogarty, S. A. Pandit, A. Y. Grama},
 title = {Parallel reactive molecular dynamics: Numerical methods and algorithmic techniques},
 journal = {Parallel Computing},
 year =    2012,
 volume =  38,
 pages =   {245--259}
}

CITE-CITE-CITE-CITE-CITE-CITE-CITE-CITE-CITE-CITE-CITE-CITE-CITE

WARNING: Using 'neigh_modify every 1 delay 0 check yes' setting during minimization (src/min.cpp:187)
Neighbor list info ...
  update every 1 steps, delay 0 steps, check yes
  max neighbors/atom: 2000, page size: 100000
  master list distance cutoff = 12
  ghost atom cutoff = 12
  binsize = 12, bins = 2 3 4
  2 neighbor lists, perpetual/occasional/extra = 2 0 0
  (1) pair reaxff/kk, perpetual
      attributes: half, newton off, ghost, kokkos_device
      pair build: half/bin/ghost/kk/device
      stencil: full/ghost/bin/3d
      bin: kk/device
  (2) fix qeq/reaxff/kk, perpetual
      attributes: full, newton off, kokkos_device
      pair build: full/bin/kk/device
      stencil: full/bin/3d
      bin: kk/device
Per MPI rank memory allocation (min/avg/max) = 69.39 | 69.39 | 69.39 Mbytes
   Step          Temp          E_pair         E_mol          TotEng         Press          Volume    
         0   0             -384554.44      0             -384554.44      64775.522      26386.572    
         1   0             -384554.44      0             -384554.44      64775.522      26386.572    
Loop time of 0.586928 on 1 procs for 1 steps with 2160 atoms

99.6% CPU use with 1 MPI tasks x 1 OpenMP threads

Minimization stats:
  Stopping criterion = energy tolerance
  Energy initial, next-to-last, final = 
     -384554.436112754  -384554.436112754  -384554.436118293
  Force two-norm initial, final = 1010.5582 1010.5582
  Force max component initial, final = 61.869679 61.869679
  Final line search alpha, max atom move = 6.0211889e-12 3.7252903e-10
  Iterations, force evaluations = 1 36

MPI task timing breakdown:
Section |  min time  |  avg time  |  max time  |%varavg| %total
---------------------------------------------------------------
Pair    | 0.42231    | 0.42231    | 0.42231    |   0.0 | 71.95
Neigh   | 0          | 0          | 0          |   0.0 |  0.00
Comm    | 0.0006446  | 0.0006446  | 0.0006446  |   0.0 |  0.11
Output  | 0          | 0          | 0          |   0.0 |  0.00
Modify  | 0.15151    | 0.15151    | 0.15151    |   0.0 | 25.81
Other   |            | 0.01247    |            |       |  2.12

Nlocal:           2160 ave        2160 max        2160 min
Histogram: 1 0 0 0 0 0 0 0 0 0
Nghost:           6518 ave        6518 max        6518 min
Histogram: 1 0 0 0 0 0 0 0 0 0
Neighs:    1.49124e+06 ave 1.49124e+06 max 1.49124e+06 min
Histogram: 1 0 0 0 0 0 0 0 0 0
FullNghs:   2.2019e+06 ave  2.2019e+06 max  2.2019e+06 min
Histogram: 1 0 0 0 0 0 0 0 0 0

Total # of neighbors = 2201904
Ave neighs/atom = 1019.4
Neighbor list builds = 0
Dangerous builds = 0
reset_timestep  0 time 0.0
write_data      113_0K.dat nofix nocoeff
System init for write_data ...

# initial thermalization w/ nose-hoover since it's easy
if "!${use_starting_data_file}" then "thermo          1000" "thermo_style    custom step time temp" "compute     	 mtemp mobile temp" "compute_modify  mtemp dynamic/dof yes" "thermo_modify   temp mtemp" "thermo_modify   lost warn flush yes" "velocity        mobile create ${T} 459087" "fix             1 mobile nvt temp $T $T $(100*dt)" "timestep        1" "run             10000" "unfix           1" "reset_timestep  0 time 0.0 # pretend this never happened"
thermo          1000
thermo_style    custom step time temp
compute     	 mtemp mobile temp
compute_modify  mtemp dynamic/dof yes
thermo_modify   temp mtemp
WARNING: Temperature for thermo pressure is not for group all (src/thermo.cpp:520)
thermo_modify   lost warn flush yes
velocity        mobile create ${T} 459087
velocity        mobile create 300 459087
fix             1 mobile nvt temp $T $T $(100*dt)
fix             1 mobile nvt temp 300 $T $(100*dt)
fix             1 mobile nvt temp 300 300 $(100*dt)
fix             1 mobile nvt temp 300 300 100
timestep        1
run             10000
Per MPI rank memory allocation (min/avg/max) = 68.79 | 68.79 | 68.79 Mbytes
   Step          Time           Temp     
         0   0              300          
      1000   1000           342.41498    
      2000   2000           350.02969    
      3000   3000           350.30341    
      4000   4000           364.94469    
      5000   5000           349.62766    
      6000   6000           360.70821    
      7000   7000           358.21187    
      8000   8000           361.32976    
      9000   9000           352.19054    
     10000   10000          365.66896    
Loop time of 132.845 on 1 procs for 10000 steps with 2160 atoms

Performance: 6.504 ns/day, 3.690 hours/ns, 75.276 timesteps/s
99.7% CPU use with 1 MPI tasks x 1 OpenMP threads

MPI task timing breakdown:
Section |  min time  |  avg time  |  max time  |%varavg| %total
---------------------------------------------------------------
Pair    | 97.922     | 97.922     | 97.922     |   0.0 | 73.71
Neigh   | 0          | 0          | 0          |   0.0 |  0.00
Comm    | 2.9069     | 2.9069     | 2.9069     |   0.0 |  2.19
Output  | 0.0029246  | 0.0029246  | 0.0029246  |   0.0 |  0.00
Modify  | 31.702     | 31.702     | 31.702     |   0.0 | 23.86
Other   |            | 0.3116     |            |       |  0.23

Nlocal:           2160 ave        2160 max        2160 min
Histogram: 1 0 0 0 0 0 0 0 0 0
Nghost:           6518 ave        6518 max        6518 min
Histogram: 1 0 0 0 0 0 0 0 0 0
Neighs:    1.49126e+06 ave 1.49126e+06 max 1.49126e+06 min
Histogram: 1 0 0 0 0 0 0 0 0 0
FullNghs:   2.2019e+06 ave  2.2019e+06 max  2.2019e+06 min
Histogram: 1 0 0 0 0 0 0 0 0 0

Total # of neighbors = 2201904
Ave neighs/atom = 1019.4
Neighbor list builds = 0
Dangerous builds = 0
unfix           1
reset_timestep  0 time 0.0 # pretend this never happened

# write initial values
write_data      113_${T}K.dat nofix nocoeff
write_data      113_300K.dat nofix nocoeff
System init for write_data ...
write_data      data_files/0.data nofix nocoeff
System init for write_data ...
write_dump      all custom dumps/dump.dump id type x y z vx vy vz modify sort id

print "0 ${n_lat_0} 0 0" append ncarbon.txt
0 648 0 0
print "0 ${bottom} ${n_lat_0}" append bottom_tracker.txt
0 -0.625 648
Total wall time: 0:02:13
