ITEM: TIMESTEP
0
ITEM: NUMBER OF ATOMS
3264
ITEM: BOX BOUNDS pp pp mm
0.0000000000000000e+00 2.0168875556741614e+01
0.0000000000000000e+00 2.1392323012619400e+01
-4.7270802086113157e+00 7.5633283337781052e+01
ITEM: ATOMS id type x y z vx vy vz
1 1 2.52111 0.891347 -3.78166 0 0 0
2 1 1.26055 1.78269 -3.78166 0 0 0
3 1 0 0 -2.52111 0 0 0
4 1 0 0.891347 -3.78166 0 0 0
5 1 1.26055 2.67404 -2.52111 0 0 0
6 1 0 0.891347 -1.26055 0 0 0
7 1 7.56333 0.891347 -3.78166 0 0 0
8 1 6.30277 1.78269 -3.78166 0 0 0
9 1 3.78166 1.78269 -3.78166 0 0 0
10 1 5.04222 0 -2.52111 0 0 0
11 1 5.04222 0.891347 -3.78166 0 0 0
12 1 6.30277 2.67404 -2.52111 0 0 0
13 1 3.78166 2.67404 -2.52111 0 0 0
14 1 5.04222 0.891347 -1.26055 0 0 0
15 1 2.52111 0 -2.52111 0 0 0
16 1 3.78166 1.78269 -1.26055 0 0 0
17 1 1.26055 1.78269 -1.26055 0 0 0
18 1 2.50793 0.0216845 0.0240733 0.00438352 -0.0106605 0.00890419
19 1 2.52111 0.891347 -1.26055 0 0 0
20 1 3.7601 2.67987 0.0441882 -0.00142486 0.00391156 -0.00395136
21 1 1.29436 2.64702 0.0133518 -0.00139057 -0.00325242 0.0069644
22 1 2.4944 0.967636 1.31697 0.000767242 -0.00133293 0.0031712
23 1 0.000907278 21.3907 0.0209368 0.00123324 -0.00457772 0.00265005
24 1 1.24946 1.84352 1.27946 0.00206374 -0.00159376 -0.00234401
25 1 20.1609 21.3565 2.5783 -0.00169732 0.00165625 0.00978218
26 1 20.1518 0.904057 1.28761 -0.00315781 -0.00165632 0.00838175
27 1 1.24315 2.68592 2.6038 -0.00116014 0.00400478 0.00576932
28 1 20.143 0.949127 3.8458 0.0125614 0.0083188 -0.00394994
29 1 12.6055 0.891347 -3.78166 0 0 0
30 1 11.345 1.78269 -3.78166 0 0 0
31 1 8.82388 1.78269 -3.78166 0 0 0
32 1 10.0844 0 -2.52111 0 0 0
33 1 10.0844 0.891347 -3.78166 0 0 0
34 1 11.345 2.67404 -2.52111 0 0 0
35 1 8.82388 2.67404 -2.52111 0 0 0
36 1 10.0844 0.891347 -1.26055 0 0 0
37 1 7.56333 0 -2.52111 0 0 0
38 1 8.82388 1.78269 -1.26055 0 0 0
39 1 6.30277 1.78269 -1.26055 0 0 0
40 1 7.55874 21.3687 0.00671593 0.00201598 0.00377778 -0.00189753
41 1 7.56333 0.891347 -1.26055 0 0 0
42 1 8.80656 2.66852 -0.000816804 0.00351612 -0.00286453 0.00178749
43 1 6.30754 2.7429 -6.85179e-05 0.00652587 -0.00277158 0.011662
44 1 7.57063 0.848131 1.27086 -0.00105409 4.05681e-05 0.00140027
45 1 5.05224 0.0620991 -0.00222017 0.00285207 -0.00264335 0.00318442
46 1 6.29686 1.78621 1.29353 0.00267883 -0.00435489 0.00321713
47 1 3.74813 1.79664 1.30115 -0.0084304 -0.000449442 0.000542752
48 1 5.05398 21.3908 2.58532 -0.00494604 4.35548e-05 -0.00231002
49 1 5.03497 0.888629 1.32618 -0.0118783 -0.00608752 0.00736345
50 1 6.37572 2.69786 2.59094 -6.78005e-05 0.000231953 -0.000132379
51 1 3.77465 2.68667 2.59954 -0.00880766 -0.00827761 -0.00283396
52 1 5.02321 0.939843 3.81609 -0.0033709 0.00420749 0.000271036
53 1 2.49267 0.0219458 2.55719 -0.00511954 0.00110952 -0.00950036
54 1 3.75608 1.84044 3.85124 0.00130046 -0.000321908 -0.00344261
55 1 1.25514 1.76733 3.83996 0.00229955 0.000763234 0.0112729
56 1 2.5115 0.0351315 5.14486 0.00292421 -0.00623719 0.000356503
57 1 2.45575 0.909021 3.83592 0.00124997 0.00627506 -0.00163569
58 1 3.79478 2.71488 5.12398 0.00374435 -0.00545686 0.00498148
59 1 1.26346 2.61197 5.07063 0.00487632 -0.00164816 -0.00636765
60 1 2.46324 0.874896 6.38685 -0.00349615 -0.00355729 -0.000688292
61 1 20.1362 21.3729 5.08501 -0.00593814 -0.00015642 -0.00166956
62 1 1.25474 1.72369 6.31715 0.00125999 0.00303596 0.000449969
63 1 0.00618111 21.3333 7.61844 -0.00467644 -0.00355257 0.00177541
64 1 0.0288619 0.861839 6.34253 0.00265375 0.00363481 0.00393438
65 1 1.28293 2.6554 7.60918 0.00365955 -0.0113148 0.000868124
66 1 0.0181043 0.899284 8.88557 0.00872752 0.000933763 0.00619293
67 1 17.6478 0.891347 -3.78166 0 0 0
68 1 16.3872 1.78269 -3.78166 0 0 0
69 1 13.8661 1.78269 -3.78166 0 0 0
70 1 15.1267 0 -2.52111 0 0 0
71 1 15.1267 0.891347 -3.78166 0 0 0
72 1 16.3872 2.67404 -2.52111 0 0 0
73 1 13.8661 2.67404 -2.52111 0 0 0
74 1 15.1267 0.891347 -1.26055 0 0 0
75 1 12.6055 0 -2.52111 0 0 0
76 1 13.8661 1.78269 -1.26055 0 0 0
77 1 11.345 1.78269 -1.26055 0 0 0
78 1 12.5556 21.3805 0.0282266 -0.00192961 -0.00085322 -0.00453347
79 1 12.6055 0.891347 -1.26055 0 0 0
80 1 13.8907 2.66481 0.00721441 0.00526855 -0.00383515 -0.00616963
81 1 11.3604 2.66027 0.00646936 0.00476024 0.00443718 0.00344841
82 1 12.5886 0.933992 1.28026 0.00134492 -0.00367708 -0.00135801
83 1 10.0487 0.0573837 -0.0069522 -0.00588019 -0.00277685 0.00761849
84 1 11.3235 1.72107 1.29329 0.00710939 -0.00751601 -0.00239671
85 1 8.84231 1.78782 1.3007 -0.00293729 -0.00236733 -0.00180367
86 1 10.0884 21.3539 2.49573 -0.00920634 0.00115314 -0.00345373
87 1 10.0428 0.881385 1.25219 0.000589339 0.00134185 0.00392159
88 1 11.338 2.6789 2.56035 -0.00591086 0.00351592 -0.00571068
89 1 8.85577 2.66505 2.54782 0.00165866 0.00181962 0.000375964
90 1 10.113 0.884073 3.81788 -0.00378837 -0.00468575 0.00447179
91 1 7.56839 21.3804 2.59017 -0.00192038 -0.00760176 -0.0076204
92 1 8.84935 1.77483 3.8619 -0.00287833 -0.00290008 0.00489697
93 1 6.36053 1.76068 3.86861 0.00244798 -0.00544919 -0.00904263
94 1 7.56155 0.0155877 5.14916 0.00565942 0.00659866 0.0014587
95 1 7.60734 0.84091 3.84407 0.00812902 -0.00236915 -0.00792586
96 1 8.78139 2.67661 5.12966 -0.00243663 -0.000116146 -0.00175366
97 1 6.28983 2.65671 5.10282 0.0013543 -0.000287308 -0.00839572
98 1 7.54392 0.930221 6.36667 0.00203771 0.0019378 0.0048802
99 1 5.08149 0.00638311 5.07351 0.00619668 -0.000712044 -0.00970287
100 1 6.30081 1.78686 6.41606 1.66302e-05 -0.00585737 0.00510823
101 1 3.75309 1.81944 6.40164 0.00580464 0.00642979 -0.00260539
102 1 5.06485 0.037894 7.63415 0.000243035 0.000634305 -0.00843167
103 1 5.02072 0.8882 6.36046 -0.000369185 -0.00826581 0.000713456
104 1 6.33275 2.72131 7.62436 -0.00724521 0.000560078 0.00988841
105 1 3.77957 2.70244 7.63211 0.00290871 0.000408844 0.00333244
106 1 5.05953 0.928692 8.91394 -7.09502e-05 -0.00889305 -0.00146625
107 1 2.50398 21.3777 7.69038 0.000101759 0.00435141 -0.00604595
108 1 3.79645 1.84373 8.89824 -0.00396726 -0.00861971 -0.00919631
109 1 1.24105 1.78181 8.90554 0.00310057 -0.00231711 0.000846468
110 1 2.48165 0.00982135 10.1368 0.00219904 -0.00273267 0.00224687
111 1 2.49487 0.950262 8.87737 -0.0122363 -0.00974352 -0.00790174
112 1 3.75987 2.68436 10.1707 -0.00199643 0.00326388 -0.00240137
113 1 1.2286 2.64961 10.139 0.00115751 -0.00138282 -0.000997673
114 1 2.49726 0.882078 11.4062 0.00275651 -0.00526466 -0.00495354
115 1 0.0443161 21.3173 10.195 0.000407753 -0.000813356 -0.000666541
116 1 1.26517 1.77917 11.4437 -0.00252136 -0.000999596 -0.00267682
117 1 20.139 0.0150538 12.7569 -0.000531588 -0.00584742 0.00262686
118 1 20.1645 0.898787 11.4558 -0.00137043 0.000928772 0.00417314
119 1 1.27052 2.74605 12.7282 0.000947472 -0.00193147 -0.00115013
120 1 0.0204496 0.929055 13.9878 -0.000216798 0.000928304 -0.00164123
121 1 18.9083 1.78269 -3.78166 0 0 0
122 1 18.9083 2.67404 -2.52111 0 0 0
123 1 17.6478 0 -2.52111 0 0 0
124 1 18.9083 1.78269 -1.26055 0 0 0
125 1 16.3872 1.78269 -1.26055 0 0 0
126 1 17.6262 0.0276415 0.0275524 0.000935709 0.0032953 0.000744523
127 1 17.6478 0.891347 -1.26055 0 0 0
128 1 18.9038 2.69902 -0.0218871 0.00563928 -0.00432371 -0.00472593
129 1 16.3776 2.66423 -0.00781049 0.00277475 0.00771341 0.00764817
130 1 17.5858 0.925608 1.30047 0.00530532 0.00548343 0.00377788
131 1 15.1516 21.3806 0.0332007 0.00023728 0.0101734 0.00571076
132 1 16.332 1.76704 1.29064 -0.0071007 -0.00864245 -0.00457286
133 1 13.8977 1.76566 1.30967 0.00246404 0.00151423 0.00533894
134 1 15.1701 21.3049 2.54186 0.00246246 0.00917945 0.00429013
135 1 15.1257 0.892437 1.35504 -0.00448967 0.00794782 -0.00869348
136 1 16.3827 2.63704 2.57656 0.000776876 -0.00239775 0.0064615
137 1 13.8832 2.6859 2.56765 0.00133494 0.00208208 -0.00081152
138 1 15.1476 0.832445 3.79742 -0.00117023 -0.00734919 -0.00501403
139 1 12.597 21.3775 2.55215 -0.000288058 -0.000380948 -0.00472819
140 1 13.8891 1.78122 3.83673 -0.00255482 -0.000813172 -0.00469307
141 1 11.3657 1.75205 3.8619 -0.00840235 -0.0104859 7.39198e-05
142 1 12.6901 21.3754 5.08836 -0.00386629 -0.00671285 -0.00302496
143 1 12.6297 0.86703 3.8718 -0.00514738 -0.00672722 0.00884368
144 1 13.8957 2.66468 5.11735 0.000583296 0.00862344 -0.00106655
145 1 11.337 2.66847 5.10569 0.00910284 -0.00548181 0.00287435
146 1 12.5789 0.857959 6.31275 -0.000853866 -0.00741324 -0.00397194
147 1 10.1041 0.0266846 5.13416 0.00357647 0.002464 -0.00380987
148 1 11.3436 1.80805 6.34573 -0.0102648 0.00986767 -0.00344561
149 1 8.78767 1.76443 6.39049 0.00222852 -0.00238077 -0.00528004
150 1 10.1286 0.00636976 7.65934 -0.00948385 0.007212 -0.00156205
151 1 10.0515 0.892202 6.40537 -0.00233004 0.00452356 0.00559199
152 1 11.3202 2.6645 7.6362 -0.00450493 -0.00431316 0.00548119
153 1 8.82832 2.67019 7.67891 -0.001616 0.00107141 -0.00325047
154 1 10.1178 0.90653 8.90244 0.00271155 -0.00176374 -0.00324789
155 1 7.64393 0.00712228 7.64333 -0.00534882 0.010463 -0.00173093
156 1 8.81057 1.80861 8.99213 -0.00340426 0.00367476 -0.00243735
157 1 6.25401 1.7956 8.89496 -0.00212767 0.0066625 -0.00376383
158 1 7.52393 21.3611 10.1275 0.00992772 -0.000834062 -0.00892246
159 1 7.56138 0.854816 8.91871 -0.00229288 -0.00568628 0.00565185
160 1 8.8158 2.66256 10.2043 0.00198387 -0.00614075 0.00130945
161 1 6.33476 2.66686 10.1883 0.00857614 -0.00376737 -0.00331788
162 1 7.56601 0.866611 11.4324 -0.000160671 -0.00274263 0.00416743
163 1 5.02785 0.000462326 10.1495 -0.00473853 0.00470015 0.00436946
164 1 6.30631 1.78273 11.4581 0.00992938 -0.00579985 -0.00592535
165 1 3.75036 1.79757 11.3935 -0.000247394 -0.00195997 0.000136291
166 1 5.04283 0.0617556 12.7202 0.001263 0.0117826 0.000773109
167 1 5.04809 0.89853 11.4613 -0.00274112 -0.00203034 -0.00124127
168 1 6.32664 2.72352 12.7451 -0.000280835 0.00618629 0.0113183
169 1 3.79231 2.69214 12.6582 -0.00447913 0.0042903 0.00763112
170 1 5.02642 0.92424 13.9789 -0.00609534 -0.00374672 0.00171094
171 1 2.54718 0.037927 12.7592 -0.00248568 -0.00275527 0.00122401
172 1 3.77215 1.79401 14.0007 0.00339555 -0.000108925 -0.00944891
173 1 1.26625 1.82827 13.9683 0.00349098 0.00271033 -0.00496617
174 1 2.52409 0.00345085 15.2836 -4.51272e-05 0.00518295 0.00653751
175 1 2.5508 0.913036 14.0027 0.0058862 0.00428125 -0.00986913
176 1 3.77983 2.69119 15.3043 -0.00452236 0.0100727 -0.00914388
177 1 1.2666 2.6824 15.282 -0.00214796 -0.00319535 0.00103158
178 1 2.46587 0.917363 16.5575 -0.00636737 -0.0017797 -0.00623775
179 1 20.1601 21.3625 15.2746 -0.00770496 0.000565266 0.00760188
180 1 1.25032 1.76384 16.579 0.00365177 0.00429458 -0.00399896
181 1 20.1502 21.3348 17.7916 0.00170692 -0.00441802 0.00370681
182 1 0.0260028 0.859737 16.5896 4.61494e-05 0.00133887 0.00210755
183 1 1.23369 2.69461 17.7792 -0.00793438 0.00370025 3.00511e-05
184 1 0.0188871 0.876979 19.0905 -0.00849125 -0.00407997 0.00431416
185 1 18.8548 1.75542 1.27164 0.00167854 0.00195245 0.000739022
186 1 18.879 2.66236 2.53338 0.00207148 0.00219511 0.00611752
187 1 17.6756 21.3446 2.55342 -0.00081102 0.00334855 0.0043879
188 1 18.9111 1.79027 3.83684 -0.000278341 -0.00496704 0.000841765
189 1 16.3994 1.76016 3.8286 -0.00688633 -0.009456 -0.00171817
190 1 17.6816 0.0351276 5.13147 -0.00323369 -0.00369252 0.000235656
191 1 17.6389 0.879385 3.78409 0.00381648 0.00226124 0.0036541
192 1 18.8999 2.68178 5.12614 -0.00569647 -0.00704232 0.000676838
193 1 16.3635 2.66546 5.11858 -0.000346362 0.00142128 -2.26105e-05
194 1 17.691 0.853276 6.33406 0.00725037 0.00271628 -0.00221519
195 1 15.1756 21.3396 5.02986 -0.00414455 0.00185572 0.00212533
196 1 16.3562 1.73952 6.39481 0.00418364 0.00579131 0.00124515
197 1 13.869 1.748 6.3454 -0.00400078 -0.00322346 -0.00161035
198 1 15.0682 0.00724497 7.64796 -0.00553416 0.00241559 0.00228064
199 1 15.1723 0.847983 6.33861 0.0004522 0.00493535 0.0005757
200 1 16.4524 2.64799 7.633 -0.0030964 0.00277601 -0.00292775
201 1 13.9217 2.69212 7.58659 -0.00402417 -0.00691455 0.00582393
202 1 15.167 0.878502 8.92835 -0.00884732 -0.00311324 -0.00335618
203 1 12.5657 0.0117851 7.61409 0.00670981 -0.0114918 0.00663036
204 1 13.9075 1.76265 8.92674 0.000665279 0.00272236 -0.00123794
205 1 11.4071 1.81547 8.96314 -0.00509222 0.00697477 0.0016097
206 1 12.6451 0.00955007 10.2078 0.00105805 0.0109266 0.00133078
207 1 12.6635 0.8824 8.94298 0.00397865 -0.0056108 0.00176739
208 1 13.923 2.67434 10.1711 -0.00421606 -0.000261592 -0.00257392
209 1 11.3408 2.66125 10.1913 -0.00748469 0.000847048 -0.00948955
210 1 12.6326 0.888317 11.4607 -0.00547059 -0.000460361 0.00485693
211 1 10.1211 0.0328033 10.1698 0.000340031 0.00821344 0.00337562
212 1 11.3638 1.76259 11.4412 0.00402976 -0.0055187 -0.00868079
213 1 8.81514 1.72173 11.4663 -0.00541663 -0.00110609 -0.000262124
214 1 10.143 0.0199648 12.7191 -0.000257303 0.000755719 -0.000320076
215 1 10.0721 0.809488 11.3945 -0.000811497 0.00569019 -0.00536911
216 1 11.3461 2.59417 12.7284 -0.00319816 -0.00592131 -0.00469815
217 1 8.87015 2.60851 12.6998 -0.00102172 0.00200215 -0.00196357
218 1 10.1026 0.854666 13.9992 -0.00314993 -0.00511288 -0.00449885
219 1 7.54381 0.012249 12.7232 0.000993576 -0.000916176 -7.05611e-05
220 1 8.84925 1.69036 13.9883 6.60722e-05 0.000319836 -0.00422544
221 1 6.28665 1.79266 13.9647 -0.00198215 0.00112967 0.00114563
222 1 7.51531 21.3598 15.2703 -0.00403012 0.00121621 -0.00257721
223 1 7.54456 0.860274 13.9895 -0.00318027 -0.000446369 -0.000449381
224 1 8.8021 2.6676 15.2376 -0.000631601 0.00635313 -0.000458919
225 1 6.3004 2.71387 15.2714 -0.00164001 0.00220921 0.00339361
226 1 7.55016 0.903777 16.4973 -0.00257696 -0.00145267 -0.00689254
227 1 5.02042 0.0832385 15.299 -0.00151132 -0.00127444 0.00599626
228 1 6.26722 1.852 16.536 0.00350441 -0.00383879 -0.00316278
229 1 3.78104 1.8212 16.5815 -0.0025937 0.00402532 0.00680428
230 1 5.0318 21.384 17.8172 -0.00242934 0.00399843 -0.00816547
231 1 4.97463 0.962105 16.5844 0.00345422 -0.0023198 -0.00659275
232 1 6.2711 2.71806 17.8583 -0.0088665 0.0156186 -0.000609657
233 1 3.72864 2.71381 17.884 0.00517614 0.0038395 -0.000832807
234 1 5.00861 0.895183 19.1042 0.00485983 -0.000219288 0.00196818
235 1 2.55127 0.0191927 17.8484 0.00610224 -0.00123766 0.00148587
236 1 3.8044 1.80302 19.1209 -0.00102879 0.0043922 0.00531226
237 1 1.24837 1.79915 19.0585 0.00270426 -0.00249825 -0.0047508
238 1 2.52022 0.0626995 20.3571 -0.00657071 0.000229826 -0.00269595
239 1 2.53478 0.957966 19.0937 -0.00112154 0.00971767 0.00280617
240 1 3.75654 2.69497 20.3616 -0.00234372 0.00846291 -8.11523e-05
241 1 1.24558 2.7256 20.3174 -0.0086507 0.000479029 -0.000787556
242 1 2.5366 0.941931 21.6097 0.00665031 0.0039215 0.00229472
243 1 0.0412096 21.3528 20.3318 -0.00869298 0.000147387 -0.00664101
244 1 1.33683 1.83805 21.6079 0.00273911 0.000722816 0.00586491
245 1 0.00890915 0.0147009 22.8558 -0.00139483 -0.000107422 0.00947652
246 1 0.0153285 0.907927 21.5722 -0.00273981 -0.000848771 -0.00389472
247 1 1.30088 2.69759 22.9224 -0.00409928 0.00523103 -0.00962596
248 1 0.0618908 0.890595 24.1348 0.000350827 -0.00125403 0.00279358
249 1 18.8762 1.77824 6.38823 0.00107865 -0.00746916 0.0014373
250 1 18.9257 2.69894 7.64943 -0.00353304 -0.00180104 0.00531975
251 1 17.6461 21.333 7.66309 0.00148935 -0.000634911 -0.00610297
252 1 18.9214 1.75157 8.9022 -0.00227734 -0.00206433 -0.00357394
253 1 16.4087 1.77531 8.95151 0.00434383 -0.00324744 0.00275871
254 1 17.6793 21.3612 10.1861 -0.000650247 0.00232671 0.00499809
255 1 17.6739 0.883097 8.86181 0.000490327 -0.0012805 0.00414622
256 1 18.8865 2.68847 10.2076 0.00200267 -0.00263563 0.00164888
257 1 16.3841 2.67832 10.1976 -0.00591486 -0.00247403 -0.00575206
258 1 17.7301 0.898394 11.4647 -0.00165976 -0.00228644 0.00313787
259 1 15.1446 21.3751 10.171 -0.0016961 0.000660721 0.000655549
260 1 16.462 1.75155 11.4299 0.00276608 0.00797174 -0.00426883
261 1 13.9162 1.79137 11.4685 -0.00142803 0.00196436 0.0099927
262 1 15.1913 21.3785 12.7138 -0.000299793 0.000852494 0.000205118
263 1 15.1667 0.85362 11.4122 -0.00574265 -0.00234767 -0.016014
264 1 16.4199 2.5896 12.6994 -0.00547182 0.00270156 -0.00632095
265 1 13.8471 2.66061 12.7085 -0.000924482 -0.00106636 0.00848812
266 1 15.1081 0.911511 13.988 0.00231464 0.0067265 0.00341509
267 1 12.6501 21.3833 12.7163 -0.00208273 0.00139101 -0.00150498
268 1 13.8825 1.77059 13.9584 -0.000648881 -0.00162951 0.0115247
269 1 11.3504 1.74777 14.0251 -0.0065496 0.000275599 0.00117209
270 1 12.6432 21.3641 15.2482 0.00289153 0.0019327 0.00238363
271 1 12.6647 0.912541 14.0387 0.00111272 -0.00225138 0.00193286
272 1 13.8993 2.66388 15.2678 0.00451576 0.00542547 -0.00481016
273 1 11.3738 2.66746 15.2364 -0.000139555 -0.00496962 -0.000100566
274 1 12.6621 0.837092 16.4984 0.00204213 -0.00186904 0.00260457
275 1 10.1168 0.0277918 15.3336 0.00444319 0.00143735 -0.00609159
276 1 11.3536 1.76954 16.5369 -0.00291641 -0.00330569 -7.40206e-05
277 1 8.82111 1.81254 16.498 -2.48366e-05 0.00404704 -0.0115594
278 1 10.0846 21.3843 17.8574 0.0131107 -0.00302083 -0.00117246
279 1 10.1027 0.919584 16.5538 -0.00985787 -0.00235001 -0.00176998
280 1 11.3852 2.65205 17.7943 0.002073 -0.000560104 -0.0100549
281 1 8.76227 2.69612 17.8617 -0.00124185 0.00536318 -0.00228622
282 1 10.0942 0.909278 19.0814 0.00374649 -0.00435456 0.0014752
283 1 7.59809 0.05216 17.803 -0.00520616 -0.00249899 0.00546474
284 1 8.79669 1.7695 19.0738 -0.00503711 0.0126209 0.00283404
285 1 6.32598 1.78859 19.1068 0.00385469 -0.000544632 0.00234581
286 1 7.56544 21.3918 20.341 -0.00279411 -0.00383087 -0.00221795
287 1 7.58272 0.849294 19.0915 0.00196704 0.000276682 0.00672771
288 1 8.84945 2.65656 20.3897 0.00302846 0.00603635 0.00214869
289 1 6.36186 2.67652 20.3745 0.00704446 0.00179824 -0.00712506
290 1 7.59869 0.886677 21.6562 0.000126188 0.0054903 0.00706254
291 1 5.03988 0.0366733 20.4017 -0.00118335 0.000261105 0.00462339
292 1 6.36414 1.80729 21.6905 0.00478384 -0.00347368 0.00540715
293 1 3.84275 1.84803 21.6462 -0.00950446 -0.00390143 -0.000910009
294 1 5.00573 21.3711 22.8714 -0.00267002 0.00204559 0.00235117
295 1 5.06864 0.950424 21.6476 -0.0018617 -0.000890068 -0.00642242
296 1 6.34444 2.65132 22.9513 -0.00414337 0.00236186 -0.000227197
297 1 3.80239 2.71729 22.8542 -0.00439838 0.00362959 -0.00464005
298 1 5.03404 0.934896 24.2019 -0.0003346 -0.000830198 0.00280372
299 1 2.54925 21.354 22.8602 0.00161083 0.0103331 1.58884e-05
300 1 3.81959 1.78237 24.1656 0.00230293 0.000953335 0.00237019
301 1 1.31042 1.74947 24.0933 0.00782629 -0.000666439 -0.00406822
302 1 2.56511 0.0459966 25.3781 0.00377465 0.00178826 0.00392832
303 1 2.567 0.895618 24.1235 -0.00133576 0.000776443 -0.00607571
304 1 3.76059 2.71499 25.4269 -0.00308676 -0.00686681 -0.00765272
305 1 1.27219 2.6672 25.4058 -0.0034654 0.00283174 -0.00810375
306 1 2.57935 0.926018 26.6339 0.00026804 -0.00334334 -0.00611307
307 1 0.0549494 0.00519406 25.4265 0.00405973 0.00228484 0.0115663
308 1 1.27889 1.82097 26.6801 -0.00566194 0.0114415 -0.000975509
309 1 20.1514 0.0571044 27.9647 -0.00218352 -0.00337015 -0.00598509
310 1 20.1504 0.905179 26.6839 0.000335565 0.000618797 0.00119463
311 1 1.25322 2.65994 27.921 -0.0019818 -0.00288648 -0.00757455
312 1 20.1495 0.976088 29.2542 -0.00212279 0.0113969 0.00163026
313 1 18.9296 1.81238 11.4351 -0.00144763 0.00108432 -0.00906199
314 1 18.9856 2.6788 12.7201 0.00365574 0.00589746 0.00703936
315 1 17.6873 0.0512325 12.711 -0.0141821 0.000461013 0.00379671
316 1 18.9333 1.79617 13.9921 -0.00180964 0.0018493 -0.00986912
317 1 16.3885 1.77429 14.0407 -0.00988808 0.000157144 -0.00280115
318 1 17.6688 21.3711 15.2435 0.000768422 -0.00435718 -0.0079413
319 1 17.6486 0.926482 14.0308 -0.00271037 0.00702793 -0.00110668
320 1 18.9827 2.68169 15.3145 -0.0025377 -8.99425e-05 -0.00204758
321 1 16.3894 2.70471 15.2648 0.00499089 -0.000198284 -0.00222898
322 1 17.6877 0.868529 16.4796 -0.0019588 0.00523517 -0.00190553
323 1 15.1757 0.0362467 15.2669 -0.00142979 0.0113983 -0.00320471
324 1 16.4176 1.81318 16.5353 -0.00778957 0.00143728 0.000835236
325 1 13.8618 1.70064 16.5281 -0.00354361 0.0086771 -0.0049969
326 1 15.1341 21.3786 17.8771 -0.0015266 -0.00145223 -0.0038063
327 1 15.1357 0.864437 16.5195 -0.00120266 2.28987e-07 0.00240365
328 1 16.3974 2.64807 17.8407 0.00390042 0.00200799 0.00198087
329 1 13.8997 2.61455 17.7804 0.00668321 0.000674667 -0.003952
330 1 15.1158 0.873196 19.1053 -0.00500212 -0.000365596 -0.000682035
331 1 12.6309 21.3632 17.8077 0.00427346 0.00136223 0.00233874
332 1 13.8493 1.73892 19.0691 -0.00553706 0.00717213 -0.00258353
333 1 11.3537 1.79041 19.0391 0.00227526 0.000379272 0.00477468
334 1 12.6325 21.373 20.3786 0.00465853 -0.00492559 -0.000935438
335 1 12.5803 0.866364 19.0907 0.000597106 -0.00908125 0.00474789
336 1 13.836 2.66332 20.3715 -0.00504091 0.00159866 0.00341164
337 1 11.3769 2.60025 20.3455 1.38457e-05 -0.0037898 -0.00529478
338 1 12.5978 0.880983 21.6448 0.00351739 -0.00620784 0.00139551
339 1 10.1247 21.3907 20.4155 0.00274309 -0.0040913 0.000787385
340 1 11.3872 1.78747 21.6213 0.00536408 0.00201811 -0.0035896
341 1 8.84986 1.81903 21.6401 0.000787215 -0.000401687 0.000797565
342 1 10.1302 21.3765 22.9081 0.0068428 0.000254093 0.000539991
343 1 10.1115 0.896941 21.6592 -0.00499481 0.00512539 0.00314089
344 1 11.3963 2.67097 22.9269 0.00490188 -0.00322079 -0.00651983
345 1 8.90118 2.70794 22.9367 -0.000200204 -0.00925481 -0.00379186
346 1 10.1058 0.906395 24.236 0.000843089 -0.000320522 -0.00654282
347 1 7.62917 0.00258945 22.9485 -0.00020291 0.000661549 0.00767716
348 1 8.87787 1.83781 24.2 0.000390728 0.00429588 -0.00658753
349 1 6.29068 1.77337 24.2091 -0.00845436 0.00637098 -0.0040331
350 1 7.59775 21.3527 25.4686 0.00236947 0.00771773 0.00127861
351 1 7.58321 0.915656 24.2125 0.000765353 -0.00167289 -0.0081884
352 1 8.8716 2.715 25.4075 0.00598382 -0.00267229 0.00164771
353 1 6.33736 2.67876 25.4317 0.000745661 -0.010467 -0.00422389
354 1 7.65047 0.905449 26.7183 -0.00243416 -0.00142323 0.000997034
355 1 5.03173 0.0314205 25.4302 -0.00221766 0.00308093 0.00109525
356 1 6.36181 1.77866 26.7286 -0.000421887 -0.00192049 -0.00706047
357 1 3.80439 1.81129 26.6637 -0.00828986 -0.0064317 -0.00755173
358 1 5.0171 0.0531299 27.9715 0.00085298 -0.00125626 0.00439533
359 1 5.09734 0.942568 26.6952 0.00104453 -0.0030157 -0.00407702
360 1 6.33649 2.69935 27.9732 0.00993858 0.00515019 0.00208365
361 1 3.74012 2.73096 27.9352 -0.000866705 0.0128283 0.00162369
362 1 5.01918 0.954347 29.2179 0.0112023 -0.000991931 -0.00860501
363 1 2.55645 0.0187752 27.9225 0.00434566 0.00433306 -0.00540722
364 1 3.75335 1.80593 29.2155 0.00893085 -0.00115937 -0.000406741
365 1 1.28287 1.79058 29.2062 -0.00443443 -0.00323916 -0.00509905
366 1 2.51929 21.3831 30.4456 0.000576756 0.00287429 -0.000329585
367 1 2.46961 0.918849 29.1725 -0.00248244 0.000991501 -0.0135435
368 1 3.75574 2.70627 30.51 0.00440981 -0.0110129 0.00247491
369 1 1.29302 2.68045 30.4685 -0.00179363 -0.00609402 0.00604301
370 1 2.47661 0.870281 31.6857 -0.000901568 0.00120139 -0.00154035
371 1 0.0195697 0.0527862 30.4752 0.00764912 0.000139147 0.00509538
372 1 1.24227 1.8117 31.7691 -0.00318775 -0.00470323 -0.00306248
373 1 20.1494 21.3904 33.0156 0.000662882 -0.00353742 -0.00622496
374 1 0.00437633 0.880554 31.7361 0.00388845 0.00484015 -0.00461383
375 1 1.26168 2.72264 32.9522 -0.00877789 0.0057456 0.000655548
376 1 0.0194919 0.883816 34.2657 0.00284449 -0.0047763 0.000834076
377 1 18.9845 1.75614 16.5508 0.00244228 3.74028e-05 0.0045749
378 1 18.9156 2.61194 17.8316 -0.00150092 2.91065e-05 -0.00228664
379 1 17.6525 21.3334 17.7367 -0.00172767 0.00515168 -0.00386216
380 1 18.9481 1.7663 19.1 0.00693213 -0.000977388 0.00553181
381 1 16.4035 1.73976 19.0936 0.00896586 -0.000510243 0.00745259
382 1 17.73 0.00691546 20.2935 0.00382001 0.00365737 -0.00491252
383 1 17.6486 0.854575 19.0645 0.00497451 -0.00448471 -0.00264033
384 1 18.9034 2.64324 20.3316 0.00331389 0.00249635 0.000582311
385 1 16.3206 2.68708 20.3712 0.00578172 -0.00545867 0.00274363
386 1 17.6684 0.857771 21.5729 0.000936496 -0.000596776 0.0117779
387 1 15.1175 21.3737 20.3771 0.00446501 0.000206389 -0.000795849
388 1 16.3633 1.8086 21.6391 0.00301199 0.0011905 -0.000470152
389 1 13.8053 1.76673 21.6042 0.00140831 -0.00178234 -0.004332
390 1 15.1396 0.00513519 22.8767 -0.00184672 -0.0019786 0.000583977
391 1 15.1067 0.827987 21.6495 -0.00627367 0.00408898 -0.00562822
392 1 16.4166 2.69425 22.8816 0.0103298 0.00976663 -6.15265e-05
393 1 13.8838 2.66717 22.8832 0.000225001 -0.00288243 0.00649139
394 1 15.1815 0.889717 24.1467 0.00327994 -0.0016259 0.00146391
395 1 12.6198 21.3792 22.8978 -0.00192491 0.00833066 0.00250862
396 1 13.9574 1.7754 24.1001 -0.0016156 0.00643599 -0.00867275
397 1 11.4074 1.74033 24.2108 0.0014276 0.0034029 -0.00334343
398 1 12.6915 21.3766 25.4041 -0.000969919 0.00250975 -0.00496599
399 1 12.6583 0.93201 24.159 -0.00225381 -0.00658477 -0.00621677
400 1 13.8991 2.63346 25.3575 0.00551273 -0.00346718 -0.00333144
401 1 11.4173 2.69561 25.4137 0.00430489 -0.00396365 -0.000847447
402 1 12.6073 0.849531 26.6943 -0.00138885 0.00330015 -0.00943581
403 1 10.1263 0.00898699 25.4356 -0.00246699 0.00465054 -0.000117403
404 1 11.3683 1.81627 26.6432 0.0062473 0.00350227 0.00917657
405 1 8.88915 1.81601 26.7097 -0.00279348 0.00158797 -0.000395389
406 1 10.0478 21.3743 27.961 0.0012887 -0.00658734 0.00325007
407 1 10.0952 0.9105 26.6831 0.00235313 0.00135038 -0.00980825
408 1 11.4043 2.6971 27.9294 0.000304589 -0.00462466 -0.00656729
409 1 8.8279 2.697 27.9932 -0.00214825 0.00384315 -0.00424899
410 1 10.0477 0.916876 29.2822 0.00615103 -0.00179813 0.00579451
411 1 7.58597 0.0369901 28.0091 0.00534579 0.000416906 -0.0096291
412 1 8.8378 1.79676 29.2337 0.00106679 -0.00326611 0.00192822
413 1 6.35177 1.82292 29.2589 -0.00201596 0.00433914 -0.00660394
414 1 7.52141 21.3696 30.4806 -0.000342124 -0.00331977 -0.000560697
415 1 7.54873 0.890386 29.2672 0.000705407 0.00345683 -0.0022259
416 1 8.77206 2.6748 30.5127 0.00134659 0.00883308 0.0077308
417 1 6.31654 2.74748 30.5229 -0.000388333 0.00292863 0.000162414
418 1 7.53835 0.875663 31.8051 0.0051768 -0.000946578 -0.000277893
419 1 5.00577 21.3887 30.5373 0.00293219 0.000365882 0.00693262
420 1 6.3136 1.80381 31.7806 0.00135519 0.00266394 -0.00271024
421 1 3.70523 1.79822 31.7692 -0.00676478 -0.00273951 -0.0004583
422 1 5.07241 0.0459581 33.0349 -0.00115252 0.00167411 0.00618551
423 1 5.03867 0.924486 31.7809 -0.00171616 0.00111424 -0.00664226
424 1 6.35328 2.69733 33.0179 -0.00248892 0.00164127 -0.00574425
425 1 3.76485 2.7281 32.9679 0.00043658 2.68961e-05 -0.0032276
426 1 5.0401 0.916112 34.3069 0.00712331 0.00655105 -0.00697214
427 1 2.52213 21.3715 33.0112 -0.00595242 -0.00359524 0.00289673
428 1 3.76112 1.82576 34.303 -0.00209993 -0.000674129 0.00300144
429 1 1.19981 1.79746 34.2284 -0.00116269 -0.0065768 -0.00626378
430 1 2.58269 0.0020314 35.4639 0.00592133 -0.00452586 -0.00569335
431 1 2.58112 0.928423 34.2697 0.00815383 0.0100195 -0.00768576
432 1 3.79511 2.69001 35.5484 -0.000175815 0.00219859 -0.000709535
433 1 1.28292 2.67135 35.5556 -0.000149355 0.000801481 0.00131104
434 1 2.57728 0.885328 36.8339 0.00407806 0.00533751 8.26617e-05
435 1 20.1656 0.00497303 35.507 -0.000686553 -0.0021151 0.00430282
436 1 1.28975 1.74434 36.7647 0.00888164 -0.000491179 0.00517115
437 1 20.1111 21.302 37.9964 -0.000190508 -0.00445034 -0.00165607
438 1 0.00793711 0.852528 36.8463 -0.000321212 -0.000754102 -0.00317993
439 1 1.2641 2.76547 37.9629 -0.0018935 -0.00117668 -0.00634501
440 1 18.8946 1.82787 21.6073 0.00756602 0.00283903 -0.00310593
441 1 18.9246 2.69721 22.9096 -0.00608771 -0.00658999 -0.00148108
442 1 17.7353 21.3865 22.8891 -0.00520015 -0.00234787 -0.000905299
443 1 18.9799 1.81336 24.1135 0.00781176 -0.00338782 0.00563353
444 1 16.4333 1.76627 24.1342 -0.00242631 0.000406982 -0.00568928
445 1 17.7053 21.3827 25.4205 0.0013641 0.0065751 -0.0117314
446 1 17.7079 0.898816 24.1201 -0.000944356 0.0122842 -0.00822582
447 1 18.9049 2.6951 25.3988 -0.00126374 0.000911865 0.000695499
448 1 16.3625 2.65282 25.4172 -0.00171698 0.00160369 0.000557649
449 1 17.6321 0.88553 26.6573 -0.0111255 0.00327564 -0.000613339
450 1 15.1935 21.3839 25.4334 -0.000617267 0.00119972 -0.000193699
451 1 16.3469 1.79515 26.6509 -0.00433059 0.00823121 -0.0025677
452 1 13.8658 1.74716 26.648 0.00290875 0.00238342 0.00425781
453 1 15.1581 21.3861 27.9625 -0.00122705 0.00219877 -0.00043488
454 1 15.1263 0.905824 26.6906 -0.00525886 0.00238992 -0.00364454
455 1 16.4036 2.71087 27.9361 0.00260871 -0.00385632 -0.0058196
456 1 13.9277 2.71549 27.9421 -0.00491673 0.00469302 -0.011421
457 1 15.1734 0.924677 29.1902 -0.0032482 -0.00497652 -0.00176753
458 1 12.5783 21.377 27.9442 0.00589846 0.00443863 -0.00728642
459 1 13.8975 1.81457 29.1734 0.00217749 -0.00506931 0.00916352
460 1 11.3732 1.79946 29.207 -0.00129001 -0.00682251 -0.00418216
461 1 12.5965 0.0129917 30.4565 0.000498328 0.000834748 -0.00534443
462 1 12.6257 0.903683 29.1776 0.00019586 0.00902575 -0.00163442
463 1 13.8759 2.68365 30.4477 -0.000994887 0.0028991 -0.0142996
464 1 11.3744 2.72124 30.4912 -0.00561819 0.00355044 -0.00151787
465 1 12.6036 0.890176 31.7059 0.00378902 0.00236718 0.00166337
466 1 10.105 0.00734848 30.4939 -0.000705 0.00156433 -0.00139136
467 1 11.3458 1.79063 31.7136 0.00164216 -0.00070726 -0.0010351
468 1 8.79287 1.77102 31.7749 -0.00176976 -0.00120181 0.00382201
469 1 10.0696 0.0506522 33.0189 0.0106241 -0.00683572 -0.00337015
470 1 10.0542 0.935702 31.7931 0.0059368 0.00134438 0.000373714
471 1 11.3614 2.6807 33.0047 -0.0070636 0.00164934 0.00365672
472 1 8.83938 2.7053 33.0193 0.00657757 0.000606599 0.000635025
473 1 10.0452 0.920351 34.2883 -0.00702799 -4.39382e-05 -0.00141347
474 1 7.53907 0.031246 33.0768 0.00406808 -0.00120867 -0.00141876
475 1 8.78695 1.85564 34.3163 -0.00908415 -0.00161934 1.50723e-06
476 1 6.29705 1.82203 34.3673 0.0018751 -0.000239925 -0.0029448
477 1 7.55194 21.3587 35.5944 -0.0032225 0.000774475 0.00559702
478 1 7.54634 0.932131 34.3216 -0.000858593 -0.00149348 0.00665028
479 1 8.8079 2.71821 35.5414 0.00213182 0.00310663 0.00464106
480 1 6.30829 2.65688 35.554 -0.00241348 -0.00381845 -0.00424362
481 1 7.57309 0.8793 36.9091 0.000126217 -0.000544576 -0.000716565
482 1 5.01775 21.3607 35.516 -0.000673326 0.00597303 0.000727366
483 1 6.30086 1.76011 36.8741 -0.00499464 7.85292e-05 -0.00342352
484 1 3.77748 1.82912 36.9259 0.00283864 0.00429864 -0.00793307
485 1 4.9849 21.2791 38.0217 -0.00472486 -0.00198665 0.00638239
486 1 5.05306 0.873315 36.9381 -0.00157841 -0.00571196 -0.00969582
487 1 6.22395 2.82601 37.9553 0.00512258 0.000194733 0.00127255
488 1 3.81933 2.83687 38.0265 0.0103991 0.000952997 -0.00218134
489 1 2.52733 21.2624 37.9652 0.00389806 0.00324608 -0.00582688
490 1 18.8845 1.79783 26.6342 -0.00320208 -0.00285419 0.0103365
491 1 18.9039 2.6903 27.9268 -0.00555744 0.0013416 -0.0100669
492 1 17.6606 21.3778 27.9441 -0.00270141 -0.00679665 0.00472564
493 1 18.896 1.81399 29.2328 0.00698813 0.00898542 0.00318764
494 1 16.4173 1.79978 29.1962 -0.0036826 -0.00847886 0.00396437
495 1 17.6454 0.0140701 30.5218 -0.01814 0.00105885 0.000833478
496 1 17.7285 0.882351 29.1807 -0.00290249 -0.00129083 -0.0119869
497 1 18.8854 2.68178 30.52 0.00379442 -0.00114107 0.000353936
498 1 16.4323 2.67527 30.4759 -0.000657041 0.00499058 0.00057909
499 1 17.6569 0.861568 31.7853 -0.000181168 -0.00185267 0.00352357
500 1 15.1461 0.06109 30.51 -0.000277244 0.00307736 0.00117049
501 1 16.4268 1.77406 31.7599 -0.00237052 -0.00226562 -0.00775484
502 1 13.8471 1.77867 31.7443 -0.00345581 0.000759579 0.00665855
503 1 15.1179 21.3563 33.0164 -0.00408974 0.00649094 -0.00851011
504 1 15.1146 0.944342 31.7255 -0.00339707 0.0062452 -0.0024605
505 1 16.4042 2.64044 33.0417 0.00455468 0.00762166 -0.00871655
506 1 13.8899 2.68211 33.0534 -0.00828291 -0.00373337 -0.0090166
507 1 15.0808 0.887469 34.2836 0.000375778 0.00452756 0.00271981
508 1 12.6582 0.122701 33.0188 0.00675985 -0.00586554 0.0027682
509 1 13.8195 1.75719 34.2939 0.00208479 0.00758183 -0.00340596
510 1 11.3066 1.79675 34.2309 -0.00320146 0.00304685 0.00872454
511 1 12.593 21.3674 35.5082 0.00446205 -0.0017949 -0.0194048
512 1 12.5981 0.91538 34.329 -0.00272571 0.00193623 0.00588964
513 1 13.8756 2.65639 35.5063 0.00398261 -0.000338668 0.00110221
514 1 11.3463 2.70321 35.5235 -0.00425405 -0.000904203 0.00475023
515 1 12.6003 0.829244 36.862 -0.0019908 -0.00392503 -0.00205644
516 1 10.0839 0.0596477 35.5474 -0.00835024 0.00602398 0.00198209
517 1 11.3158 1.76964 36.8844 0.000288872 -0.0104083 -0.00934859
518 1 8.80428 1.74464 36.9222 0.00147798 -0.00739552 0.0018907
519 1 10.0522 21.3361 37.9963 -0.00607173 -0.00155893 0.000698075
520 1 10.0684 0.891981 36.815 0.00360858 -0.000964939 -0.00504507
521 1 11.3174 2.67301 37.9768 0.00528352 -0.000363146 -0.00683714
522 1 8.77438 2.79328 38.0485 0.00944303 0.00738009 0.0053836
523 1 7.55697 21.2967 38.0502 0.00222878 -4.10041e-05 -0.000438659
524 1 18.883 1.7882 31.7792 -0.00639982 0.000675903 -0.00465321
525 1 18.9083 2.68321 33.1022 0.00190229 0.00666282 -0.00379432
526 1 17.5998 21.3426 33.0328 -0.000855562 0.00624926 -0.00772454
527 1 18.9259 1.78898 34.3435 -0.00479353 0.00222405 -0.00795697
528 1 16.3985 1.79556 34.3376 -0.00445357 0.000646955 -0.000970515
529 1 17.6739 21.3795 35.5345 0.00220647 -0.00348782 -0.00396643
530 1 17.625 0.84596 34.2758 -0.00033678 -0.00205149 0.00213057
531 1 18.9144 2.66479 35.6616 -0.00100826 -0.0023014 -0.00243434
532 1 16.3722 2.67499 35.6008 0.00449404 0.00517887 -0.00439305
533 1 17.6683 0.866447 36.8361 -0.00307866 0.00806188 0.00667877
534 1 15.1024 0.0333948 35.529 -0.000802825 0.00804259 -0.000714246
535 1 16.3881 1.69858 36.8264 0.00468629 -0.00959733 -0.00895694
536 1 13.826 1.81414 36.8106 -0.0021313 -0.00324804 0.0094575
537 1 15.1409 21.2887 38.0432 0.00308924 -0.00138354 -0.00169242
538 1 15.1069 0.908532 36.8139 0.00768139 0.00415197 0.00506904
539 1 16.4149 2.7303 37.9781 0.00380428 -0.00844465 0.00437323
540 1 13.8558 2.77299 37.9905 -0.00112804 0.00587031 0.00681967
541 1 12.6888 21.3566 38.0337 -0.000810886 -0.00273276 -0.00655392
542 1 18.9513 1.76372 36.9071 -0.00622959 -0.00277641 -0.000577857
543 1 18.9411 2.64431 38.1408 -0.00332077 -0.000130232 0.00263674
544 1 17.7089 21.3046 37.9874 0.006425 0.00703084 -0.00269406
545 1 2.52111 4.45673 -3.78166 0 0 0
546 1 1.26055 5.34808 -3.78166 0 0 0
547 1 0 3.56539 -2.52111 0 0 0
548 1 0 4.45673 -3.78166 0 0 0
549 1 1.26055 6.23943 -2.52111 0 0 0
550 1 0 4.45673 -1.26055 0 0 0
551 1 7.56333 4.45673 -3.78166 0 0 0
552 1 6.30277 5.34808 -3.78166 0 0 0
553 1 3.78166 5.34808 -3.78166 0 0 0
554 1 5.04222 3.56539 -2.52111 0 0 0
555 1 5.04222 4.45673 -3.78166 0 0 0
556 1 6.30277 6.23943 -2.52111 0 0 0
557 1 3.78166 6.23943 -2.52111 0 0 0
558 1 5.04222 4.45673 -1.26055 0 0 0
559 1 2.52111 3.56539 -2.52111 0 0 0
560 1 3.78166 5.34808 -1.26055 0 0 0
561 1 1.26055 5.34808 -1.26055 0 0 0
562 1 2.49682 3.54025 -0.0315665 0.00277127 -0.00340025 -0.000149833
563 1 2.52111 4.45673 -1.26055 0 0 0
564 1 3.81749 6.18262 0.0269443 0.00447388 0.000194701 0.00507207
565 1 1.26276 6.2289 0.0246475 0.000436757 0.00243981 -0.00754237
566 1 2.47515 4.46945 1.33294 0.000646987 -0.00849029 0.0053796
567 1 0.0231604 3.52508 -0.0220764 0.00174435 -0.00724623 0.000832031
568 1 1.2768 5.34718 1.28086 -0.00166726 0.0054639 0.00526841
569 1 20.121 3.60628 2.53067 0.001478 -0.00021557 -0.00319902
570 1 0.0283625 4.47159 1.2759 0.00393666 0.000565438 -0.00717237
571 1 1.29161 6.254 2.52574 0.00187506 0.000124955 -0.00337316
572 1 20.1442 4.43642 3.84999 -0.00497522 -0.004971 -0.00103347
573 1 12.6055 4.45673 -3.78166 0 0 0
574 1 11.345 5.34808 -3.78166 0 0 0
575 1 8.82388 5.34808 -3.78166 0 0 0
576 1 10.0844 3.56539 -2.52111 0 0 0
577 1 10.0844 4.45673 -3.78166 0 0 0
578 1 11.345 6.23943 -2.52111 0 0 0
579 1 8.82388 6.23943 -2.52111 0 0 0
580 1 10.0844 4.45673 -1.26055 0 0 0
581 1 7.56333 3.56539 -2.52111 0 0 0
582 1 8.82388 5.34808 -1.26055 0 0 0
583 1 6.30277 5.34808 -1.26055 0 0 0
584 1 7.5383 3.63295 0.0509873 -0.00481237 0.00241001 0.00377647
585 1 7.56333 4.45673 -1.26055 0 0 0
586 1 8.8305 6.21614 -0.0100406 0.000351016 -0.00111067 0.0018822
587 1 6.35032 6.2288 0.0397902 -0.00711055 -0.00148789 -0.00164193
588 1 7.55303 4.49176 1.35248 0.00863883 -0.00587012 -0.0109549
589 1 5.02677 3.5843 0.0352136 -0.00153976 0.000842696 0.00414275
590 1 6.31611 5.34434 1.29628 -0.00692446 -0.00279983 -0.000909614
591 1 3.81376 5.31335 1.33793 0.00549324 0.000463062 -0.000183928
592 1 5.01544 3.58941 2.58227 -0.0030798 -0.00102073 -0.00139397
593 1 5.02599 4.46912 1.30424 -0.00694172 -0.00450166 -0.00334399
594 1 6.30262 6.26022 2.53648 0.00104124 -0.00281483 -0.00379294
595 1 3.76035 6.25005 2.55052 0.00332916 0.00703199 0.00421862
596 1 5.05893 4.50115 3.84188 0.00120199 -0.00556961 0.00282538
597 1 2.49721 3.59863 2.57989 -0.0019503 0.00180536 0.00990513
598 1 3.7702 5.36021 3.83974 0.00780477 0.000772126 0.001867
599 1 1.24987 5.33814 3.82249 -0.00229766 -0.00230417 -0.00360407
600 1 2.49248 3.54985 5.11 -0.00333278 0.00126744 -0.00485273
601 1 2.51514 4.43758 3.8599 -0.0011166 -0.00427296 -0.00240565
602 1 3.83357 6.24326 5.10903 -0.00777467 -0.00246754 -0.00228826
603 1 1.27609 6.23437 5.08591 -0.00401531 0.00905133 -0.000900034
604 1 2.50808 4.44873 6.34612 0.00458129 -0.00281517 0.00152319
605 1 0.00120527 3.54918 5.09833 -0.00949066 0.000243295 -0.000742396
606 1 1.22954 5.31805 6.3238 0.000971088 -0.0131022 0.00490826
607 1 0.0337822 3.55071 7.60072 0.00422078 0.00172165 6.85863e-05
608 1 20.1331 4.41118 6.37224 0.00325339 -0.000678138 -0.00393011
609 1 1.24922 6.2598 7.59657 0.00742967 -0.000390318 -0.00630028
610 1 20.1652 4.50065 8.85381 -0.00699225 -0.00267019 -0.00424193
611 1 17.6478 4.45673 -3.78166 0 0 0
612 1 16.3872 5.34808 -3.78166 0 0 0
613 1 13.8661 5.34808 -3.78166 0 0 0
614 1 15.1267 3.56539 -2.52111 0 0 0
615 1 15.1267 4.45673 -3.78166 0 0 0
616 1 16.3872 6.23943 -2.52111 0 0 0
617 1 13.8661 6.23943 -2.52111 0 0 0
618 1 15.1267 4.45673 -1.26055 0 0 0
619 1 12.6055 3.56539 -2.52111 0 0 0
620 1 13.8661 5.34808 -1.26055 0 0 0
621 1 11.345 5.34808 -1.26055 0 0 0
622 1 12.6173 3.57286 0.0153446 -0.00148661 0.00989217 0.00506961
623 1 12.6055 4.45673 -1.26055 0 0 0
624 1 13.8416 6.2286 0.011309 0.00294701 -0.000597753 -0.00296621
625 1 11.3669 6.22189 0.060729 0.000247615 0.00243567 0.00682908
626 1 12.6129 4.43922 1.28088 0.0014608 0.000799058 0.000585189
627 1 10.0441 3.54328 -0.0247048 0.000753956 0.00666538 -0.00142516
628 1 11.3417 5.30161 1.31057 0.000207719 0.00575673 -0.00251721
629 1 8.87876 5.33723 1.29519 -0.00200326 0.0099374 0.00687418
630 1 10.1327 3.6077 2.56738 0.00290537 0.00211269 -0.00317067
631 1 10.0743 4.44539 1.29688 -0.00163648 -0.00291769 0.00206266
632 1 11.3765 6.22121 2.59107 -0.00579087 0.00110752 -0.00262711
633 1 8.88275 6.21704 2.53798 0.00715535 -0.00696099 -0.00133996
634 1 10.1092 4.45692 3.83078 -0.00314934 -0.00196203 -0.00352441
635 1 7.58132 3.56636 2.6139 -0.00726766 -0.00144406 -0.000123521
636 1 8.8884 5.30243 3.84995 -0.00553627 -0.00408832 1.7866e-05
637 1 6.36047 5.35133 3.87101 -0.00176105 -0.00365205 0.000163426
638 1 7.54481 3.55692 5.14528 -0.00499949 0.000879914 -0.00697502
639 1 7.59649 4.47232 3.90435 0.0057314 -0.000900229 0.000235346
640 1 8.79817 6.25316 5.06116 -0.00630134 -0.00109713 -0.010851
641 1 6.34 6.25497 5.10437 0.00187588 -0.00396361 0.00331073
642 1 7.54972 4.43197 6.39808 -0.000904792 0.00302072 0.000299302
643 1 5.03626 3.58313 5.10338 -0.00517023 -0.00718201 0.00489086
644 1 6.32479 5.3518 6.3808 -0.00164947 0.00708496 -0.00212235
645 1 3.76722 5.33666 6.37145 -0.00306738 -0.00508019 -0.00720922
646 1 5.04745 3.61538 7.64 -0.00256725 0.00599227 -0.00345206
647 1 5.05593 4.44093 6.34583 -0.00592941 -0.00398977 0.00426341
648 1 6.32551 6.24135 7.64204 -0.00592201 0.00152049 -0.00296853
649 1 3.76589 6.23573 7.56878 -0.00763092 0.00676865 -0.000756051
650 1 4.99839 4.52575 8.86751 -0.00151221 0.00129898 -0.00120196
651 1 2.5079 3.58172 7.61059 -0.00975 0.000701321 -0.00480305
652 1 3.81711 5.38582 8.87085 -0.00616571 -0.002708 -0.0021223
653 1 1.27223 5.37346 8.8854 0.00363699 0.00156257 0.00980357
654 1 2.5245 3.61089 10.1897 0.000954686 0.000595699 -0.000898168
655 1 2.50642 4.46656 8.92932 -0.00198328 -0.000154521 0.00267635
656 1 3.76496 6.2651 10.1524 -0.00472521 0.00676824 0.00405658
657 1 1.23165 6.23079 10.1583 0.00847298 0.00440484 -0.00447627
658 1 2.53265 4.46563 11.4493 0.0030437 0.00137715 0.0113448
659 1 0.0344916 3.5857 10.1357 0.00422857 -0.0051311 0.00332193
660 1 1.2434 5.37247 11.4623 0.000500479 -0.00297852 0.0110144
661 1 20.137 3.63667 12.7393 -0.0125532 0.00370581 -0.0025831
662 1 0.0139954 4.45745 11.4341 0.00571498 0.00142932 -0.00247256
663 1 1.27771 6.23836 12.7356 0.00184208 0.000773689 0.00130373
664 1 20.1195 4.50353 13.9817 -0.00544284 -0.00578296 0.000475115
665 1 18.9083 5.34808 -3.78166 0 0 0
666 1 18.9083 6.23943 -2.52111 0 0 0
667 1 17.6478 3.56539 -2.52111 0 0 0
668 1 18.9083 5.34808 -1.26055 0 0 0
669 1 16.3872 5.34808 -1.26055 0 0 0
670 1 17.628 3.51103 0.0372123 -0.00102544 0.00228149 -0.000958077
671 1 17.6478 4.45673 -1.26055 0 0 0
672 1 18.934 6.23641 -0.0327842 -0.00569288 0.000974286 -0.00276104
673 1 16.4117 6.2894 -0.033767 0.00867956 0.00339417 -0.00434481
674 1 17.6374 4.43702 1.26664 -0.00864094 0.00813193 -1.85965e-05
675 1 15.1108 3.58085 0.0291987 0.00158577 -0.0003969 0.0052938
676 1 16.3653 5.36309 1.24958 0.00736247 0.00741849 -0.0026294
677 1 13.8238 5.36327 1.3159 0.00244271 -0.000782864 -0.00344273
678 1 15.1467 3.58732 2.60109 0.00623049 -0.00526504 -0.000637403
679 1 15.1203 4.47973 1.32599 -0.000296173 0.0106634 -0.00312183
680 1 16.4203 6.2639 2.53042 -0.00437003 -0.00341421 -0.0057314
681 1 13.8855 6.27298 2.533 0.00263078 -0.00355663 0.00198284
682 1 15.1035 4.41635 3.8298 0.00132854 -0.00555917 0.000320467
683 1 12.6475 3.54619 2.54321 0.00298051 -0.00347693 -0.00639162
684 1 13.9094 5.42041 3.86659 -0.00783233 -0.00148389 -0.00869034
685 1 11.3963 5.33529 3.84015 0.000621585 -0.00286028 -0.00288913
686 1 12.6732 3.57232 5.08913 0.00201506 -0.00115472 -0.00173374
687 1 12.6595 4.45643 3.833 -0.00531051 -0.00608046 -0.00873199
688 1 13.8721 6.24559 5.11719 -0.0033381 0.00417327 -0.000607317
689 1 11.3321 6.26651 5.1352 0.000990662 -0.00494642 0.0101066
690 1 12.6254 4.42278 6.31586 0.00689107 0.00297964 -0.00155258
691 1 10.0758 3.57938 5.11256 -0.00252095 -0.000348614 0.000557553
692 1 11.3364 5.37271 6.35772 0.000585461 -0.000300745 0.00733104
693 1 8.8036 5.38991 6.35514 -0.00633844 -0.00175404 0.00484184
694 1 10.1195 3.54957 7.61363 0.000577032 0.00104385 -0.000753721
695 1 10.1001 4.43107 6.35246 -0.00251219 0.00669417 -0.00347518
696 1 11.3147 6.24542 7.66061 0.00677596 0.0019334 0.00240908
697 1 8.83164 6.26396 7.64391 -0.00620975 -0.00234142 0.00388198
698 1 10.067 4.40935 8.88506 0.00416237 -0.00473982 0.00119525
699 1 7.60272 3.57947 7.64785 -0.00124257 0.00358389 0.0103869
700 1 8.78716 5.31863 8.8511 -0.00370301 0.00482437 0.00517398
701 1 6.29344 5.32574 8.88324 -0.0022046 0.00176245 0.00342138
702 1 7.57818 3.52298 10.194 0.000254649 -0.00393981 -0.00990243
703 1 7.54413 4.41725 8.90796 -0.00213505 -0.000683213 -0.00655239
704 1 8.83111 6.23308 10.1587 0.00120228 -0.000155575 -0.00684055
705 1 6.32962 6.22862 10.1845 -0.00303984 -0.00172638 0.0025381
706 1 7.54773 4.43186 11.4382 0.000982137 -0.00031567 -0.00679191
707 1 5.031 3.57075 10.1234 0.00397725 -0.00407577 -0.00476009
708 1 6.28672 5.35311 11.4727 -0.000995508 -0.000635908 -0.00723447
709 1 3.78945 5.33866 11.4185 0.00446713 -0.000619188 0.00377038
710 1 5.05764 3.57373 12.7083 -0.0047757 -0.00258577 -0.00296765
711 1 5.07866 4.48779 11.4363 -0.00128254 -0.0080333 -0.00224033
712 1 6.2971 6.23267 12.7391 0.000445999 -0.000286546 0.002111
713 1 3.82514 6.2931 12.7022 -0.00106582 -0.00320453 -0.00252816
714 1 5.08875 4.46739 13.9882 0.00183994 -0.000758905 -0.00585606
715 1 2.56306 3.56419 12.7033 -0.00133418 0.00129397 0.0089672
716 1 3.79984 5.3342 13.9741 -0.00403916 -0.000236219 -0.00334443
717 1 1.27788 5.3629 13.9775 0.00217233 0.00165904 0.00235858
718 1 2.5423 3.6031 15.2594 -0.00193297 -0.00352303 -0.000950082
719 1 2.53725 4.46925 13.9506 0.0052993 -0.00747993 0.00728279
720 1 3.81188 6.27081 15.2621 0.00130127 -0.00216966 -0.000620324
721 1 1.34241 6.28808 15.2307 0.0027986 -0.00848855 -0.00273307
722 1 2.51212 4.49664 16.5815 0.00540348 -9.51329e-05 0.00259676
723 1 20.1412 3.59719 15.3118 -0.000248986 0.0034103 0.00096059
724 1 1.30236 5.43128 16.5349 0.00749987 -0.00510573 -0.00528758
725 1 20.1386 3.61692 17.8279 -0.00081461 -0.00363408 0.00384812
726 1 0.0177988 4.50326 16.5275 0.0141795 -0.00276474 0.00252152
727 1 1.30951 6.258 17.8236 -0.0020401 -0.00147063 -0.00347069
728 1 20.1544 4.44795 19.0826 0.00180703 0.00539496 -0.00554324
729 1 18.8968 5.3353 1.272 0.00564238 0.000630083 -0.000775365
730 1 18.9269 6.27014 2.54755 -0.00302005 -0.00443973 0.000287331
731 1 17.6323 3.50361 2.58001 0.00307118 0.00173403 0.00916967
732 1 18.902 5.35653 3.84726 -6.41984e-05 0.00338628 6.37148e-05
733 1 16.3902 5.3573 3.80298 -0.00603935 0.00303099 -0.00349212
734 1 17.5754 3.54096 5.13667 -0.00844245 0.00456104 -0.00475636
735 1 17.66 4.4423 3.8348 -0.00476575 0.00308852 -0.00443881
736 1 18.8506 6.25897 5.0672 0.00634104 0.00701166 -0.00241433
737 1 16.3958 6.25498 5.07839 4.12132e-05 0.00571364 -0.00230654
738 1 17.6276 4.45787 6.38618 0.0011133 0.00473361 -0.00419371
739 1 15.1341 3.56191 5.1157 -0.00167844 -0.00438931 0.00782109
740 1 16.3452 5.40716 6.39857 -0.00282483 -0.00218474 -0.00208017
741 1 13.8335 5.37242 6.36295 -0.00622357 -0.00974083 -0.00337835
742 1 15.1793 3.58739 7.62557 -0.00680527 0.00103287 -0.00192687
743 1 15.14 4.51653 6.34131 0.00240289 -0.0051386 0.00509323
744 1 16.3468 6.28911 7.65354 0.00119587 0.00246955 -0.00384276
745 1 13.8324 6.23961 7.63033 0.00312151 -0.00495517 0.000833969
746 1 15.18 4.47946 8.85695 -0.002806 -0.00476959 0.000625632
747 1 12.6343 3.48455 7.60637 0.00543918 0.00165266 0.00272599
748 1 13.8654 5.3174 8.86711 -0.00192658 0.00396667 0.00277
749 1 11.3255 5.30941 8.91305 0.00396745 0.0021831 0.00646092
750 1 12.645 3.56034 10.1629 -0.000414983 -0.000450991 0.0086491
751 1 12.6225 4.41415 8.87814 -0.00393209 0.00378645 0.000422354
752 1 13.8903 6.24733 10.1697 0.00106137 0.00107888 -0.00483685
753 1 11.354 6.23342 10.1467 0.00331055 0.00388843 -0.00381069
754 1 12.6236 4.43828 11.4165 0.0107003 0.00613782 0.00308378
755 1 10.1335 3.57983 10.1478 0.00286981 -0.01031 -0.00334343
756 1 11.3694 5.34241 11.4392 -0.00501699 0.00180891 -0.00319677
757 1 8.85983 5.31111 11.4248 -0.0028759 -0.00174875 -0.00237132
758 1 10.0859 3.47333 12.7084 0.00285384 0.00136074 -0.00179553
759 1 10.1432 4.42462 11.4132 -0.00629098 -0.00431393 -0.00474103
760 1 11.3416 6.25275 12.7269 0.00556546 -0.00266487 0.00444285
761 1 8.83399 6.23086 12.6863 0.00683251 -0.00742028 -0.00484866
762 1 10.0702 4.40851 13.9913 -0.00211099 -0.00163561 0.00343623
763 1 7.60079 3.57328 12.7268 0.00358574 -0.00401025 0.0103879
764 1 8.85739 5.34487 13.9789 -0.00372022 -0.00195856 0.00100463
765 1 6.34175 5.35953 13.9773 0.0102716 -0.00581643 0.0025746
766 1 7.49586 3.61497 15.2499 0.00270987 0.0048284 -0.00640386
767 1 7.57234 4.51761 13.9508 0.0075479 -0.00356633 0.000986322
768 1 8.84486 6.30137 15.2539 -0.00298814 -0.0104706 0.0053675
769 1 6.35541 6.29873 15.2432 0.000345067 0.00359106 -0.00355141
770 1 7.54439 4.48461 16.5299 -0.000419946 -0.00381135 -0.000615474
771 1 5.04457 3.58866 15.2605 0.000110696 0.00127004 -0.000123129
772 1 6.2673 5.39954 16.5345 -0.000944264 -0.0021801 0.00296363
773 1 3.78951 5.41674 16.5382 -0.00111603 -0.0107556 -0.00146045
774 1 5.03893 3.62002 17.822 -0.00430857 0.00167068 -0.00464184
775 1 5.00918 4.49912 16.5485 -0.00690268 -0.000511364 0.00219602
776 1 6.31386 6.2542 17.7777 0.00244211 -0.00463824 0.00980871
777 1 3.73951 6.28668 17.8465 0.000456114 0.00876705 -3.41799e-06
778 1 5.07542 4.49571 19.1435 0.0060148 -0.00943592 -0.00369489
779 1 2.49967 3.61188 17.8141 -0.00516784 -0.000213802 0.00138216
780 1 3.77614 5.34598 19.1176 0.00212851 -0.00255057 0.00718518
781 1 1.26555 5.31732 19.1236 0.00625358 0.00391182 -0.00307065
782 1 2.5235 3.58937 20.3521 0.0105179 -0.00409065 0.00353341
783 1 2.49365 4.44985 19.1427 0.0096503 0.0017765 -0.00412962
784 1 3.81725 6.27843 20.3831 -0.0084086 -0.00182427 0.00322883
785 1 1.23877 6.24208 20.4253 -0.00190294 0.0053842 -0.00463193
786 1 2.53459 4.52606 21.6032 -0.00360633 0.00220683 0.00230961
787 1 0.0391045 3.58804 20.3005 -0.00131921 -0.00519278 0.00321498
788 1 1.23695 5.37054 21.7239 0.000595871 0.0054904 0.000822852
789 1 0.0242942 3.6012 22.9027 -0.000502115 0.00306247 0.00367384
790 1 20.132 4.49125 21.609 -0.000945059 -0.000568421 -0.00347792
791 1 1.21275 6.27187 22.9389 0.0018829 0.000227858 -0.00863217
792 1 20.1336 4.47964 24.2108 -0.00119371 -0.00238688 -0.00736889
793 1 18.8551 5.35681 6.31769 0.00594889 -0.00486219 -0.00327739
794 1 18.8704 6.26858 7.59021 0.00470942 0.00375275 -0.000324444
795 1 17.6858 3.54414 7.64768 0.00300584 0.00574776 -0.00145879
796 1 18.9106 5.35272 8.87225 -0.00869891 0.00081983 0.0059926
797 1 16.4656 5.35751 8.83554 0.00447421 -0.00312308 -0.000740801
798 1 17.6319 3.57725 10.1663 0.0029164 0.00922518 0.00114702
799 1 17.6921 4.44047 8.88966 -0.00104266 0.00469419 0.00552889
800 1 18.9665 6.26406 10.1716 0.00351929 -0.00222446 0.00104305
801 1 16.3848 6.22617 10.175 0.00526182 0.00453008 -0.00222242
802 1 17.5936 4.41108 11.4337 -0.00151889 -0.00416605 -0.00449844
803 1 15.1223 3.56985 10.1257 0.00508316 -0.0039975 0.00435397
804 1 16.3699 5.29334 11.4608 0.00293719 -0.00100175 -0.00226805
805 1 13.8973 5.34816 11.4482 -0.00402461 -0.00579082 -0.00327239
806 1 15.1821 3.53169 12.6972 -0.00265793 0.00342598 -0.000903909
807 1 15.1533 4.45893 11.4586 -0.00450565 -0.00168607 -0.0113645
808 1 16.3774 6.23836 12.685 0.00272236 0.00396257 -0.0117066
809 1 13.8402 6.19576 12.731 -0.00463113 0.00014265 -0.00571381
810 1 15.1734 4.40936 13.9803 0.000554197 -0.00414685 -0.00099266
811 1 12.6192 3.51534 12.7236 -0.018552 -0.0037017 -0.0097017
812 1 13.9091 5.33126 13.9751 0.00826623 0.00216778 0.00428123
813 1 11.3745 5.29799 13.9905 -0.00295697 0.00483188 0.00228407
814 1 12.6375 3.52305 15.2635 -0.00487846 0.00661573 -0.00248058
815 1 12.6413 4.45711 13.9539 0.000826407 0.00642796 -0.00777651
816 1 13.9102 6.24834 15.2634 0.000221959 -0.00926021 0.00696416
817 1 11.3653 6.25322 15.236 0.000278022 0.00289081 0.00549684
818 1 12.6184 4.45416 16.5068 0.00376194 0.00711693 0.00347352
819 1 10.0903 3.52814 15.2282 0.00539922 -0.00280688 -0.000690122
820 1 11.4148 5.31384 16.5234 0.00243906 -0.00787667 -0.00830771
821 1 8.85632 5.35662 16.5324 -0.00529072 -0.00194712 0.00143959
822 1 10.0974 3.5706 17.7927 0.00385813 -0.00499156 0.00260427
823 1 10.1144 4.43315 16.5063 -0.00783195 -0.00239706 0.000900719
824 1 11.3677 6.22145 17.7986 0.00530109 -0.00285615 -0.0109505
825 1 8.80653 6.2823 17.7854 -0.000433364 -0.00751402 -0.00209476
826 1 10.097 4.50421 19.0458 0.00179926 -0.00734636 0.00662343
827 1 7.52638 3.60838 17.8046 -0.00560433 0.00056786 -0.00335172
828 1 8.82055 5.35709 19.055 0.00212021 0.012156 -0.00221233
829 1 6.30981 5.38333 19.0489 0.0067029 0.00411391 -0.000270643
830 1 7.54064 3.57484 20.3505 0.00356511 0.00560249 0.00147879
831 1 7.57399 4.48551 19.0801 0.00175278 -0.000895066 -0.00393407
832 1 8.8252 6.20391 20.3641 -0.00191136 -0.0033382 0.00368072
833 1 6.32771 6.2372 20.3528 0.00145409 -0.00118284 -3.32246e-05
834 1 7.62064 4.43117 21.6562 -0.00374876 -0.0025117 0.000289912
835 1 5.04759 3.57342 20.4131 -0.00715575 0.00139543 -0.00353333
836 1 6.34018 5.3624 21.6165 0.000273218 -0.00915452 -0.00414588
837 1 3.78616 5.37951 21.683 0.00501517 0.00138272 -0.00139686
838 1 5.07422 3.58238 22.8922 -0.00223104 0.00671985 0.00301946
839 1 5.10209 4.44771 21.687 -0.00917185 -0.00729546 -0.00618158
840 1 6.27203 6.28023 22.8894 -0.00359676 -0.00449833 -0.0100084
841 1 3.80232 6.23317 22.8932 0.00193078 0.00297914 -0.00207391
842 1 5.05847 4.44762 24.1804 -0.00388871 -0.00142075 -0.000652105
843 1 2.52987 3.59073 22.8659 -0.00580375 -0.0023619 -0.00806883
844 1 3.77866 5.31012 24.2258 -0.00184612 0.000228086 0.00095289
845 1 1.24205 5.35123 24.1532 -0.00518543 0.000255006 -0.00486843
846 1 2.49527 3.5913 25.4284 0.00800801 3.08266e-05 -0.00298929
847 1 2.51568 4.48381 24.1774 0.00343842 -0.00269612 -0.00702972
848 1 3.77167 6.29152 25.4269 -0.00304589 -0.00180012 0.00408058
849 1 1.27259 6.26062 25.4351 -0.000148143 -0.0058005 -0.00848173
850 1 2.49402 4.50515 26.677 0.0072176 -0.00473521 0.00342932
851 1 20.1562 3.57715 25.4722 -0.00295592 0.00140523 -0.00106433
852 1 1.29703 5.35055 26.6988 0.00251359 -0.000434599 -0.00192029
853 1 0.0111161 3.56769 27.9778 -0.00867971 -0.000988703 0.00107277
854 1 0.0423115 4.48751 26.7401 -0.00358033 -0.00552833 -0.00135279
855 1 1.27547 6.26566 27.9492 0.00377587 -0.00241597 0.00395534
856 1 20.1122 4.4456 29.2633 -0.000190011 -0.00316533 -0.00368312
857 1 18.8881 5.31486 11.4431 -0.00292867 0.00110965 0.00142907
858 1 18.8774 6.18932 12.6848 -0.000548844 -0.00359348 0.000735658
859 1 17.6674 3.52821 12.6744 0.000601741 -0.00585897 -0.00420569
860 1 18.8954 5.37304 13.9903 0.00398673 -0.00242065 0.000539602
861 1 16.3693 5.36465 14.0069 -0.00305103 -0.00285154 -0.00132074
862 1 17.6764 3.55852 15.2785 -0.00234265 -0.0021749 0.00715216
863 1 17.6448 4.46933 13.9781 0.00352802 -2.38575e-05 0.00163308
864 1 18.9304 6.28838 15.2714 -0.0144625 0.00842784 0.00311436
865 1 16.4018 6.23961 15.2592 -0.00301784 -0.00312859 0.000871074
866 1 17.6741 4.43737 16.525 -0.00327626 0.00208465 -0.00453847
867 1 15.117 3.52561 15.3012 0.00326629 -0.00531754 0.00420545
868 1 16.3773 5.29093 16.5115 0.000842401 -0.00753722 0.00194083
869 1 13.8558 5.35181 16.5652 -0.00236366 0.00863681 -0.00163053
870 1 15.1854 3.56393 17.8004 0.00147042 0.00604728 -0.000867092
871 1 15.1493 4.42726 16.5368 -0.00490622 0.00658064 -0.00213159
872 1 16.3915 6.2142 17.8246 -0.00438942 0.00308386 -0.00187001
873 1 13.9159 6.24328 17.7988 0.0012562 0.00367012 -0.00136989
874 1 15.0946 4.41017 19.0682 0.00945336 0.0033318 0.001389
875 1 12.668 3.50261 17.7689 -0.00386038 -6.23871e-05 -0.00347104
876 1 13.8296 5.30788 19.0416 -0.00581383 0.00270752 -0.00111051
877 1 11.3378 5.33638 19.1095 0.00768522 0.000708117 -0.0134476
878 1 12.5281 3.52032 20.337 0.000423051 0.00267431 0.00922268
879 1 12.6228 4.40642 19.0268 -0.00168707 0.00340819 -0.00346897
880 1 13.8697 6.22571 20.3234 0.00410038 -0.0035649 0.000555219
881 1 11.3736 6.24272 20.3381 -0.0040751 -0.00505874 0.00311147
882 1 12.6199 4.42288 21.6516 0.00261145 -0.00370746 -0.00321255
883 1 10.082 3.54939 20.3272 0.000270123 -0.000143862 0.00131767
884 1 11.3596 5.35646 21.5941 -0.0029912 -0.00173692 -0.00417483
885 1 8.90915 5.32327 21.6599 -0.00405835 -0.00414377 -0.00258124
886 1 10.0898 3.57673 22.8884 -0.00607341 -0.00414542 -0.00628361
887 1 10.0926 4.42983 21.6196 0.000859852 0.00546866 0.000873901
888 1 11.3855 6.22108 22.8823 -0.00280742 -0.00365305 -0.000130438
889 1 8.8328 6.20439 22.8373 0.00199696 -0.00783663 -0.00453294
890 1 10.0996 4.44689 24.1246 -0.0117525 0.00107853 -0.00916146
891 1 7.62924 3.57415 22.9378 0.0015913 -0.00283659 -0.0026989
892 1 8.82541 5.35976 24.1838 -0.00351475 -0.00209065 -0.0010617
893 1 6.32181 5.36496 24.1878 -0.00566428 -0.00168965 0.00451385
894 1 7.59205 3.57436 25.4785 -0.00194085 0.00561091 -0.00908042
895 1 7.59938 4.45839 24.2085 0.00435808 0.00576715 -0.00121318
896 1 8.87046 6.24598 25.4257 0.00205781 -0.000947992 -0.00933507
897 1 6.30919 6.22957 25.4408 -0.00224638 0.00174731 -0.00189429
898 1 7.58533 4.4124 26.7435 -0.00472826 -0.0058874 -0.00670764
899 1 5.05892 3.57542 25.4232 0.00289619 0.00360973 -0.00228177
900 1 6.30409 5.36226 26.7309 -0.006493 0.00493318 0.00786247
901 1 3.8152 5.39967 26.6505 0.00128833 -0.00435645 -0.000538189
902 1 4.95997 3.56119 28.0194 0.00075727 0.000752715 0.00225869
903 1 5.0281 4.48704 26.6986 -0.00238332 -0.00121829 -0.00339765
904 1 6.33218 6.24157 27.9614 0.00905408 -0.00232147 0.00257315
905 1 3.79547 6.31007 27.9296 -0.00096506 -0.00468436 -0.0022536
906 1 5.01546 4.43711 29.1964 0.00872409 -0.0011746 0.00397673
907 1 2.48963 3.5613 27.9707 -0.0060189 -0.000374024 -0.00108087
908 1 3.74152 5.44176 29.245 -0.00477757 -0.00398401 -0.0131802
909 1 1.2109 5.36634 29.275 0.000598068 -0.0113647 -0.00198562
910 1 2.55546 3.63542 30.5042 -0.00235585 -0.000397743 -0.00320259
911 1 2.49386 4.52002 29.2252 0.00034105 -0.0115966 -0.00456037
912 1 3.74311 6.33343 30.5228 0.00203319 -0.00170369 0.000194081
913 1 1.22311 6.21804 30.496 0.00307646 -0.00514028 -0.00547761
914 1 2.50223 4.53373 31.7551 0.00639001 0.00677692 -0.00125307
915 1 0.0325977 3.55495 30.5202 -0.00761691 -0.00920042 0.00399655
916 1 1.24067 5.34249 31.7942 -0.00842424 0.00526498 0.00237919
917 1 20.1419 3.52997 33.0497 -0.000359739 -0.0034045 -0.00962573
918 1 20.1638 4.47016 31.7383 -0.00168664 -0.00272184 -0.000203158
919 1 1.27403 6.24214 33.0472 -0.00149333 -0.00212017 0.00195508
920 1 20.1265 4.44863 34.3618 0.00127285 -0.00743477 0.00190751
921 1 18.9261 5.37984 16.566 -0.00938038 0.00315289 -0.00210098
922 1 18.9422 6.2498 17.8449 0.00117904 -0.00898736 -0.0110749
923 1 17.6825 3.52132 17.7851 -0.00141028 0.000520451 0.000570893
924 1 18.8711 5.38595 19.0879 0.00521377 -0.000149913 0.00054796
925 1 16.4236 5.33874 19.1619 -0.00806474 -0.00110623 -0.00454252
926 1 17.6264 3.55313 20.2865 0.00344504 0.000525314 0.00752026
927 1 17.6412 4.45471 19.0781 -0.0038451 0.00842886 -0.00404966
928 1 18.8985 6.24123 20.2814 0.000924222 -0.00862482 -0.00243389
929 1 16.3791 6.25127 20.4065 0.00263794 0.00127443 0.000709918
930 1 17.693 4.43651 21.5981 -0.0103968 -0.00914326 0.00440467
931 1 15.0764 3.53263 20.3541 -0.002243 0.00432502 -0.00396194
932 1 16.388 5.2972 21.6343 0.00479804 0.00278534 0.000111122
933 1 13.8645 5.26787 21.6046 -0.00813034 0.000980552 -0.00392781
934 1 15.1778 3.56683 22.879 -0.00115766 0.00566375 -0.000987355
935 1 15.1029 4.45246 21.5851 -0.00845375 0.00347809 0.00288482
936 1 16.4262 6.27565 22.9443 -0.00227123 0.00551954 -0.00452098
937 1 13.9147 6.23696 22.8407 0.00706756 -0.00622535 -0.0101241
938 1 15.1269 4.4532 24.1286 0.00230396 -0.00530347 -0.0027174
939 1 12.639 3.55226 22.9079 -0.00722463 -0.00236423 -0.0120493
940 1 13.8697 5.32429 24.119 1.85693e-05 0.00378486 0.0029669
941 1 11.4143 5.3538 24.0993 0.0100592 -0.00829514 -0.00120488
942 1 12.658 3.58099 25.3685 0.000101683 0.00257129 -0.000271381
943 1 12.6034 4.45487 24.1675 0.00345923 -0.00974488 0.00353355
944 1 13.8676 6.22053 25.426 0.00591192 0.00389588 -0.00233147
945 1 11.3847 6.22702 25.3772 -0.00748278 -0.00160411 -0.00159922
946 1 12.6279 4.44123 26.6442 -0.00399151 -0.00193386 0.00961465
947 1 10.1374 3.59081 25.4123 0.000836171 -0.00107846 -0.000283326
948 1 11.3891 5.3422 26.6783 -0.00368146 0.0051767 -0.00519832
949 1 8.84311 5.30963 26.6717 0.00163795 -0.00462502 -0.00646618
950 1 10.1848 3.56497 27.9746 -0.00451179 0.000384227 -0.00306576
951 1 10.0953 4.42626 26.6925 0.00446039 -0.0057068 -0.000269661
952 1 11.3933 6.28928 27.9146 0.00266063 0.00619896 -0.00367359
953 1 8.84693 6.25259 27.9517 -0.000193181 0.00498791 -0.00740176
954 1 10.0991 4.50197 29.2593 0.00349917 -0.00048286 -0.00795902
955 1 7.59302 3.56879 27.9479 -2.59861e-05 -0.00152519 0.000105651
956 1 8.81884 5.3916 29.1892 -0.00059346 0.00377383 -0.00587814
957 1 6.28386 5.34797 29.2071 0.00414147 -0.00540844 -0.00831615
958 1 7.58572 3.59293 30.4503 0.00351097 -0.002698 -0.00136353
959 1 7.59931 4.50978 29.1852 0.00979938 0.00134923 -7.02893e-05
960 1 8.7755 6.28622 30.4685 0.00121427 -0.00302983 -0.00805596
961 1 6.29391 6.30264 30.4538 0.00136834 0.00232122 -0.00458037
962 1 7.57381 4.53461 31.742 -0.00733879 -0.00351116 0.0038238
963 1 4.98437 3.56402 30.5289 -0.00170628 0.010568 -0.00393222
964 1 6.29063 5.34878 31.7057 -0.00110699 0.00511493 0.00643901
965 1 3.74434 5.37792 31.7846 0.0128745 -0.000879293 0.0018078
966 1 5.0208 3.62933 33.0754 -0.00496151 0.00117158 -0.00589993
967 1 5.05012 4.50749 31.7895 0.00437061 -0.00863815 -0.00503896
968 1 6.32586 6.2344 32.9863 0.00737862 0.00444462 -0.00403688
969 1 3.76122 6.28684 33.0196 0.00635415 -0.00409241 -0.00252182
970 1 5.0237 4.47663 34.346 -0.00457465 0.00337293 -0.00537415
971 1 2.51853 3.61993 32.9596 -0.00971515 -0.0024121 -0.00505522
972 1 3.72026 5.3462 34.3046 0.00248595 -0.00481825 0.00557998
973 1 1.21295 5.34563 34.2952 -0.000335056 -0.00696449 0.000896824
974 1 2.50962 3.57956 35.5144 0.00198826 0.00894186 -0.0106722
975 1 2.48664 4.48965 34.2729 -0.00498179 -0.00461936 -0.00301615
976 1 3.77409 6.19292 35.5839 -0.00702177 0.000761529 -0.00121935
977 1 1.24889 6.20349 35.5689 0.00154898 0.000503137 0.00560467
978 1 2.47737 4.4143 36.8377 0.00951446 -0.00524045 -0.00634976
979 1 20.1549 3.56775 35.6351 0.010602 0.00473093 -0.00494561
980 1 1.23668 5.31021 36.8375 -0.00331281 0.00461682 0.00637171
981 1 0.00530654 3.4254 38.0964 0.00180721 0.00367965 -0.00366013
982 1 20.1516 4.42639 36.9132 -0.00184141 0.000385533 -0.000538104
983 1 1.19021 6.3124 38.0479 -0.00111523 4.7284e-05 -0.00209304
984 1 18.9071 5.36213 21.5854 0.00440126 0.00059459 -0.0038256
985 1 18.9081 6.24042 22.8903 0.00206496 0.0011654 0.00689165
986 1 17.6861 3.54419 22.8638 0.000547812 0.00471421 0.000245618
987 1 18.8443 5.37984 24.1607 0.00604912 -0.00570683 -0.000181593
988 1 16.3848 5.35706 24.1553 -0.00586703 -0.00656497 -0.00363818
989 1 17.6426 3.59185 25.4553 -0.00502292 -0.00306312 -0.00130648
990 1 17.619 4.46024 24.1524 -0.00395067 0.00345421 -0.00496185
991 1 18.9401 6.29229 25.4282 0.00228956 0.000556124 -0.0073636
992 1 16.4267 6.2516 25.4414 0.00501126 -0.00494747 0.00161839
993 1 17.6651 4.48013 26.6921 0.0085781 -0.00820096 0.0023251
994 1 15.1429 3.54957 25.4129 -0.00207058 0.00161029 -0.00964974
995 1 16.4032 5.35536 26.6684 -0.00125684 0.00823203 -0.000952613
996 1 13.8737 5.30335 26.6753 0.00709732 0.000704602 -0.00167076
997 1 15.1683 3.60649 27.9755 0.00815899 -0.00559778 0.00209616
998 1 15.1409 4.47205 26.664 -0.0108851 0.00179349 0.00502706
999 1 16.3716 6.28198 27.9941 -1.68813e-05 -0.00472444 0.0067419
1000 1 13.8687 6.23933 27.9468 0.00268477 0.00941814 0.00453915
1001 1 15.1809 4.49285 29.2503 0.00425531 0.008836 0.00120884
1002 1 12.6171 3.56272 27.9219 -0.00163832 -0.00521068 -0.00767648
1003 1 13.8998 5.37762 29.2203 -0.00270828 -0.00209309 0.00266111
1004 1 11.3251 5.36259 29.2076 0.00178774 -0.000469141 -0.00162631
1005 1 12.6149 3.61555 30.4793 -0.00660523 -0.00408781 -0.00977143
1006 1 12.5936 4.49675 29.256 0.00141669 -0.000347769 -0.000206376
1007 1 13.9021 6.25993 30.4921 0.000375453 0.00421233 0.000745737
1008 1 11.3226 6.24409 30.4189 -0.00131561 -0.002097 0.00284768
1009 1 12.5953 4.47752 31.7448 0.0018288 -0.00544267 -0.00359297
1010 1 10.1046 3.5851 30.5107 0.00111429 0.0044582 -0.00625892
1011 1 11.3645 5.39787 31.7387 -0.00102878 -0.00432169 -0.00300535
1012 1 8.86157 5.37837 31.7177 0.00299319 0.0062971 -0.00227136
1013 1 10.0868 3.57653 32.9874 -0.00340351 -0.00216779 -0.00121866
1014 1 10.0939 4.4684 31.7066 0.00688869 -0.00624943 0.00155872
1015 1 11.3472 6.26574 33.0409 -1.09524e-05 0.000289505 -0.006055
1016 1 8.84496 6.24136 33.0926 -0.0108308 0.00693816 -0.00350226
1017 1 10.0915 4.47048 34.3188 -0.00116757 -0.00291303 0.00276485
1018 1 7.51686 3.61866 33.0291 -0.00746137 0.000750416 -0.0136755
1019 1 8.8152 5.3226 34.3249 -0.00339475 -0.0013741 -0.00295776
1020 1 6.30582 5.35429 34.2985 0.00256191 0.00168279 -0.00597353
1021 1 7.57445 3.55834 35.5743 0.00153626 0.00971936 -0.00571353
1022 1 7.47868 4.4851 34.3378 -0.00291427 -0.00170669 0.0077776
1023 1 8.80071 6.28092 35.5801 0.00618274 -0.00474199 -0.00239333
1024 1 6.30666 6.25273 35.5044 0.00273259 0.00361514 -0.00611189
1025 1 7.56051 4.48219 36.866 -0.0027396 0.00258301 -0.00189417
1026 1 4.99267 3.6149 35.573 0.0012508 0.00493985 0.00333028
1027 1 6.25281 5.34492 36.8245 0.00241814 0.00377122 -0.000391274
1028 1 3.75586 5.33612 36.8559 -0.00542735 -0.000876572 -0.00188327
1029 1 5.03433 3.53602 37.9813 0.00780536 0.00677689 0.000874619
1030 1 5.04152 4.47631 36.8662 -0.00788898 0.00486681 -0.00923316
1031 1 6.24862 6.31538 38.0049 0.00622624 -0.000124197 -0.00217288
1032 1 3.69711 6.25517 37.9653 -0.00443945 0.00256678 0.00527957
1033 1 2.49633 3.4689 38.0155 0.00485888 -0.000310539 -0.000152402
1034 1 18.9414 5.37606 26.759 0.0022364 0.00375247 -0.00163349
1035 1 18.898 6.2305 28.0092 0.00198178 -0.00398085 0.000106289
1036 1 17.6849 3.57219 27.9578 0.000681789 0.00354141 0.00310876
1037 1 18.8418 5.30997 29.1982 0.00315856 0.000516409 0.00233813
1038 1 16.3801 5.34852 29.2612 0.00121774 0.000151056 -0.00413306
1039 1 17.6675 3.53693 30.4962 0.000187389 0.00755751 0.00237085
1040 1 17.6587 4.42638 29.1815 0.00112058 0.00233746 0.00508495
1041 1 18.8769 6.20727 30.5534 -0.00346665 -0.0103434 0.00433942
1042 1 16.3725 6.23022 30.5289 0.00295861 -0.00434904 -0.00639966
1043 1 17.7015 4.39354 31.7512 -0.000436229 -0.00344523 0.00663312
1044 1 15.1348 3.59009 30.5137 -0.000477271 0.000623883 0.00876693
1045 1 16.4321 5.29503 31.7744 -0.00023372 0.0104511 -0.00350801
1046 1 13.8877 5.3863 31.7649 -0.00125646 -0.00881974 -0.00629149
1047 1 15.1195 3.5713 33.0589 0.00323295 -0.001392 -0.00698647
1048 1 15.1237 4.44859 31.7844 -0.000628447 -0.00132371 0.000878192
1049 1 16.3916 6.18772 33.0147 0.00738382 -0.000998083 -0.00620656
1050 1 13.885 6.27468 32.9834 -0.00282989 0.00923465 -0.00452045
1051 1 15.073 4.46817 34.2997 0.0107596 -0.00477251 -0.00664744
1052 1 12.622 3.56054 32.9889 0.000518315 0.00315267 -0.00185454
1053 1 13.862 5.35253 34.3031 -0.00309103 -0.00940721 0.00428853
1054 1 11.2962 5.35088 34.2991 -0.00224836 -0.00436885 0.00251428
1055 1 12.6259 3.56296 35.4886 -0.00163337 0.00379698 0.00443977
1056 1 12.6045 4.52076 34.2837 -0.000913573 0.0015001 0.000737728
1057 1 13.8407 6.29942 35.551 -0.00073247 0.00112011 -0.00874729
1058 1 11.2919 6.27353 35.4975 0.000946659 -0.00157815 0.00593159
1059 1 12.5679 4.45607 36.7754 0.00741735 0.00259224 -0.0115022
1060 1 10.0813 3.60016 35.598 -0.00859644 -0.00232556 -0.00181383
1061 1 11.3359 5.31597 36.7724 0.000839829 0.00668731 0.00210754
1062 1 8.83033 5.33124 36.8643 -0.00493644 -0.00253336 0.00176783
1063 1 10.0481 3.40121 38.0332 -0.0017374 -0.00304212 -0.00148794
1064 1 10.0689 4.38744 36.8611 -0.00563031 0.000880188 -0.00640311
1065 1 11.3512 6.34149 37.9398 -0.0106565 0.00249794 0.0095391
1066 1 8.83545 6.29229 37.9686 -0.00163304 0.0010307 0.000891659
1067 1 7.51065 3.4692 38.0222 0.00542382 0.00260751 0.00343289
1068 1 18.8851 5.38853 31.7942 0.0018924 -0.00441571 -0.000195347
1069 1 18.8919 6.24102 33.0592 0.00453631 0.00058869 -0.00975088
1070 1 17.6584 3.56735 33.0747 0.000460521 0.00403186 -0.00381784
1071 1 18.915 5.38292 34.3824 -0.00353192 0.00553241 -0.00926955
1072 1 16.3973 5.36534 34.2564 0.00377443 0.00978388 0.00128552
1073 1 17.6689 3.5516 35.6072 -0.000947619 -0.00152203 -0.00568763
1074 1 17.6751 4.45688 34.3484 -0.00250284 -0.00651906 0.00236733
1075 1 18.9429 6.22657 35.6124 0.00324326 -0.00645116 -0.00823247
1076 1 16.3812 6.23118 35.5505 -0.00366045 -0.00486729 0.00308161
1077 1 17.6869 4.41221 36.9358 0.000172959 0.00262855 0.0036852
1078 1 15.0882 3.5649 35.5297 -0.00635535 0.00468203 0.000372234
1079 1 16.3479 5.27862 36.8467 0.0114143 0.00506822 -0.00885783
1080 1 13.8257 5.37977 36.8605 0.00219347 0.00111596 -0.00249134
1081 1 15.1173 3.40802 37.9641 0.00852096 -0.00509774 0.00205049
1082 1 15.1129 4.41242 36.864 -0.00396791 -0.00085184 0.000540827
1083 1 16.3382 6.31723 37.9297 0.00354801 -0.0126456 -0.00285431
1084 1 13.8421 6.3829 37.9823 -0.00670605 0.00234179 0.00544377
1085 1 12.5635 3.44516 37.9909 -0.0131801 0.000403902 -0.000275881
1086 1 18.8942 5.29245 36.9602 -0.00487602 0.00157082 -0.00822932
1087 1 18.8769 6.31931 38.0706 -0.0027601 -0.00509994 0.000741713
1088 1 17.7121 3.30243 37.9676 -0.0058545 -0.000538481 0.00722974
1089 1 2.52111 8.02212 -3.78166 0 0 0
1090 1 1.26055 8.91347 -3.78166 0 0 0
1091 1 0 7.13077 -2.52111 0 0 0
1092 1 0 8.02212 -3.78166 0 0 0
1093 1 1.26055 9.80481 -2.52111 0 0 0
1094 1 0 8.02212 -1.26055 0 0 0
1095 1 7.56333 8.02212 -3.78166 0 0 0
1096 1 6.30277 8.91347 -3.78166 0 0 0
1097 1 3.78166 8.91347 -3.78166 0 0 0
1098 1 5.04222 7.13077 -2.52111 0 0 0
1099 1 5.04222 8.02212 -3.78166 0 0 0
1100 1 6.30277 9.80481 -2.52111 0 0 0
1101 1 3.78166 9.80481 -2.52111 0 0 0
1102 1 5.04222 8.02212 -1.26055 0 0 0
1103 1 2.52111 7.13077 -2.52111 0 0 0
1104 1 3.78166 8.91347 -1.26055 0 0 0
1105 1 1.26055 8.91347 -1.26055 0 0 0
1106 1 2.55277 7.09276 0.00777053 -0.00974131 -0.0053166 0.00320071
1107 1 2.52111 8.02212 -1.26055 0 0 0
1108 1 3.79626 9.8024 0.014215 -0.0018146 -0.00984905 -0.00524112
1109 1 1.30045 9.84812 -0.021237 -0.0054355 -0.00369984 -0.00312994
1110 1 2.58256 8.05143 1.23998 -0.00213038 0.000119307 0.00405445
1111 1 0.0257228 7.1402 -0.00309212 -0.00536697 0.00206388 -0.00283463
1112 1 1.3326 8.90277 1.26333 0.00310932 -0.0027914 -0.0022064
1113 1 0.0613099 7.15233 2.56931 0.000955507 0.00207969 -0.00268406
1114 1 0.0230108 8.0054 1.26374 0.0030385 0.0075236 -0.00937169
1115 1 1.26541 9.77212 2.50965 -0.00079143 -0.0033262 0.00195794
1116 1 0.0191564 8.05719 3.82815 -0.00371451 0.00464662 -0.00568958
1117 1 12.6055 8.02212 -3.78166 0 0 0
1118 1 11.345 8.91347 -3.78166 0 0 0
1119 1 8.82388 8.91347 -3.78166 0 0 0
1120 1 10.0844 7.13077 -2.52111 0 0 0
1121 1 10.0844 8.02212 -3.78166 0 0 0
1122 1 11.345 9.80481 -2.52111 0 0 0
1123 1 8.82388 9.80481 -2.52111 0 0 0
1124 1 10.0844 8.02212 -1.26055 0 0 0
1125 1 7.56333 7.13077 -2.52111 0 0 0
1126 1 8.82388 8.91347 -1.26055 0 0 0
1127 1 6.30277 8.91347 -1.26055 0 0 0
1128 1 7.57268 7.14515 0.00662946 -0.000928599 0.00514654 0.000664054
1129 1 7.56333 8.02212 -1.26055 0 0 0
1130 1 8.80109 9.80948 0.0212087 -0.000547175 0.00604804 0.00122273
1131 1 6.32718 9.83458 0.00512177 -0.00497597 0.00120362 -0.00296192
1132 1 7.58986 8.00878 1.2704 0.0038785 0.0034662 0.00728006
1133 1 5.09943 7.13352 0.0232138 0.00935985 0.0032197 -0.00114329
1134 1 6.31424 8.96136 1.24557 -0.00336173 0.00335974 0.00592106
1135 1 3.84204 8.94388 1.25795 0.00467508 0.00867015 -0.000555089
1136 1 5.01925 7.1501 2.51835 0.00521685 6.23895e-05 0.000554913
1137 1 5.06094 8.03956 1.25182 0.0016491 0.00626363 0.00225211
1138 1 6.31733 9.84492 2.55651 0.00200073 0.00844969 -0.00336751
1139 1 3.79398 9.84644 2.57248 -0.0106563 -0.00342764 0.00220682
1140 1 5.02358 8.02778 3.75853 0.0035051 -0.0034763 -0.00633539
1141 1 2.59516 7.1436 2.58585 0.00495891 -0.00774446 -0.00812554
1142 1 3.79303 8.91752 3.81991 0.00456964 0.000598665 -0.00192477
1143 1 1.26468 8.91361 3.79467 0.00307557 -0.00110859 -0.00297659
1144 1 2.56242 7.10861 5.14931 0.0108244 -0.00243573 0.0087013
1145 1 2.50873 8.01343 3.9064 -0.00305957 0.00539484 -0.0071571
1146 1 3.80569 9.79247 5.10113 -0.00133827 0.00090595 0.000644355
1147 1 1.34318 9.78344 5.13424 -0.00279263 0.00258277 0.00568594
1148 1 2.52212 8.01729 6.4428 0.00323571 0.00113017 0.00183517
1149 1 20.1603 7.1194 5.07542 0.00724616 -0.00136119 -0.00554281
1150 1 1.21547 8.86836 6.37308 -0.00220949 0.00141449 0.00280279
1151 1 20.14 7.10806 7.59444 -0.00194306 0.00181237 -0.0112349
1152 1 20.136 8.03586 6.3417 0.000443386 0.000514246 -0.00130835
1153 1 1.21206 9.77609 7.62707 0.00855504 -0.0107464 0.00390598
1154 1 20.1294 8.02565 8.88602 -0.000617399 0.00123813 0.000726534
1155 1 17.6478 8.02212 -3.78166 0 0 0
1156 1 16.3872 8.91347 -3.78166 0 0 0
1157 1 13.8661 8.91347 -3.78166 0 0 0
1158 1 15.1267 7.13077 -2.52111 0 0 0
1159 1 15.1267 8.02212 -3.78166 0 0 0
1160 1 16.3872 9.80481 -2.52111 0 0 0
1161 1 13.8661 9.80481 -2.52111 0 0 0
1162 1 15.1267 8.02212 -1.26055 0 0 0
1163 1 12.6055 7.13077 -2.52111 0 0 0
1164 1 13.8661 8.91347 -1.26055 0 0 0
1165 1 11.345 8.91347 -1.26055 0 0 0
1166 1 12.6034 7.13837 -0.002658 -0.00708568 0.000637115 0.00104167
1167 1 12.6055 8.02212 -1.26055 0 0 0
1168 1 13.841 9.80657 0.0187379 0.00661351 -0.00148428 0.00410645
1169 1 11.3893 9.75977 0.0405565 -0.00123671 0.00730432 0.00228182
1170 1 12.6089 7.9857 1.32048 0.0024936 -0.00623347 -0.00105318
1171 1 10.128 7.12486 0.0195511 -0.00122364 -0.00443349 -0.00368594
1172 1 11.3233 8.92419 1.34329 0.00855855 0.0082139 1.56491e-05
1173 1 8.82366 8.87672 1.2946 0.000717564 -0.0106959 0.00431891
1174 1 10.1529 7.09581 2.5367 0.00296979 -0.00273674 -0.00618902
1175 1 10.1087 7.99569 1.29237 0.00363511 -0.00150422 0.0116563
1176 1 11.3792 9.84581 2.56672 0.00983579 -0.00160331 0.00403953
1177 1 8.84973 9.7847 2.55067 -0.00433266 -0.00957982 -0.000888294
1178 1 10.1601 8.04347 3.79909 0.000123219 -0.00598436 -0.00118428
1179 1 7.58435 7.18918 2.52993 0.00293359 0.00647888 0.00203549
1180 1 8.89166 8.90571 3.84192 -0.00805839 0.00628879 0.0104358
1181 1 6.34005 8.99881 3.7555 0.00838861 -0.00210662 0.00326038
1182 1 7.56844 7.15078 5.02961 -0.00462416 0.00459494 -0.0131133
1183 1 7.59289 8.08764 3.74137 -0.00420349 0.000135744 -0.000792101
1184 1 8.86771 9.76864 5.0724 0.00547421 -0.00440244 0.00195271
1185 1 6.3219 9.82267 5.06519 -0.00829755 0.00343212 0.00983474
1186 1 7.59505 8.03199 6.36395 -0.00337287 0.00409577 0.00188825
1187 1 5.07487 7.15637 5.07227 0.0124373 -0.00376782 -0.00476667
1188 1 6.34389 8.89853 6.36253 -0.00184231 -0.00026003 -0.00180397
1189 1 3.78151 8.93846 6.39933 0.00474705 0.00355466 0.00281503
1190 1 5.08342 7.17093 7.61629 0.00408531 -0.00630741 0.0080297
1191 1 5.09472 8.07096 6.38134 0.000396162 -0.00405733 -0.00431126
1192 1 6.28593 9.80306 7.64215 -0.00128427 0.00182695 0.00473898
1193 1 3.81164 9.82069 7.63984 -0.00663999 -0.00452095 0.00182976
1194 1 5.03931 8.00141 8.87011 -0.00417505 -0.00340411 0.00581291
1195 1 2.50188 7.11053 7.67456 0.00244846 0.00404117 0.00352182
1196 1 3.80139 8.92797 8.91282 0.000374457 -0.000690058 -0.0018904
1197 1 1.25381 8.91905 8.93476 -0.000140545 0.00545314 0.00327501
1198 1 2.5242 7.12938 10.1613 -0.00378617 1.80416e-05 0.00572752
1199 1 2.52412 7.99177 8.93156 -0.000354774 -0.000178038 0.00374044
1200 1 3.7801 9.78054 10.1296 -0.00370964 0.00183565 0.00208602
1201 1 1.2742 9.89595 10.1845 -0.00967225 0.000943722 -0.00876786
1202 1 2.49074 8.01265 11.4945 -0.00103206 -0.00849283 0.00609375
1203 1 20.1336 7.1167 10.1495 -0.00219907 0.0031641 0.00476681
1204 1 1.28463 8.91363 11.4328 0.00966111 0.0041562 0.00447815
1205 1 0.0107535 7.11471 12.7178 0.00369698 0.00358071 0.00110864
1206 1 0.00539781 8.01092 11.4786 -0.000662738 0.00837034 -0.00891482
1207 1 1.2697 9.76724 12.7054 -0.00169129 -0.00327798 0.00339826
1208 1 20.1669 7.98397 13.9739 0.0020903 -0.00993462 0.00148399
1209 1 18.9083 8.91347 -3.78166 0 0 0
1210 1 18.9083 9.80481 -2.52111 0 0 0
1211 1 17.6478 7.13077 -2.52111 0 0 0
1212 1 18.9083 8.91347 -1.26055 0 0 0
1213 1 16.3872 8.91347 -1.26055 0 0 0
1214 1 17.6421 7.10509 -0.013689 -0.00248326 0.00154357 -0.00196875
1215 1 17.6478 8.02212 -1.26055 0 0 0
1216 1 18.9276 9.82636 0.0218906 0.00211295 0.00858322 -0.00193258
1217 1 16.416 9.84139 -0.0440779 0.00183489 -0.00374446 0.000380552
1218 1 17.6432 8.02597 1.25606 0.00104103 0.00240957 -0.00199665
1219 1 15.1171 7.17582 0.00594024 0.00544752 -0.00251576 0.00487651
1220 1 16.3967 8.91399 1.25424 0.00597169 0.0013715 0.00262807
1221 1 13.8337 8.94015 1.28692 -0.0129722 0.00246801 -0.00214552
1222 1 15.1477 7.18897 2.50208 0.00102251 -0.00176865 0.0081208
1223 1 15.1207 8.0513 1.24876 0.00320187 -0.00814773 -0.00110926
1224 1 16.3642 9.82522 2.52073 0.00615544 0.000995719 0.00299455
1225 1 13.8925 9.80798 2.62215 0.000534585 0.00281161 -0.00143704
1226 1 15.1294 8.04689 3.82031 -0.00149315 0.00614991 -0.00284054
1227 1 12.5885 7.11837 2.498 -0.00719037 -0.00742032 0.00483926
1228 1 13.8715 8.98171 3.85006 -0.00165768 0.00221829 0.00920165
1229 1 11.3709 8.89423 3.78327 -0.00341708 0.00387524 -0.0104769
1230 1 12.585 7.14767 5.04217 -0.00136996 -0.00118368 -0.00299498
1231 1 12.6204 7.98773 3.76948 -0.0075879 -0.00341683 -0.00229919
1232 1 13.8597 9.87305 5.10161 -0.00743693 -0.000998336 0.00148326
1233 1 11.3627 9.86663 5.12651 -0.00530095 0.00382552 -0.000114188
1234 1 12.6171 8.07542 6.3859 0.00582445 -0.000663309 0.00318088
1235 1 10.055 7.12181 5.13855 -0.00280732 0.000240823 -0.00613582
1236 1 11.358 8.9299 6.38314 -0.00293523 -0.00130456 -0.00190181
1237 1 8.84996 8.95075 6.33021 -0.00632256 0.00205074 -0.00593379
1238 1 10.1266 7.10882 7.65986 -0.0062709 -0.00411575 0.00501085
1239 1 10.1358 8.03881 6.38664 -0.00286308 0.0102553 -0.00440593
1240 1 11.3655 9.8287 7.6744 0.00736805 -0.00919582 0.00555024
1241 1 8.84577 9.79052 7.66599 -0.00748383 -0.000991113 -0.00505648
1242 1 10.0655 8.07045 8.92271 -0.00426286 -0.00189521 -0.00492774
1243 1 7.60632 7.11143 7.6579 -0.00327755 0.000833822 0.00152103
1244 1 8.82774 8.93487 8.98617 0.000456238 0.0033857 -0.00289457
1245 1 6.34539 8.88432 8.92187 -0.0074996 0.000235707 -0.00182195
1246 1 7.60449 7.12279 10.2091 -0.0027299 -0.00310867 -0.0054116
1247 1 7.59505 7.99781 8.93374 0.00608194 -0.00267815 -0.00436036
1248 1 8.82946 9.79609 10.2118 0.00449256 -1.40124e-05 -0.00169085
1249 1 6.27477 9.75038 10.2202 0.00274257 -0.0116644 -0.00332873
1250 1 7.55849 7.99146 11.452 -0.00394769 -0.000288392 0.00070458
1251 1 5.06317 7.11962 10.1961 0.00550493 -0.0016471 -0.0105512
1252 1 6.33548 8.88924 11.4809 -0.000321354 0.002195 -0.00108909
1253 1 3.70832 8.87202 11.4228 0.00646887 -0.000725317 -0.00179773
1254 1 5.00756 7.11121 12.7277 -0.00375054 -0.0047666 6.48632e-05
1255 1 5.0001 8.02072 11.4186 0.00387299 -0.00428722 0.000492188
1256 1 6.34131 9.80126 12.7513 0.00533796 0.00569874 0.00105097
1257 1 3.79082 9.81635 12.6834 -0.00267171 -0.00623779 -0.00961265
1258 1 5.01229 8.07577 14.0103 0.00136978 0.00343736 0.00145259
1259 1 2.53819 7.15812 12.746 -0.000286514 -0.00155593 -0.00577462
1260 1 3.79373 8.96678 13.9548 0.00622705 0.0108342 0.00906008
1261 1 1.21251 8.91939 13.9838 -0.00618167 -0.00777106 2.93726e-05
1262 1 2.58453 7.18832 15.2474 -0.00276036 -0.00147526 -0.00351158
1263 1 2.54059 8.06584 13.9554 0.00434592 0.0061515 -0.00655731
1264 1 3.78912 9.83537 15.2567 0.00574208 -0.00109236 -0.00121808
1265 1 1.24565 9.797 15.3086 -0.00474679 -0.0132251 0.00560045
1266 1 2.51588 8.00937 16.567 -0.00437015 -0.00267268 -0.00149552
1267 1 0.0323896 7.14399 15.2718 -0.0061874 0.000897464 0.00117359
1268 1 1.30704 8.92552 16.5334 0.00300749 0.00810887 -0.00161079
1269 1 0.0940296 7.15733 17.8778 -0.00142685 0.00113772 -0.000943018
1270 1 0.0676541 8.01383 16.5698 0.00549674 -0.00147574 0.000962888
1271 1 1.30267 9.84384 17.873 0.00503269 -0.00604083 -0.00389584
1272 1 0.011286 8.00934 19.0922 0.00158971 -0.00124021 -0.00194915
1273 1 18.9368 8.93342 1.26033 0.00286339 -0.00957303 0.00211208
1274 1 18.9266 9.82914 2.53286 -0.00985105 0.00684763 -0.000310494
1275 1 17.6557 7.1566 2.56554 0.00158178 -4.6695e-05 -0.00128053
1276 1 18.8945 8.95657 3.8109 0.00122918 0.00560115 -0.00565903
1277 1 16.3446 8.94449 3.79674 -0.00169836 -0.00169383 -0.00994318
1278 1 17.5856 7.16473 5.0779 0.000984411 -0.00025523 0.00132886
1279 1 17.6229 8.09412 3.82681 -0.00176815 0.000352609 0.00358494
1280 1 18.9204 9.82389 5.09689 -0.00208459 -0.00380689 0.00447179
1281 1 16.3941 9.85624 5.12791 0.00421508 0.00330946 -0.00728644
1282 1 17.6496 8.04358 6.39163 0.00321421 -0.00127062 -0.000472198
1283 1 15.0916 7.17827 5.09782 -0.00147943 0.00322406 0.0132391
1284 1 16.3387 8.91367 6.36427 0.00250816 0.0075648 -0.00349012
1285 1 13.8027 8.93513 6.40142 0.00263929 -0.00869171 -0.000561747
1286 1 15.078 7.15149 7.64722 0.000558411 0.00250247 0.00581984
1287 1 15.0816 8.03633 6.35359 0.00167882 -0.00141156 0.00237186
1288 1 16.3706 9.77118 7.64898 0.00368581 -0.00739165 -0.00185815
1289 1 13.8473 9.84233 7.62302 0.00913709 0.00843278 0.00656146
1290 1 15.0781 8.07835 8.93569 -8.91746e-05 -0.00395961 0.00223008
1291 1 12.6149 7.1551 7.65083 0.000461224 0.00404146 -0.00364699
1292 1 13.8252 8.99199 8.93787 -0.00169677 0.00890957 -0.00446952
1293 1 11.3501 8.91496 8.97598 -0.0117716 -0.00254306 -0.00433137
1294 1 12.6129 7.11484 10.1361 0.00668688 0.00318445 -0.000463452
1295 1 12.6098 7.99925 8.93458 0.00192795 -0.00153388 0.00359084
1296 1 13.8807 9.83798 10.1951 -0.00044758 -0.0028647 -0.00124713
1297 1 11.3791 9.83142 10.1884 -0.00281494 0.00293021 -0.00433808
1298 1 12.6157 7.98795 11.5081 0.00267114 -0.00172022 0.00295653
1299 1 10.0968 7.14039 10.2035 0.00157691 -0.000799531 0.0047422
1300 1 11.3851 8.91746 11.4379 0.000124814 -0.00185465 0.00238596
1301 1 8.8425 8.95047 11.4779 0.00239465 -0.00480067 -0.0040787
1302 1 10.0673 7.10007 12.749 -0.00430753 -0.00467741 -4.58697e-05
1303 1 10.1054 8.04385 11.4758 -0.000764612 0.0011411 -0.00206197
1304 1 11.3622 9.82067 12.7831 0.00628253 0.00135231 -0.00437819
1305 1 8.83761 9.8011 12.7386 -0.00538644 0.00421108 0.00741209
1306 1 10.0792 8.03315 14.0042 -0.00244867 0.000162142 0.000381974
1307 1 7.58446 7.11853 12.7258 -0.00143521 -0.00408683 -0.00610982
1308 1 8.83456 8.96211 14.0161 -0.00516052 -0.00431744 0.00630657
1309 1 6.3138 8.98277 13.9986 -0.00497916 -0.00483672 -0.000129165
1310 1 7.59569 7.1338 15.2738 -0.00321603 0.00162218 -0.000489197
1311 1 7.58362 8.06517 13.9768 -0.00312233 0.00610969 -0.00589147
1312 1 8.85755 9.88217 15.3412 0.00159511 0.00538613 -0.000424346
1313 1 6.33282 9.83036 15.2851 0.00542678 -0.001769 0.00704759
1314 1 7.62442 8.0664 16.5507 0.00340615 0.00704499 0.00466028
1315 1 5.03364 7.1619 15.2421 8.64989e-05 0.00681576 -0.00579597
1316 1 6.30299 8.91773 16.5345 0.000903278 0.00339383 -0.00334062
1317 1 3.81553 8.89085 16.5907 -0.00366754 0.000583292 -0.00242147
1318 1 5.00795 7.13957 17.8037 -8.85665e-06 0.00254804 0.00155202
1319 1 5.02068 8.0608 16.5629 0.0049226 0.0086205 0.00762159
1320 1 6.3166 9.85705 17.7741 0.00263438 0.0111825 -0.00412783
1321 1 3.81859 9.79806 17.842 -0.00133126 0.000366565 -0.00370309
1322 1 5.06057 8.01247 19.0953 0.00107662 -0.00771596 0.00459222
1323 1 2.52985 7.14914 17.8056 -0.00395183 0.00969256 0.0116359
1324 1 3.80958 8.92341 19.0749 -0.00608193 0.00198775 -0.00240312
1325 1 1.30149 8.94548 19.1356 -0.00104339 -0.00284167 0.00118217
1326 1 2.5428 7.13455 20.3575 -0.00805353 -0.00575016 -0.00794411
1327 1 2.4825 8.03765 19.107 -0.00118488 0.000866549 -0.00297771
1328 1 3.87266 9.87406 20.3472 0.00984757 0.0044586 -0.000443919
1329 1 1.30853 9.78063 20.3838 0.00232239 -0.00830691 0.00285984
1330 1 2.55261 8.0331 21.6367 0.0020673 -0.000848189 -0.00518045
1331 1 0.0797699 7.17375 20.4047 0.000500892 -0.00043216 -0.0111745
1332 1 1.33307 8.91852 21.6494 -0.00626871 0.0046887 -0.00779334
1333 1 0.0367664 7.16051 22.9457 -0.00289794 -0.00246443 0.0024996
1334 1 0.0518874 8.06809 21.6545 -0.00355676 -0.00145661 -0.000601806
1335 1 1.34079 9.84137 22.939 0.00150156 0.00138034 0.00626364
1336 1 0.0350992 8.06881 24.2128 0.00129329 -0.00504593 -0.00465947
1337 1 18.8635 8.94174 6.3768 0.00306176 -0.000705844 0.00558294
1338 1 18.8595 9.82772 7.65871 0.00889029 0.0077287 -0.00325059
1339 1 17.654 7.19566 7.63968 -0.00283325 0.00921628 0.00891429
1340 1 18.8792 8.8821 8.90238 -0.000175562 -0.000748477 -0.00285052
1341 1 16.392 8.90097 8.94115 -0.000298849 -0.003622 -0.00248395
1342 1 17.6646 7.1425 10.218 0.000353527 0.00360637 -0.00320156
1343 1 17.6437 7.99618 8.9264 0.00513967 -0.00553881 0.005175
1344 1 18.881 9.80277 10.1331 0.00426705 0.00396346 -0.00406166
1345 1 16.3367 9.78932 10.1962 0.00259289 -0.000536256 0.00528125
1346 1 17.656 8.05256 11.4277 -0.00309147 0.00594942 -0.00591982
1347 1 15.1484 7.13664 10.1811 -0.00209171 0.000222145 -0.00474489
1348 1 16.357 8.91483 11.4504 -0.0036307 -0.00113527 -0.00200311
1349 1 13.9226 8.86575 11.4445 0.00101715 0.000840722 -0.00117387
1350 1 15.1603 7.09234 12.7072 0.00205455 -0.00300315 -0.00444989
1351 1 15.1248 7.99987 11.4445 -0.000997328 -0.0132005 -0.00510453
1352 1 16.3682 9.82637 12.7237 -0.00456815 -0.00723611 -0.0096482
1353 1 13.8766 9.80099 12.7056 0.00119014 0.00129145 -0.00331226
1354 1 15.1311 8.01717 13.9528 -0.00611245 -0.00458838 -7.5414e-05
1355 1 12.576 7.12044 12.7494 0.00151161 -0.00439863 0.0069861
1356 1 13.8592 8.89173 13.9765 -0.00620142 -0.00144005 0.00402886
1357 1 11.3779 8.92749 14.0665 -0.00111982 -0.000399816 -0.000463798
1358 1 12.5906 7.12796 15.2536 0.00335957 0.00648605 -0.00297622
1359 1 12.6123 8.04865 13.9481 -0.000418427 -0.00611366 -0.000221166
1360 1 13.8366 9.8034 15.294 0.00182812 -0.0100266 0.00959477
1361 1 11.403 9.83166 15.2732 0.0062988 -0.00396835 0.000105931
1362 1 12.6591 8.01454 16.5415 0.00481364 -0.00210345 0.00846269
1363 1 10.1283 7.17765 15.2604 -0.00116164 0.00379247 -0.000714689
1364 1 11.4236 8.87317 16.5564 0.00385881 -0.00387275 -0.00328457
1365 1 8.83553 8.9808 16.5334 -0.00255838 -0.00111217 -0.00774904
1366 1 10.1087 7.19734 17.751 0.00247815 0.00207108 0.00482784
1367 1 10.0758 8.03857 16.5099 0.00417983 -0.00327863 -0.00633783
1368 1 11.3935 9.88052 17.74 0.000709426 -1.49088e-05 -5.02053e-05
1369 1 8.86768 9.85831 17.737 -0.000423351 -0.00394408 0.000704846
1370 1 10.0743 7.99027 19.0304 0.00278772 0.00172978 0.00719766
1371 1 7.51985 7.14703 17.7717 0.00366993 0.00699711 0.00418499
1372 1 8.87902 8.93461 18.9958 -0.00872567 0.00265033 -0.000125868
1373 1 6.29315 8.8746 19.0739 0.00275148 -0.00530251 0.0078207
1374 1 7.60946 7.15148 20.3371 -0.00664726 0.0101686 0.00230484
1375 1 7.57216 8.0412 19.0783 -0.00433234 -0.00187594 0.000606317
1376 1 8.87944 9.78774 20.2779 -0.00812284 0.00357823 -0.00160823
1377 1 6.37681 9.85746 20.3287 -0.00657175 -0.00464562 -0.00441686
1378 1 7.61008 8.0363 21.617 -0.00423574 0.0021888 -0.00078637
1379 1 5.04775 7.16371 20.3571 -0.000943946 -0.00340131 -0.00167841
1380 1 6.41746 8.92704 21.626 -0.0096874 0.000491035 -0.00519095
1381 1 3.85286 8.94565 21.6349 0.0117348 -0.00288629 0.0016534
1382 1 5.0663 7.1481 22.9001 -0.00230918 0.00332157 -0.00980405
1383 1 5.12189 8.07208 21.6587 0.00339256 -0.00340111 0.000811976
1384 1 6.37467 9.8275 22.9158 0.00603846 0.00587581 -0.00277803
1385 1 3.84618 9.78714 22.9132 0.00295679 0.000422915 0.0039144
1386 1 5.10046 8.06092 24.1722 0.00207328 0.000367063 -0.00855777
1387 1 2.59104 7.18816 22.9256 -0.00272946 -0.00541276 -0.00618441
1388 1 3.78455 8.92348 24.1588 -0.00686086 -0.0137164 0.00378086
1389 1 1.25286 8.98362 24.1722 -0.00239679 -0.00874275 -0.0101094
1390 1 2.47023 7.13234 25.3989 0.00878303 6.23501e-05 -0.00468793
1391 1 2.54729 8.08179 24.1657 0.00116916 0.00106112 -0.00402757
1392 1 3.79722 9.80988 25.4267 0.0056388 0.00969585 -0.0103439
1393 1 1.23985 9.84289 25.4993 -0.00649529 0.00215388 0.00566626
1394 1 2.5259 8.06851 26.6552 0.000604314 0.00837077 -0.00222747
1395 1 20.1648 7.17455 25.4877 -0.00329837 -0.00341097 0.00171342
1396 1 1.25342 8.96289 26.6889 -0.000693077 0.0047445 -0.00108252
1397 1 20.1602 7.13775 28.012 -0.00116044 0.00980469 0.00447509
1398 1 0.00504351 8.083 26.7018 0.00906115 0.00885294 -0.0071013
1399 1 1.20543 9.78887 28.0172 0.00501411 0.00494521 0.00110545
1400 1 20.1529 8.0072 29.2617 -0.000644186 0.000180416 -0.00262422
1401 1 18.8811 8.94532 11.4233 -0.00074824 0.00167889 0.00887757
1402 1 18.8469 9.79327 12.6895 0.00295783 0.00135726 0.00213261
1403 1 17.6179 7.12001 12.6985 0.00306232 -0.00256432 -0.00641931
1404 1 18.8865 8.82577 14.0033 0.00296173 -0.00183493 -0.00462433
1405 1 16.3733 8.91041 14.0062 0.00214359 0.00148767 0.00760828
1406 1 17.6656 7.10641 15.2704 -0.000143518 -0.00405575 -0.00184255
1407 1 17.5914 8.02159 13.978 0.000115085 0.00835215 0.00125946
1408 1 18.8857 9.78227 15.295 0.00199818 -0.00476533 0.00416539
1409 1 16.3367 9.83734 15.2337 -0.00129887 -0.00103472 -0.00314745
1410 1 17.6754 7.98214 16.5591 0.0031108 -0.000861156 0.00132668
1411 1 15.0842 7.15915 15.2616 0.00223468 -0.00412842 0.00160023
1412 1 16.4045 8.91783 16.5136 -0.00250126 -0.00455178 0.00421836
1413 1 13.9131 8.88544 16.5413 -0.00669513 0.00226039 -0.000782504
1414 1 15.1357 7.16912 17.8153 0.00548944 -0.00823523 -0.00476753
1415 1 15.1473 8.0186 16.5062 -0.0117791 -0.000496841 -0.00431118
1416 1 16.4123 9.8069 17.7789 -0.00700049 -0.000125411 -0.00348968
1417 1 13.9094 9.81277 17.8233 0.00864157 0.00269513 0.0044342
1418 1 15.1572 8.00878 19.0916 -0.00309657 -0.00284149 0.00212629
1419 1 12.6499 7.1024 17.811 -0.00473373 0.00374488 -0.00506347
1420 1 13.8975 8.96268 19.088 0.00527477 -0.000162469 -0.00347603
1421 1 11.3763 8.92355 19.0378 -0.00282576 -0.00370023 -0.0025896
1422 1 12.6581 7.13127 20.3455 0.00441927 0.00634162 0.00467202
1423 1 12.6496 8.02115 19.0329 -0.00325819 0.00179528 -0.00128379
1424 1 13.9093 9.82259 20.329 -0.00663049 0.00105303 0.00243246
1425 1 11.4518 9.73243 20.3019 0.000907538 -0.00365323 -0.00687042
1426 1 12.6224 8.0185 21.6228 -0.00708716 0.00190434 0.00222623
1427 1 10.0888 7.09594 20.3183 -0.00582371 -0.000523127 -0.00122221
1428 1 11.408 8.89956 21.5646 0.00640636 -0.00526021 0.0085043
1429 1 8.87546 8.90912 21.6174 0.00110259 0.00550553 0.00114151
1430 1 10.0799 7.15932 22.9091 0.000862942 0.00325354 -0.00393654
1431 1 10.1465 8.04457 21.6181 -0.000971205 -0.00384667 0.00553714
1432 1 11.3846 9.80994 22.8543 -0.00389071 0.000924144 -0.00670363
1433 1 8.8343 9.79373 22.8991 -0.0050422 -0.00804077 -0.00451562
1434 1 10.0546 8.01559 24.1307 0.00372348 -0.00296066 -0.0128866
1435 1 7.57827 7.14639 22.881 -0.00590819 0.00298332 -0.00133679
1436 1 8.84133 8.90073 24.1595 -0.00368694 0.000617399 -0.000113659
1437 1 6.32525 8.93465 24.1533 -0.00693492 -0.00946379 -0.0028594
1438 1 7.5634 7.15679 25.468 -0.0109807 0.0142223 0.00627289
1439 1 7.56231 7.97762 24.1535 -0.0067324 0.00891617 0.00225039
1440 1 8.82671 9.79146 25.3982 -0.000445611 0.00261429 -0.000842674
1441 1 6.32898 9.82733 25.4547 0.00290576 -7.01954e-05 -0.00969473
1442 1 7.62239 8.04982 26.6963 0.00610296 -0.00954622 0.00269745
1443 1 5.06905 7.15324 25.4211 0.00172714 -0.00663437 0.000444225
1444 1 6.34306 8.94025 26.7436 -6.14097e-05 0.000388671 -0.00300561
1445 1 3.80779 8.91428 26.7054 0.000603761 -0.00516406 0.00285456
1446 1 5.08558 7.12018 27.992 -0.00244416 -0.000271161 0.000550969
1447 1 5.04962 7.99045 26.7477 0.00398145 -0.000262243 0.00975457
1448 1 6.30913 9.82694 27.9802 -0.000866333 -0.00418465 0.00102544
1449 1 3.73241 9.8167 27.8979 0.00194583 -0.00667788 0.00037434
1450 1 5.02824 8.07442 29.2176 0.00364072 0.00255123 0.00208577
1451 1 2.52995 7.15916 27.899 0.0112767 0.00216069 8.51053e-05
1452 1 3.76696 8.97919 29.2421 -0.00135589 0.000202402 -0.00222462
1453 1 1.25206 8.90442 29.2503 -0.00523035 -0.00381626 -0.00165593
1454 1 2.50261 7.18422 30.5296 0.00299505 -0.000578434 -0.00109283
1455 1 2.56409 8.06685 29.2043 0.00514129 0.00254226 0.00346583
1456 1 3.78034 9.84311 30.4832 -0.00584727 -0.00779147 -0.00328295
1457 1 1.22092 9.83034 30.5153 -1.69375e-05 0.00228435 -0.00307902
1458 1 2.47691 8.04366 31.7666 -0.00117852 0.00908135 -0.00483004
1459 1 20.1035 7.10129 30.4793 0.00272104 0.0101883 0.00717775
1460 1 1.22276 8.9367 31.7481 0.000329812 -0.0106872 -0.00201837
1461 1 20.0938 7.11205 33.0244 0.00166693 -0.00172551 -0.000178642
1462 1 0.0104487 8.02937 31.7822 0.0030769 -0.00627485 -0.00534861
1463 1 1.26386 9.83744 33.0618 -0.00329138 0.00388507 -0.00483623
1464 1 0.0423976 8.01774 34.3197 -0.00340897 -0.00909387 -0.00330423
1465 1 18.8932 8.88061 16.5202 0.0035181 -0.00200859 0.0060274
1466 1 18.9339 9.79714 17.7713 -0.00118767 0.0021337 0.000389225
1467 1 17.63 7.11743 17.8398 -0.00451625 0.00404724 -0.00551478
1468 1 18.911 8.95455 19.0807 -0.00815992 0.00113846 0.000848981
1469 1 16.4011 8.9361 19.1005 0.00257056 -0.00495277 0.00238811
1470 1 17.6791 7.11034 20.358 0.00481919 -0.00997134 0.00658171
1471 1 17.6304 8.0597 19.0775 -0.00552387 0.00330515 0.00136202
1472 1 18.8968 9.81275 20.3464 -0.000959191 0.00182887 -0.00131153
1473 1 16.3746 9.82224 20.3413 0.000672751 -0.000193318 -0.00383398
1474 1 17.6486 8.03361 21.6254 0.00421487 0.00411469 -0.00364531
1475 1 15.1052 7.12464 20.3331 0.000666997 0.00380239 0.00137712
1476 1 16.3836 8.89369 21.6058 -0.000299667 -0.00469352 -0.00700779
1477 1 13.9255 8.88463 21.5802 -0.000885637 -0.00708329 -0.00467523
1478 1 15.1628 7.13949 22.8798 0.00340052 0.00361035 -0.00336753
1479 1 15.1647 8.03379 21.5894 0.00608054 -0.00348562 -0.00508995
1480 1 16.3575 9.79787 22.9188 -0.000585664 0.00357718 0.000685095
1481 1 13.9479 9.82151 22.896 0.00677875 0.00770717 0.00301705
1482 1 15.1047 8.04974 24.1846 0.00124992 0.00767191 -0.00379791
1483 1 12.7248 7.14215 22.8781 -0.00622112 0.00715337 -0.00382131
1484 1 13.8948 8.94088 24.1723 -0.0035967 0.00447964 -0.000242179
1485 1 11.3532 8.88324 24.1106 0.00143649 -0.00727976 0.0127519
1486 1 12.6134 7.08935 25.397 0.00431095 0.000482649 0.000420922
1487 1 12.6535 7.99727 24.1606 -0.00681865 -0.00183193 -0.00149219
1488 1 13.849 9.74782 25.3891 0.00657185 -0.00157462 0.00115503
1489 1 11.3627 9.76512 25.3917 -0.00120502 0.00615625 -0.000347215
1490 1 12.5922 8.01501 26.6264 0.00204548 0.00870275 0.00656885
1491 1 10.1179 7.11765 25.3808 0.0044304 -0.00547986 -0.00772304
1492 1 11.3402 8.93079 26.6739 0.000222509 0.000882517 0.00266539
1493 1 8.8161 8.92246 26.6033 -0.00215323 0.00187499 -0.0023275
1494 1 10.1111 7.11036 27.9186 0.00714536 0.00613501 -0.00939703
1495 1 10.0888 8.03571 26.6927 0.00572823 0.00901015 -0.00642367
1496 1 11.3898 9.76181 27.9539 -0.00438565 -0.0074145 0.00365078
1497 1 8.83774 9.83452 27.9409 -0.00108003 -0.000159512 -0.00560306
1498 1 10.0716 8.05458 29.1834 -0.00149618 -0.00271787 0.00474451
1499 1 7.59259 7.1344 27.9507 0.00251603 -0.00666748 -0.00864684
1500 1 8.86953 8.92113 29.1998 -0.00150127 -0.00152427 -0.0057584
1501 1 6.32635 8.95159 29.2696 -0.00135918 0.00350291 -0.00198887
1502 1 7.5223 7.13933 30.4925 -0.00349207 0.00842827 -0.0108382
1503 1 7.57153 8.05183 29.2158 0.00140853 0.00993081 0.000648534
1504 1 8.83275 9.83404 30.4989 -0.000668746 0.00170282 0.00598488
1505 1 6.33 9.81296 30.5034 0.00420898 0.000197149 0.00197981
1506 1 7.55744 8.01248 31.7478 0.00169504 0.00473117 -0.0109942
1507 1 5.02561 7.1605 30.4665 -0.00319102 0.00039444 0.000393574
1508 1 6.28093 8.90927 31.7418 -0.00373037 0.00389872 -0.000468931
1509 1 3.74961 8.96669 31.8136 0.00306309 -0.00742698 -0.00166458
1510 1 5.10244 7.12601 33.0259 0.00272945 -0.00186177 -0.00951717
1511 1 5.01797 8.04471 31.7387 0.00923185 -0.00202115 -0.00353978
1512 1 6.33888 9.83491 33.0374 0.000825284 -0.0032468 -0.00219971
1513 1 3.77524 9.85589 33.0151 0.00140353 0.00644004 -0.00363515
1514 1 5.07011 8.03173 34.3269 -0.000624949 0.00361916 -0.0102457
1515 1 2.54193 7.18782 33.0329 -0.00075159 0.00681816 0.00212118
1516 1 3.84594 8.89466 34.2975 0.000260838 0.00672332 0.00170006
1517 1 1.26071 8.91157 34.3194 0.00457773 -0.0015532 0.00218326
1518 1 2.47105 7.05028 35.5226 0.00121015 0.00501414 0.000129351
1519 1 2.54713 8.0319 34.2875 -0.000959954 -0.00372531 6.63601e-05
1520 1 3.7408 9.74708 35.5636 -0.0107589 0.00487706 -0.0125069
1521 1 1.25073 9.76825 35.5512 0.00349763 0.00132723 -0.0020445
1522 1 2.48317 7.97443 36.8367 -0.00381428 -0.000213937 -0.00496318
1523 1 20.1512 7.10466 35.5777 -0.00676527 -0.00533085 0.00144978
1524 1 1.22935 8.88879 36.9106 0.00220217 0.000549808 -0.00847451
1525 1 20.1664 7.0576 38.0155 -0.00127726 -0.00329501 0.00107704
1526 1 20.1217 8.03384 36.9033 0.000816371 0.00255053 -0.00104368
1527 1 1.20396 9.9126 38.0513 0.00482853 0.00678513 0.00132534
1528 1 18.9186 8.94213 21.6141 -0.00248089 0.00105429 -0.00403337
1529 1 18.894 9.75566 22.8799 0.00300022 -0.00390194 0.00259059
1530 1 17.6588 7.14199 22.8885 0.00338985 -0.00423596 -0.00305463
1531 1 18.9407 8.94067 24.1544 0.00142088 0.00376883 -0.000396136
1532 1 16.3875 8.91073 24.1567 -0.000424065 -0.00593759 -0.00502293
1533 1 17.6999 7.12835 25.4884 -0.00358666 -0.00677834 -0.00629455
1534 1 17.6609 8.02425 24.1859 0.000860113 0.00173513 -0.00254837
1535 1 18.8712 9.82755 25.4331 0.00549553 -0.00861974 -0.00897531
1536 1 16.3216 9.82373 25.4502 -0.00581095 0.00647998 0.000424296
1537 1 17.6455 8.04265 26.7486 0.00916138 -0.000568216 0.00304744
1538 1 15.1168 7.15039 25.4833 -0.00352704 0.00934955 -0.000493646
1539 1 16.415 8.95837 26.72 -0.00417787 0.00389367 0.0101424
1540 1 13.8778 8.90872 26.6475 0.000497314 0.00421363 0.0060277
1541 1 15.0648 7.18275 27.9695 -0.00453361 7.43457e-05 0.00156908
1542 1 15.1186 7.97589 26.739 -0.00274382 -0.00165719 -0.00372207
1543 1 16.3619 9.82225 27.9375 -0.00139147 -0.00288783 0.00274671
1544 1 13.8576 9.81052 27.9451 -2.22148e-05 -0.0133735 0.00268193
1545 1 15.1187 8.06704 29.2178 0.00329445 -0.00580244 -0.00240401
1546 1 12.5872 7.17902 27.9344 0.00545999 0.00112843 -0.000900896
1547 1 13.8272 8.90645 29.2255 -0.00859485 0.00361189 0.00489832
1548 1 11.329 8.88684 29.2068 -0.00775949 -0.000898222 0.00169906
1549 1 12.6338 7.18076 30.4296 0.00497498 -0.00335283 -0.00404305
1550 1 12.5725 8.1029 29.2331 -0.00420187 -0.0016065 -0.0032141
1551 1 13.8748 9.7937 30.5284 0.00546728 0.00272995 -0.00525755
1552 1 11.3277 9.81437 30.5601 0.00234121 -0.00269108 0.00291842
1553 1 12.6141 8.13111 31.7823 0.00116223 0.000469642 0.000978053
1554 1 10.0607 7.16523 30.4666 -0.00157555 -0.00364448 0.00432183
1555 1 11.3541 8.97247 31.783 -0.00282018 0.00863231 0.00182259
1556 1 8.81837 8.92715 31.7225 -0.006194 0.0013143 -0.00290658
1557 1 10.0795 7.18244 33.0071 0.00182434 0.0014468 -0.00470372
1558 1 10.105 8.02363 31.7413 -0.000887669 -0.00548692 -0.0075142
1559 1 11.3599 9.77506 33.0448 -0.00224079 -0.00517757 -0.00380535
1560 1 8.81846 9.83869 33.0404 -0.000826797 -0.000544698 -0.0054335
1561 1 10.0759 8.06872 34.3043 -0.00490648 0.0073683 -0.0101236
1562 1 7.54725 7.09542 33.0261 0.00629245 0.00390306 -0.00370402
1563 1 8.76767 8.91566 34.3257 0.00545923 0.00129195 0.00818788
1564 1 6.34314 8.94541 34.3137 0.00739522 -0.00794951 0.00184256
1565 1 7.53126 7.11512 35.5435 -0.00233526 0.00366299 -0.00416498
1566 1 7.52853 7.97512 34.2647 -0.00830845 0.00245896 -0.00202409
1567 1 8.81168 9.86484 35.5401 -0.00237179 0.006214 -0.00425173
1568 1 6.29683 9.83006 35.5769 0.00759822 0.000686709 -0.00303465
1569 1 7.53439 8.02009 36.8901 0.00667258 -0.0034499 -0.0036782
1570 1 5.00762 7.09647 35.5665 0.00227744 0.00664873 0.00628312
1571 1 6.26118 8.86817 36.9055 -0.00729527 0.000934243 -0.00412755
1572 1 3.70061 8.87816 36.828 -0.00598344 0.0040816 0.0119448
1573 1 4.95715 6.96578 37.9485 0.00118414 -0.00226914 -0.00372374
1574 1 4.95158 7.9501 36.8423 0.000190024 0.00043471 0.00310284
1575 1 6.28279 9.87484 38.0241 -0.0127197 -0.00522613 -0.000515085
1576 1 3.71779 9.87502 38.0703 0.000924166 -0.00392809 -0.000757696
1577 1 2.4535 6.99822 38.0013 0.00469791 0.00024184 -0.00241186
1578 1 18.8722 8.97192 26.6807 -0.0105456 -0.00264017 -0.00553391
1579 1 18.8703 9.81659 27.9965 -0.00175693 0.00632457 -0.00600855
1580 1 17.5784 7.18295 28.0078 -0.000726114 0.00423092 -0.00689215
1581 1 18.844 8.92874 29.2198 -0.0048112 0.00492626 0.00119281
1582 1 16.3703 9.00456 29.2123 -0.00192712 0.00566693 -0.00352358
1583 1 17.6107 7.10081 30.5518 3.38503e-05 0.00110072 0.000901629
1584 1 17.6118 8.0443 29.259 0.002812 0.00767419 0.00174752
1585 1 18.8691 9.81335 30.5529 0.00279473 1.60043e-05 -0.00584854
1586 1 16.4068 9.79064 30.5105 -0.00609007 -0.000394593 -0.00287968
1587 1 17.6617 8.01924 31.7974 0.00257641 -0.00262759 0.0022854
1588 1 15.1059 7.11434 30.4687 5.45417e-05 -0.00229261 -0.00619344
1589 1 16.3591 8.88585 31.8078 -0.00698259 0.00172007 0.00295212
1590 1 13.8691 8.95145 31.7846 0.00358086 -0.0012979 -0.00187708
1591 1 15.1474 7.15664 33.0067 0.00366987 0.0004341 -0.00398597
1592 1 15.1198 7.99635 31.7359 -0.0089822 -0.00465132 0.00122921
1593 1 16.3954 9.8198 33.0572 0.000752314 -0.00446074 -0.00349602
1594 1 13.921 9.80557 33.0343 -0.00216717 0.00125506 -0.00226922
1595 1 15.1899 8.03216 34.288 -0.00621925 0.00497606 0.00575165
1596 1 12.6152 7.17859 32.9923 0.00262234 0.00205843 -0.00515545
1597 1 13.8876 8.89615 34.3188 -0.00330894 0.00681185 -0.00183156
1598 1 11.404 8.91047 34.3191 -2.15998e-05 0.000636806 0.000739478
1599 1 12.5973 7.17993 35.5491 0.00224144 0.00119591 -0.00317838
1600 1 12.6525 8.06792 34.3296 0.00168555 0.00159792 -0.00618669
1601 1 13.8816 9.86482 35.5527 0.00486676 -1.72391e-05 0.00591625
1602 1 11.359 9.82303 35.5751 -0.000813288 0.00666897 0.000118685
1603 1 12.6282 8.0663 36.8419 -0.00795916 -0.00476031 -0.00453663
1604 1 10.0963 7.15213 35.5225 0.00417648 0.00705491 -0.00365871
1605 1 11.3155 8.93088 36.8609 0.00462673 0.00173023 -0.00304492
1606 1 8.84471 8.88751 36.8626 0.00307457 0.00382828 -0.00440548
1607 1 10.0733 7.0394 38.0432 -0.00350063 0.000198999 -0.0123355
1608 1 10.1006 8.01625 36.8197 -0.000226203 0.00423892 -0.00613511
1609 1 11.3008 9.89185 37.9728 0.00103839 -0.00218089 -0.0041347
1610 1 8.8085 9.80362 38.0095 -0.00206047 -0.00841631 -0.00744799
1611 1 7.5007 7.00211 38.0213 -0.000281174 0.0030529 -0.0102914
1612 1 18.9329 8.91029 31.8218 0.000540535 -0.007296 -0.0054672
1613 1 18.9261 9.78478 33.1288 -0.00681311 0.00540565 -0.00325194
1614 1 17.6483 7.12793 33.0748 -0.000628636 -0.00477114 0.00528235
1615 1 18.982 8.92598 34.389 -0.00524002 0.00119242 0.00554451
1616 1 16.4742 8.89872 34.3345 -0.00339812 0.00483872 0.00368791
1617 1 17.6376 7.09933 35.5377 0.0114319 0.00773204 0.00365333
1618 1 17.675 8.04966 34.3283 0.00367105 0.000307358 -0.00484619
1619 1 18.9252 9.87079 35.5872 -0.000642335 -0.000618084 -0.000304102
1620 1 16.4048 9.85027 35.5854 0.00294746 -0.000244758 0.000844269
1621 1 17.6635 8.01317 36.8385 -0.00320225 -0.000727918 -0.00668754
1622 1 15.1326 7.13498 35.5236 0.00650946 -0.00644304 -0.0024836
1623 1 16.4006 8.94083 36.8623 0.00245994 0.0060695 -0.00434707
1624 1 13.8627 8.96355 36.8964 -0.00320775 -0.00812544 -0.000424204
1625 1 15.1105 7.08507 37.9847 0.00488063 0.0036446 0.00397935
1626 1 15.1324 8.08739 36.8565 0.00223106 -0.00184749 0.00440275
1627 1 16.3615 9.91678 38.037 0.00349497 -0.00233557 -0.00391312
1628 1 13.7925 9.94467 38.0233 0.00524112 0.00779845 -0.00417303
1629 1 12.5971 7.07623 38.0017 -0.00291889 -0.0106738 -0.0030539
1630 1 18.8233 8.87164 36.873 -0.00314264 -0.00356385 0.00874857
1631 1 18.9098 9.87487 38.0323 0.0032465 0.000184104 -0.00577762
1632 1 17.6355 7.01825 37.9269 0.000303031 -0.000318361 -0.00266652
1633 1 2.52111 11.5875 -3.78166 0 0 0
1634 1 1.26055 12.4789 -3.78166 0 0 0
1635 1 0 10.6962 -2.52111 0 0 0
1636 1 0 11.5875 -3.78166 0 0 0
1637 1 1.26055 13.3702 -2.52111 0 0 0
1638 1 0 11.5875 -1.26055 0 0 0
1639 1 7.56333 11.5875 -3.78166 0 0 0
1640 1 6.30277 12.4789 -3.78166 0 0 0
1641 1 3.78166 12.4789 -3.78166 0 0 0
1642 1 5.04222 10.6962 -2.52111 0 0 0
1643 1 5.04222 11.5875 -3.78166 0 0 0
1644 1 6.30277 13.3702 -2.52111 0 0 0
1645 1 3.78166 13.3702 -2.52111 0 0 0
1646 1 5.04222 11.5875 -1.26055 0 0 0
1647 1 2.52111 10.6962 -2.52111 0 0 0
1648 1 3.78166 12.4789 -1.26055 0 0 0
1649 1 1.26055 12.4789 -1.26055 0 0 0
1650 1 2.53357 10.7077 -0.0013048 0.00245603 -0.0049905 0.0011077
1651 1 2.52111 11.5875 -1.26055 0 0 0
1652 1 3.84556 13.3943 0.0397779 -0.000623464 -0.0038848 -0.00138134
1653 1 1.2881 13.3678 0.0177482 0.00677661 0.000471983 0.00164139
1654 1 2.5495 11.6169 1.28574 -0.00163712 -0.00360647 -0.00492195
1655 1 0.0457928 10.7694 0.0602767 -0.00550846 -0.00248775 0.00189334
1656 1 1.30093 12.5105 1.32274 -0.00200356 0.00233414 0.00359577
1657 1 20.1663 10.6904 2.5484 -0.00464028 0.00240711 -0.00375626
1658 1 0.0371962 11.6323 1.29525 -0.00666507 -0.00263543 -0.00828779
1659 1 1.32545 13.3954 2.57799 -0.00813287 0.00132521 0.00525185
1660 1 0.0440501 11.6235 3.85913 -0.00190675 -0.00467415 -0.00643835
1661 1 12.6055 11.5875 -3.78166 0 0 0
1662 1 11.345 12.4789 -3.78166 0 0 0
1663 1 8.82388 12.4789 -3.78166 0 0 0
1664 1 10.0844 10.6962 -2.52111 0 0 0
1665 1 10.0844 11.5875 -3.78166 0 0 0
1666 1 11.345 13.3702 -2.52111 0 0 0
1667 1 8.82388 13.3702 -2.52111 0 0 0
1668 1 10.0844 11.5875 -1.26055 0 0 0
1669 1 7.56333 10.6962 -2.52111 0 0 0
1670 1 8.82388 12.4789 -1.26055 0 0 0
1671 1 6.30277 12.4789 -1.26055 0 0 0
1672 1 7.57895 10.7053 -0.0101348 -0.00346296 -0.00475282 0.000428094
1673 1 7.56333 11.5875 -1.26055 0 0 0
1674 1 8.83062 13.3679 0.0286272 0.00906323 -0.00533395 -0.0062025
1675 1 6.26941 13.4358 0.055607 0.00169727 0.00290107 0.000467678
1676 1 7.59363 11.6003 1.29548 -0.0066835 -0.00385422 0.000396116
1677 1 5.05507 10.7367 0.0381512 -0.000439138 -0.00496304 0.00641125
1678 1 6.29743 12.4532 1.28157 0.00403902 0.00244842 -0.00114977
1679 1 3.81495 12.4714 1.2873 -0.0118995 -0.000970713 -0.00599229
1680 1 4.99188 10.6765 2.54515 -0.00161685 -0.00406791 -0.00346696
1681 1 5.04803 11.5921 1.30613 0.00564236 -0.00496027 -0.00760498
1682 1 6.26294 13.3484 2.52545 0.00378618 0.00372699 0.00753149
1683 1 3.76088 13.421 2.49741 0.00545246 -0.000713719 0.00398209
1684 1 5.06617 11.6124 3.84891 0.00409185 -0.00362189 -0.00632641
1685 1 2.50487 10.717 2.56137 0.0015413 0.00102983 0.00832561
1686 1 3.80643 12.5111 3.86189 -0.000375512 0.00338456 0.00053539
1687 1 1.2669 12.5149 3.85347 0.00343795 0.00227275 -0.00376395
1688 1 2.56213 10.7143 5.14625 0.0053595 -0.00280228 0.00439921
1689 1 2.56529 11.5999 3.87154 -0.0020002 -0.00121792 0.00976583
1690 1 3.86816 13.3464 5.17152 -0.00611016 0.000854531 0.00252785
1691 1 1.33192 13.3797 5.148 -0.00161242 0.00469284 -0.00139088
1692 1 2.53117 11.6121 6.40355 -0.00177933 -0.00330289 -0.00219836
1693 1 0.0607694 10.7 5.14639 0.00327619 0.00620099 0.00261377
1694 1 1.2826 12.4784 6.38831 0.00269974 -0.00640943 0.00709144
1695 1 0.00433719 10.6186 7.62088 -0.000781295 0.00427077 0.00356384
1696 1 20.1658 11.5424 6.34569 -0.00182366 -0.00570425 -0.00597428
1697 1 1.28449 13.3499 7.69562 -0.00648743 0.00583233 -0.0045745
1698 1 0.0175266 11.5537 8.82986 0.00319773 0.0044086 0.00253522
1699 1 17.6478 11.5875 -3.78166 0 0 0
1700 1 16.3872 12.4789 -3.78166 0 0 0
1701 1 13.8661 12.4789 -3.78166 0 0 0
1702 1 15.1267 10.6962 -2.52111 0 0 0
1703 1 15.1267 11.5875 -3.78166 0 0 0
1704 1 16.3872 13.3702 -2.52111 0 0 0
1705 1 13.8661 13.3702 -2.52111 0 0 0
1706 1 15.1267 11.5875 -1.26055 0 0 0
1707 1 12.6055 10.6962 -2.52111 0 0 0
1708 1 13.8661 12.4789 -1.26055 0 0 0
1709 1 11.345 12.4789 -1.26055 0 0 0
1710 1 12.587 10.6983 0.047345 -0.000784239 -0.00159396 0.000446431
1711 1 12.6055 11.5875 -1.26055 0 0 0
1712 1 13.855 13.4316 -0.00375553 -0.00548347 -0.00740557 -0.000974423
1713 1 11.3668 13.369 -0.0258171 -0.00342293 0.00504424 -0.00845643
1714 1 12.5988 11.6245 1.27583 0.0021112 0.00166889 -0.00414149
1715 1 10.0873 10.7004 0.027261 0.00707353 0.0042545 -0.000633638
1716 1 11.3778 12.4477 1.31503 0.0012273 -0.001638 -0.0111085
1717 1 8.80407 12.5479 1.26683 0.0102624 0.000747429 -0.0028959
1718 1 10.0825 10.7352 2.51116 -0.00815075 -0.00190408 0.000290816
1719 1 10.0698 11.5738 1.2816 0.00655735 -0.00102381 -0.00428074
1720 1 11.3351 13.3359 2.57987 -0.00240402 0.00341236 0.00326846
1721 1 8.82366 13.3165 2.56127 0.00979179 0.00249322 0.000945069
1722 1 10.0953 11.5548 3.79231 -0.00268164 0.00729005 -0.00504166
1723 1 7.58698 10.7263 2.53984 0.00260889 0.000777764 -0.0062015
1724 1 8.86672 12.4686 3.77393 -0.00301774 3.97247e-06 -0.00373692
1725 1 6.33257 12.4213 3.8244 0.0043456 0.0041261 0.00264558
1726 1 7.58217 10.5937 5.04464 0.00675864 -0.00691538 -0.00443531
1727 1 7.57926 11.5815 3.81592 -0.00345356 0.00352351 -0.00543093
1728 1 8.89027 13.3669 5.11844 0.00318916 -3.05214e-06 0.00416202
1729 1 6.35795 13.3549 5.14574 -0.000988132 -0.000749431 -0.00183976
1730 1 7.6288 11.5203 6.40874 0.00574962 0.00747687 -0.00625156
1731 1 5.0618 10.6933 5.12178 -0.0030257 -0.0033241 -0.00383217
1732 1 6.38124 12.4409 6.4223 -0.00421364 -0.00692513 -0.00292442
1733 1 3.83256 12.4832 6.41785 -0.00499599 -0.00460688 -0.00661187
1734 1 5.0592 10.7131 7.68796 0.00622696 0.00481327 -0.00219595
1735 1 5.06883 11.6155 6.41952 -0.00592791 0.00933095 -0.00588974
1736 1 6.3737 13.3187 7.66476 0.00468455 0.00422563 -0.00645081
1737 1 3.83375 13.3144 7.64955 0.00543593 -0.00484162 -0.00177262
1738 1 5.07454 11.5785 8.93996 0.00577942 0.00155424 0.000192078
1739 1 2.51875 10.6787 7.64075 0.0126557 0.000528262 0.00443584
1740 1 3.84267 12.4878 8.93151 0.00668145 0.00414154 -0.00187211
1741 1 1.2936 12.4729 8.89226 -0.00143451 -0.00382407 0.00288772
1742 1 2.51326 10.6909 10.2388 -0.00242605 0.0010361 0.0024916
1743 1 2.6133 11.5873 8.93255 -0.00750458 -0.00457064 -0.00140047
1744 1 3.83152 13.4205 10.1728 -0.00598163 -0.000458592 -0.00680013
1745 1 1.23805 13.3174 10.2043 -0.0019313 0.00284653 -0.00190453
1746 1 2.59773 11.5636 11.4978 -0.00536271 0.00819582 -0.0026683
1747 1 0.000945557 10.6889 10.1702 0.00351525 0.00508231 -0.00151005
1748 1 1.2588 12.4798 11.4567 -0.00151249 -0.000451141 0.00345191
1749 1 20.1468 10.6769 12.7182 -0.00858516 0.00793934 0.00812261
1750 1 0.0307672 11.5715 11.4311 0.00836811 0.00434223 -0.00250342
1751 1 1.26639 13.3374 12.7126 -0.0100632 -0.00378445 -0.000736349
1752 1 0.0187974 11.5482 13.9492 -0.00433096 0.00108332 0.000708817
1753 1 18.9083 12.4789 -3.78166 0 0 0
1754 1 18.9083 13.3702 -2.52111 0 0 0
1755 1 17.6478 10.6962 -2.52111 0 0 0
1756 1 18.9083 12.4789 -1.26055 0 0 0
1757 1 16.3872 12.4789 -1.26055 0 0 0
1758 1 17.6806 10.6895 0.0583189 0.00694549 -0.00636436 0.00372823
1759 1 17.6478 11.5875 -1.26055 0 0 0
1760 1 18.9082 13.3211 0.0251337 0.000728613 0.00380568 0.00511758
1761 1 16.3651 13.3774 -0.00948404 0.0074529 0.000821769 -0.00107697
1762 1 17.6538 11.6004 1.29275 -0.00308659 0.00306852 0.00086296
1763 1 15.1414 10.6949 -0.0104798 -0.00615359 0.00699673 -0.0101836
1764 1 16.3313 12.4759 1.23851 0.000405615 -0.00106978 -0.00074187
1765 1 13.8745 12.4841 1.28572 -0.00226997 0.0053876 0.00261787
1766 1 15.1204 10.7312 2.56798 -0.00501212 -0.00763335 0.000622174
1767 1 15.0913 11.6456 1.21946 -0.00646803 -0.00687014 -0.000602311
1768 1 16.3445 13.4087 2.47377 0.00345651 -0.00248781 -0.0120414
1769 1 13.834 13.3938 2.54575 0.000105456 0.00198585 -0.0048116
1770 1 15.144 11.5891 3.83116 -0.00696579 0.00277846 -0.00243373
1771 1 12.618 10.7488 2.60969 0.00369616 0.00368725 0.00418733
1772 1 13.8782 12.5023 3.85015 -0.00189406 -0.00826403 -0.000866994
1773 1 11.3478 12.4742 3.87135 -0.00287974 -0.00107607 -0.00156692
1774 1 12.5936 10.7354 5.15039 0.00221628 -0.000404288 -0.00154337
1775 1 12.6096 11.6146 3.87507 5.66115e-05 0.00219327 -0.00737001
1776 1 13.8403 13.4318 5.1498 0.0022574 -0.00456416 0.00117763
1777 1 11.3275 13.3734 5.16492 0.00408683 0.00311442 0.00318639
1778 1 12.6478 11.6446 6.43696 -0.00297607 -0.00728802 0.000417111
1779 1 10.1096 10.6761 5.09469 0.000745439 -0.00249268 -0.00338597
1780 1 11.3293 12.4759 6.43507 -0.00314617 -0.00717209 0.00235595
1781 1 8.84166 12.4148 6.38511 0.0020148 0.00242233 -0.00350558
1782 1 10.115 10.6878 7.68268 -0.00931779 -0.00827285 0.0105007
1783 1 10.1374 11.5813 6.43318 -0.010147 0.00415276 -0.0073663
1784 1 11.376 13.4721 7.71145 -0.000309351 0.000802029 -0.00156187
1785 1 8.90414 13.324 7.63719 0.0106793 0.00300663 0.000732759
1786 1 10.1166 11.5504 8.99213 -0.0041474 0.0029552 0.00328605
1787 1 7.61576 10.6697 7.64019 0.000481124 0.00233719 0.00515334
1788 1 8.86262 12.4506 8.92363 0.00514043 0.00643995 -0.00450758
1789 1 6.36254 12.4565 8.91727 -0.00653924 -0.00688364 0.00274287
1790 1 7.56819 10.6803 10.1843 -0.00448704 -0.00668482 -0.00805143
1791 1 7.60266 11.5119 8.94585 0.000174346 -0.00394953 0.00254004
1792 1 8.79624 13.3739 10.1905 -0.0109337 0.00567569 0.00354221
1793 1 6.35253 13.3477 10.2045 -0.00795081 -0.00253689 0.00116363
1794 1 7.59821 11.5423 11.4916 0.00975271 0.00322085 -0.00460224
1795 1 5.04291 10.6658 10.1982 -0.00206765 0.00450291 -0.000417685
1796 1 6.32976 12.5136 11.4741 0.00260809 -0.0082829 0.00395783
1797 1 3.87395 12.506 11.4555 -0.00136312 -0.00569545 0.000940899
1798 1 5.04395 10.7083 12.7035 0.00666919 0.000874873 0.00918623
1799 1 5.00983 11.615 11.4874 0.00332611 0.00516089 0.00533397
1800 1 6.3161 13.3699 12.7067 -0.000311534 0.00666168 -0.00139936
1801 1 3.80978 13.3863 12.7601 -0.00076064 -0.00520686 0.00216763
1802 1 5.09658 11.5716 13.9931 0.00325063 0.00423423 -0.00259089
1803 1 2.50379 10.696 12.7441 0.00225806 -0.00046088 -0.00639582
1804 1 3.81562 12.4306 13.9957 0.00487407 -0.000968059 0.00183712
1805 1 1.26213 12.4372 13.9824 -0.00419807 -0.00331802 0.00316517
1806 1 2.51246 10.7367 15.2582 -0.00837572 -0.0181223 0.00256528
1807 1 2.54863 11.5404 14.0198 -0.000464299 0.00148213 -0.00509698
1808 1 3.83598 13.3276 15.3144 -0.00352211 -0.00218972 -0.000755486
1809 1 1.25968 13.2936 15.2128 0.00260633 -0.00524584 -0.00344074
1810 1 2.532 11.5966 16.5215 0.001645 -0.00134981 -0.0056622
1811 1 20.1139 10.6615 15.2496 -0.00123174 -0.000651824 -0.00274765
1812 1 1.27313 12.422 16.5436 0.00032479 0.00398803 0.00221655
1813 1 0.0504361 10.6873 17.806 0.0135021 -0.0015945 -0.00433582
1814 1 0.0229147 11.559 16.5072 0.00320748 -0.00684 -0.00309722
1815 1 1.24775 13.3338 17.7981 -0.00645687 0.000863726 0.000392563
1816 1 0.0492163 11.5049 19.055 0.00126106 0.00269553 -0.00651231
1817 1 18.8846 12.476 1.3179 -0.00238801 0.00386167 0.000341289
1818 1 18.9213 13.3952 2.62982 0.00746181 0.00286944 -0.00333345
1819 1 17.6236 10.7102 2.54762 0.0041145 0.00267827 0.00219643
1820 1 18.8875 12.4578 3.86165 0.000217381 0.00334383 0.00124579
1821 1 16.3376 12.519 3.77728 -0.0102671 0.00349389 0.00157391
1822 1 17.6899 10.7143 5.10843 -0.00964093 -0.00607993 -0.00422785
1823 1 17.6103 11.5949 3.82621 -0.00669084 -0.00535825 0.00540633
1824 1 18.9263 13.3173 5.12229 0.00902045 0.00139771 0.00335489
1825 1 16.3814 13.3819 5.09886 0.00284418 -0.00242041 -0.00652938
1826 1 17.6683 11.5862 6.3688 0.00807914 -0.00220623 -0.000421546
1827 1 15.131 10.7447 5.11592 -0.000153175 0.00908583 0.00233093
1828 1 16.3948 12.4645 6.38492 -0.000722877 -0.00551409 0.00537647
1829 1 13.8867 12.5006 6.41561 0.00735038 0.00458925 0.00039724
1830 1 15.1097 10.6459 7.67699 -0.00229093 0.00322426 -0.000444532
1831 1 15.156 11.6036 6.38487 0.00184897 0.00148724 -0.00466127
1832 1 16.4277 13.3797 7.63199 0.00429953 0.00603783 0.00488257
1833 1 13.9028 13.3928 7.65086 0.00123 -0.0053533 -0.000494647
1834 1 15.1338 11.629 8.95171 -0.000357113 0.00433549 0.000680726
1835 1 12.6444 10.7425 7.66324 0.00307797 -0.00178025 0.00884449
1836 1 13.9214 12.5085 8.91302 -0.00489056 0.00117602 0.000657131
1837 1 11.3787 12.5475 8.95611 0.000213632 0.000243961 -0.00185888
1838 1 12.6549 10.751 10.2172 -0.00225249 -0.00312047 -0.00176515
1839 1 12.6475 11.6627 8.97878 -0.0073142 -0.0016622 -0.00458762
1840 1 13.872 13.3975 10.1719 -0.000445005 -0.00500816 0.00197826
1841 1 11.3587 13.4019 10.1997 0.0013145 0.0026008 0.00337428
1842 1 12.5858 11.568 11.4404 -0.00204038 -0.00950667 0.00121701
1843 1 10.0989 10.683 10.1879 0.00121742 -0.00324139 -0.00387972
1844 1 11.3857 12.4327 11.4678 0.00216739 -0.00506868 0.00253432
1845 1 8.83331 12.5061 11.5176 0.00120372 0.00398692 0.00435086
1846 1 10.1101 10.6605 12.7993 0.00886382 0.00153217 -0.00380304
1847 1 10.0393 11.5342 11.5063 -0.00926826 0.00379245 -0.00424429
1848 1 11.3362 13.3818 12.7502 -0.00375751 0.00271123 0.00449121
1849 1 8.85365 13.377 12.793 0.00215991 -0.00292129 0.00265933
1850 1 10.1432 11.6325 13.997 0.00051692 0.000620633 -0.013193
1851 1 7.55027 10.6837 12.7272 0.00289246 -0.00271078 0.0015869
1852 1 8.8688 12.4962 14.0198 0.000927644 0.00448022 -0.00768498
1853 1 6.33398 12.4889 14.0034 -0.00595422 0.0052691 -0.00128586
1854 1 7.60698 10.7291 15.2966 -0.000723605 0.00159352 -0.00821997
1855 1 7.59736 11.6215 13.9986 0.00450654 0.00364729 -0.00463392
1856 1 8.91929 13.4236 15.2467 -0.00210781 -0.00222699 -0.0104205
1857 1 6.32539 13.3358 15.2743 -0.00215302 0.00583631 -0.0139665
1858 1 7.62111 11.6478 16.5293 -0.0033457 -0.00491033 0.00242796
1859 1 5.07401 10.712 15.2193 0.00208396 -0.00855316 0.00629194
1860 1 6.34415 12.5264 16.5413 0.00428177 0.0101899 -0.000829941
1861 1 3.81137 12.4932 16.5271 -0.00568273 0.00444634 -0.00802288
1862 1 5.05896 10.6908 17.8328 0.000974936 0.00132209 -0.0126664
1863 1 5.0553 11.5906 16.5299 -0.000836724 -0.00490115 -0.00699972
1864 1 6.31384 13.3782 17.8263 0.000554473 -0.000705104 0.00549664
1865 1 3.80057 13.4193 17.7666 0.00436857 -0.0089404 0.00128392
1866 1 5.13706 11.5812 19.0805 -0.00839723 -0.00769929 -0.000734722
1867 1 2.60752 10.7364 17.8085 -0.00766269 -0.00364059 2.02054e-05
1868 1 3.867 12.5008 19.0645 0.00210696 -0.0063057 -0.00210535
1869 1 1.257 12.4604 19.0662 -0.00910934 0.00173377 -0.0113621
1870 1 2.57155 10.7497 20.3505 0.000988936 0.00317656 -0.00491836
1871 1 2.63106 11.6316 19.0582 0.0022052 0.00245719 -0.00446609
1872 1 3.85788 13.3713 20.38 -0.00518946 -0.00520563 -0.00317755
1873 1 1.2951 13.3241 20.3097 -0.00594603 -0.00286763 -0.00121424
1874 1 2.56393 11.6017 21.6141 -0.000427671 -0.0015884 0.00037095
1875 1 20.1614 10.6569 20.356 -0.00198293 0.00519092 0.00632897
1876 1 1.34073 12.5018 21.6428 0.00110475 -0.00045456 -0.00365798
1877 1 0.00820824 10.639 22.9256 0.00064077 0.00588763 -0.00949864
1878 1 0.0201077 11.607 21.6087 -0.000823552 -0.00841858 -0.00711849
1879 1 1.3038 13.3131 22.9051 -0.00181799 0.00279152 -0.00555453
1880 1 0.0621035 11.5938 24.1825 0.00150236 -0.00201763 -0.00219879
1881 1 18.9129 12.45 6.37354 -0.000455354 -0.000543006 0.00357387
1882 1 18.9485 13.3923 7.60974 0.000878915 0.000216588 -0.00389748
1883 1 17.6211 10.7373 7.63185 0.00572363 -0.000888945 0.00231439
1884 1 18.9392 12.5064 8.87771 0.00425232 -0.00136796 0.00304875
1885 1 16.4171 12.4707 8.88284 -0.00077006 -0.00251962 -0.00186983
1886 1 17.6583 10.6946 10.1381 -0.00438387 -0.00235805 -0.00418563
1887 1 17.6591 11.618 8.89569 0.00460903 0.00729103 -0.00206405
1888 1 18.892 13.3042 10.1712 0.00351851 -0.00248195 -0.0023959
1889 1 16.4315 13.4042 10.1705 0.000160272 0.00208923 -0.00134549
1890 1 17.6531 11.5228 11.4235 5.18369e-05 -0.00340567 -0.0020962
1891 1 15.1543 10.7097 10.1901 -0.00228098 0.000343073 -0.00187281
1892 1 16.4074 12.5317 11.4208 0.00270795 -0.000670444 0.00382106
1893 1 13.8564 12.4475 11.4581 0.00784447 0.00551365 0.00502689
1894 1 15.0711 10.7159 12.7052 0.00485779 0.000841814 0.000131741
1895 1 15.1478 11.5476 11.4557 0.000831713 -0.00682143 -0.00188287
1896 1 16.375 13.359 12.7382 0.00847624 0.00748844 0.00125655
1897 1 13.8844 13.3629 12.7149 -0.00260619 -0.0020544 -0.00639788
1898 1 15.0401 11.6512 13.982 -0.00321891 -0.00802472 -0.000628038
1899 1 12.5738 10.6556 12.6905 0.0022342 0.00686649 -0.00981908
1900 1 13.8101 12.4882 13.9745 -0.00284223 0.00538034 -0.0109172
1901 1 11.3178 12.4818 14.0066 -0.00105258 0.00208406 0.00397692
1902 1 12.6106 10.7614 15.248 0.0011247 -0.00134439 -0.0055634
1903 1 12.5467 11.6218 14.0443 -0.00604702 0.0108906 -0.00106614
1904 1 13.851 13.4484 15.2414 -0.003094 -0.00104671 -0.00419079
1905 1 11.3574 13.3911 15.2644 0.00452444 0.00776507 0.0025249
1906 1 12.6605 11.6566 16.5219 -0.000417033 0.00822659 -0.00365072
1907 1 10.1131 10.7415 15.3023 0.00731288 -0.00100533 0.00689699
1908 1 11.3303 12.5191 16.5262 -0.0010827 0.00975466 0.00422064
1909 1 8.8802 12.4862 16.5386 -0.0108964 -0.00250143 -0.00407657
1910 1 10.1292 10.7399 17.7604 0.00535898 -0.00307931 -0.00385108
1911 1 10.13 11.6198 16.5098 0.00371555 0.00207325 -0.00460712
1912 1 11.365 13.44 17.8317 -0.00438977 0.00400148 -0.00355898
1913 1 8.87915 13.4211 17.8039 -0.0104583 -0.0028167 -0.00423608
1914 1 10.1144 11.5697 19.0458 -0.00385278 -0.00109808 0.00689922
1915 1 7.61264 10.6992 17.794 -0.000759402 0.00198802 -0.00158108
1916 1 8.85257 12.5163 19.0286 0.00290953 -0.000128157 0.00328231
1917 1 6.33135 12.5177 19.0921 -0.00441682 0.000885998 -0.000793119
1918 1 7.64214 10.6531 20.262 0.00262509 -0.000432843 0.000557565
1919 1 7.59139 11.5846 19.0471 -0.00357543 -0.00592902 0.00304083
1920 1 8.90716 13.3236 20.3042 -0.000723205 0.000222152 -0.000134368
1921 1 6.38346 13.3861 20.3418 0.00203123 0.00231531 0.000645191
1922 1 7.69743 11.6074 21.5944 0.000969919 0.00310901 0.00161387
1923 1 5.13769 10.7715 20.3197 -0.00243039 0.00699275 -0.00364689
1924 1 6.40887 12.5111 21.6257 0.0011752 0.00325202 5.67945e-05
1925 1 3.89524 12.4697 21.6516 0.00461948 0.000640005 0.00390489
1926 1 5.1256 10.6702 22.8732 0.00146903 -0.0115597 -0.00405535
1927 1 5.16228 11.601 21.6085 0.00229868 -8.37708e-05 -0.0048653
1928 1 6.34244 13.3936 22.8954 -0.00369962 -0.000235439 -2.39171e-05
1929 1 3.83876 13.4189 22.9169 -0.0100632 0.00237598 0.00361935
1930 1 5.08938 11.6034 24.1429 0.00362068 -0.00392056 0.00229047
1931 1 2.64365 10.6787 22.8932 -0.0117226 0.00101747 0.00164767
1932 1 3.87162 12.5022 24.2478 0.000927792 -0.00295585 -0.00416626
1933 1 1.32428 12.4749 24.1803 0.00711759 -0.00519194 -0.00281194
1934 1 2.54177 10.7005 25.4121 0.00101475 -0.0010589 0.00102633
1935 1 2.60138 11.6241 24.1616 -0.00241996 0.00536674 -0.000908245
1936 1 3.75417 13.3892 25.521 0.00291751 -0.00863954 -0.00120626
1937 1 1.28656 13.3773 25.4178 -0.00701383 -0.000656077 -0.0053116
1938 1 2.51786 11.5657 26.7215 -0.000931252 0.011226 0.00103893
1939 1 0.00489137 10.7028 25.4297 0.00255093 -0.0015215 -0.00253183
1940 1 1.29635 12.4984 26.7007 -0.0066472 -0.00250084 0.00552472
1941 1 20.1426 10.7192 27.9971 -0.00560842 0.00158492 -0.00599163
1942 1 20.1667 11.6329 26.7067 0.00494132 -0.00320652 0.00341164
1943 1 1.25615 13.4519 27.9632 -0.00541963 -0.000181894 -0.00308708
1944 1 0.0105006 11.6395 29.2505 -0.00748243 0.0017212 -0.0016045
1945 1 18.915 12.4357 11.4311 0.00506152 0.00350494 -0.00591083
1946 1 18.8726 13.3702 12.7271 0.0032865 -0.00185545 0.000665696
1947 1 17.6332 10.6724 12.7036 -0.00360829 0.00123289 -0.00185978
1948 1 18.8909 12.4772 13.9408 0.00620154 0.000817178 -0.00161775
1949 1 16.3177 12.471 14.0009 0.0064019 -0.00490402 0.00672721
1950 1 17.6424 10.6618 15.2071 -0.00874566 0.00768894 0.00543509
1951 1 17.5929 11.5742 14.0045 -0.00410255 -0.00147586 0.00158804
1952 1 18.9453 13.3011 15.2867 -0.00244573 -0.00617299 0.00202909
1953 1 16.4038 13.3256 15.2563 -0.00699336 0.00817458 -0.0058626
1954 1 17.6037 11.5071 16.5105 0.00240753 0.00684834 0.00492159
1955 1 15.0719 10.6734 15.2766 -0.00483372 0.00129843 0.00220553
1956 1 16.4252 12.4559 16.5263 -0.00166424 0.0056754 -0.00369553
1957 1 13.8563 12.507 16.5629 -0.00309843 -0.0016978 0.00346451
1958 1 15.18 10.7379 17.8026 0.00130612 0.00164336 -0.00666303
1959 1 15.1501 11.5828 16.5103 0.00865159 0.00916184 0.00279921
1960 1 16.4481 13.3193 17.8115 0.0016381 0.00152845 -0.00423482
1961 1 13.8948 13.381 17.8002 0.00104033 0.00221971 -0.0075735
1962 1 15.1665 11.5955 19.0829 -0.00299087 0.000382285 -0.00541072
1963 1 12.6993 10.7573 17.7977 -0.00858955 -0.00334368 -0.00213647
1964 1 13.8595 12.4944 19.0775 -0.00323375 -0.00921343 -0.00112418
1965 1 11.3391 12.5002 19.0616 0.00238598 0.00571198 -0.000282173
1966 1 12.6606 10.7009 20.3475 0.000273437 0.00868943 0.00428142
1967 1 12.6286 11.6143 19.0621 0.000784115 -0.00319636 -0.00442563
1968 1 13.9309 13.3259 20.3328 -0.00560704 0.00525231 -0.00348762
1969 1 11.3569 13.3714 20.3692 -0.00175017 -0.00200718 0.000137472
1970 1 12.6424 11.5583 21.6138 -0.00272817 0.000360813 -0.00168802
1971 1 10.135 10.699 20.3204 -0.00141659 -0.000237864 -0.00396315
1972 1 11.3876 12.446 21.6259 0.00384395 0.00771308 -0.00530466
1973 1 8.95327 12.4672 21.58 -0.00612249 0.00179741 0.00357985
1974 1 10.1123 10.7025 22.8695 1.02079e-05 0.00260476 -0.00114567
1975 1 10.1583 11.5312 21.6135 0.00353864 0.00735409 0.00312601
1976 1 11.3449 13.3246 22.9252 -0.00138929 0.00508948 0.000945742
1977 1 8.82487 13.3423 22.8576 0.00400008 -0.00068212 0.0040593
1978 1 10.1021 11.6124 24.1322 -0.00336306 0.00208352 -0.00222535
1979 1 7.60442 10.7199 22.8985 0.00138679 1.70687e-05 0.00314087
1980 1 8.84708 12.4531 24.1486 0.00762553 0.00324475 0.00599682
1981 1 6.28212 12.5164 24.1799 -0.000677759 0.000424649 -0.00286506
1982 1 7.5396 10.7053 25.4687 -0.00723692 0.00462987 0.00184287
1983 1 7.58774 11.5891 24.1594 0.00958401 -0.000315616 -0.00392464
1984 1 8.7756 13.4165 25.4314 -0.00529354 -0.00596018 0.00220913
1985 1 6.28568 13.3773 25.4101 0.000290367 -0.000834051 -0.00183584
1986 1 7.57429 11.6198 26.7371 0.00813228 -0.00469028 -0.00248987
1987 1 5.11141 10.6741 25.3745 0.00254258 0.0052067 -0.00400936
1988 1 6.27602 12.464 26.6974 0.00440074 -0.00322283 -0.00806698
1989 1 3.76788 12.3917 26.6922 -0.000506036 0.000972022 0.00317377
1990 1 5.05142 10.7194 27.9729 -0.00173822 -0.00429727 -0.000594433
1991 1 5.07218 11.5679 26.6598 0.0010401 0.00039544 0.00679291
1992 1 6.31494 13.3343 27.9906 0.00530864 -0.00191601 -0.0085241
1993 1 3.74176 13.349 27.9629 -0.000522161 0.0066968 -0.0031616
1994 1 4.99032 11.6218 29.2492 0.00151226 0.00351747 0.00629095
1995 1 2.51018 10.7208 27.9622 0.000253742 -0.000384028 0.0043557
1996 1 3.80211 12.5543 29.1999 0.00360776 0.0139544 -0.00377892
1997 1 1.26847 12.5201 29.2738 -0.00573611 -0.00123299 0.000354748
1998 1 2.44191 10.7573 30.4568 0.00822759 0.00119538 0.000325147
1999 1 2.50916 11.6496 29.1972 0.0116024 -0.00484552 -0.0019144
2000 1 3.84258 13.3792 30.5214 0.00877551 -0.00522881 -0.0109375
2001 1 1.28928 13.4384 30.5496 0.00438371 0.00712338 0.00101117
2002 1 2.53051 11.6002 31.7467 0.00463095 -0.00162824 -0.00709548
2003 1 20.1547 10.7428 30.5 -0.000450369 0.00666772 0.00380253
2004 1 1.29288 12.4907 31.7616 -0.004527 0.00388008 0.00296023
2005 1 20.1562 10.7368 33.0542 0.00357146 0.000454546 -0.0039108
2006 1 20.1514 11.6003 31.7868 -0.00296158 -0.00156117 -0.00419538
2007 1 1.3051 13.4181 33.0223 -0.00200659 0.000690552 0.00277501
2008 1 0.00111987 11.628 34.277 -0.0109966 0.00209932 -0.00435199
2009 1 18.9496 12.418 16.4749 0.000875263 -0.00444288 -0.00311022
2010 1 18.9469 13.3548 17.7403 -0.00471129 0.00260588 -0.00311981
2011 1 17.6961 10.7019 17.7894 -0.00415741 0.000759735 -0.00814546
2012 1 18.9876 12.4939 19.0463 5.29314e-05 -0.00209848 -0.0067317
2013 1 16.4327 12.4453 19.0572 -0.00397117 -0.000537648 -0.00587168
2014 1 17.6338 10.6997 20.4089 0.00083072 0.00269802 -0.000927871
2015 1 17.708 11.6082 19.0663 0.000391911 0.00561648 0.00367772
2016 1 18.9323 13.3884 20.3208 0.0119589 -0.00654006 -0.00139815
2017 1 16.423 13.3397 20.3361 0.00263888 -0.00697451 -0.00546583
2018 1 17.6636 11.6294 21.6112 -0.001182 0.00133599 -0.00121213
2019 1 15.1765 10.7489 20.38 -0.00143151 0.000193038 -0.0022776
2020 1 16.4423 12.4934 21.6725 -0.00119097 -0.00851086 0.00441815
2021 1 13.957 12.4245 21.641 -0.00561734 -0.00188199 -0.00572257
2022 1 15.1345 10.7067 22.8626 0.00423058 0.00607713 -0.00622641
2023 1 15.2032 11.5925 21.619 0.00162358 -0.00584226 -0.00757119
2024 1 16.4059 13.4569 22.9508 0.00099156 -0.00825317 0.00091789
2025 1 13.9137 13.3675 22.8552 0.00975484 0.00823115 -0.00652155
2026 1 15.168 11.5982 24.1475 -0.0012504 -0.00259412 0.00457201
2027 1 12.6466 10.6807 22.8423 0.00864936 0.00237099 0.00428987
2028 1 13.8679 12.4963 24.1821 -0.00934232 8.77109e-05 -0.00142624
2029 1 11.3422 12.4888 24.1535 0.00177283 0.00299645 0.0102458
2030 1 12.5449 10.6952 25.3963 0.00284782 0.000192433 -0.00498269
2031 1 12.6317 11.5893 24.1163 0.00691971 0.00737993 0.00859411
2032 1 13.8748 13.3992 25.4447 -0.00815712 0.00282358 -0.00822375
2033 1 11.3273 13.3274 25.4268 -0.00798319 -0.00353092 -0.00376981
2034 1 12.5553 11.5814 26.6883 0.00296254 -0.00238257 -0.00225787
2035 1 10.1032 10.6815 25.4079 -0.00711909 -0.00720069 0.00195211
2036 1 11.2699 12.4535 26.6873 -0.011744 0.00310606 0.000843744
2037 1 8.84035 12.5089 26.7149 0.00390178 0.00504889 0.00460248
2038 1 10.0985 10.7181 27.9582 0.00680407 5.41471e-05 -0.00405564
2039 1 10.0447 11.5956 26.6667 0.00323974 0.00301185 0.00558414
2040 1 11.3335 13.3357 27.9501 -0.00375431 0.00537971 -0.00526912
2041 1 8.79494 13.3826 27.9546 -0.00409133 0.0036546 0.000705047
2042 1 10.0532 11.545 29.2144 -0.00493056 -0.0108533 -0.00252086
2043 1 7.63218 10.7068 27.989 -0.00164317 -0.00619128 -0.00745953
2044 1 8.77925 12.4392 29.1552 -0.00445089 0.0137126 0.00157299
2045 1 6.32229 12.5051 29.2542 0.0104684 0.000484575 -0.00360208
2046 1 7.59467 10.732 30.5599 0.00263731 0.00852409 0.00450233
2047 1 7.53302 11.5705 29.2832 -0.00381794 0.00628024 0.00422902
2048 1 8.83268 13.3246 30.4941 -0.000485437 0.0014174 -0.000149806
2049 1 6.34192 13.3581 30.4938 -0.00241388 -0.00603925 -0.00109561
2050 1 7.56217 11.6147 31.8141 -0.00138395 0.008251 -0.00401359
2051 1 5.02334 10.6865 30.5296 0.0032033 -0.00623291 -0.00866064
2052 1 6.35362 12.4477 31.7707 -0.000383209 0.000807981 -0.0119302
2053 1 3.80451 12.4714 31.7538 -0.0032421 0.00202619 -0.0105791
2054 1 5.09323 10.7029 33.0197 -0.00289793 -0.00451267 -0.00334745
2055 1 5.08073 11.561 31.779 -0.00902046 -0.00164668 -0.00255841
2056 1 6.26512 13.395 33.0449 -0.00136087 -0.00654606 -0.00911051
2057 1 3.81566 13.3761 33.0435 0.00303226 -0.00458518 -0.012361
2058 1 5.05943 11.586 34.2796 0.0128819 -0.00225197 0.0009991
2059 1 2.4879 10.7845 33.0777 0.000818795 0.00736853 -0.00161053
2060 1 3.77698 12.4757 34.3495 0.00031091 0.00186827 0.00224789
2061 1 1.23615 12.5657 34.2923 0.00532288 0.000258336 -0.000969201
2062 1 2.49191 10.6632 35.558 -0.00742618 -0.0039701 -0.0101164
2063 1 2.49611 11.6328 34.2908 0.00209369 -0.00889677 0.00273002
2064 1 3.7645 13.3588 35.5898 0.00889183 -0.00117622 -0.0033489
2065 1 1.22038 13.4061 35.5709 0.00251479 0.0041112 -0.00609288
2066 1 2.48252 11.5421 36.8071 -0.00207652 -0.00175478 0.00187884
2067 1 0.0118148 10.699 35.5663 -0.00208069 -0.00811026 -0.00177849
2068 1 1.23879 12.4992 36.8337 -0.00379026 0.00349782 0.00155126
2069 1 20.1436 10.5769 38.0216 4.92422e-05 -0.000519493 -0.00633803
2070 1 20.152 11.5854 36.9097 -0.00069122 0.00279976 -0.00462168
2071 1 1.23136 13.4637 38.0041 -0.00413463 -0.00248234 -0.00418738
2072 1 18.968 12.4719 21.6259 -0.00371583 0.00408907 -0.00776424
2073 1 18.9828 13.344 22.8816 0.0064268 -0.00102279 -0.00625727
2074 1 17.6359 10.6909 22.8591 -0.00323108 -0.0125379 -0.0123572
2075 1 18.9321 12.4174 24.1534 -0.00370995 -0.00208699 -0.00599542
2076 1 16.4489 12.4622 24.1746 0.00689836 -0.00323082 0.00508397
2077 1 17.6156 10.7333 25.4416 0.0075111 0.00375407 -0.00383082
2078 1 17.6893 11.5683 24.102 0.00181893 0.00237974 0.00172278
2079 1 18.8834 13.3308 25.4287 -0.00561267 0.00159503 0.00387033
2080 1 16.3773 13.4066 25.4361 0.00316699 -0.00884287 -0.00177597
2081 1 17.6433 11.5762 26.7189 0.0017693 0.00360755 0.00182883
2082 1 15.1063 10.72 25.395 -0.00189386 0.0115972 -0.00169308
2083 1 16.3684 12.4824 26.6853 0.00350366 0.00186496 -0.00133067
2084 1 13.8144 12.4555 26.6926 -0.0032712 -0.000609525 -0.0111244
2085 1 15.0753 10.7277 28.0063 0.006922 0.00281378 0.00255319
2086 1 15.0828 11.5592 26.6741 -0.00296695 -0.00626035 -0.00253265
2087 1 16.3571 13.3759 27.9323 0.00329891 -0.00637984 0.00200828
2088 1 13.8032 13.3499 27.9817 0.000314067 -0.00302331 -0.00579393
2089 1 15.109 11.5472 29.2543 0.00137134 -0.0103955 0.00208012
2090 1 12.5805 10.7 28.043 0.00172215 0.00254703 -0.00132123
2091 1 13.8367 12.4463 29.2502 -0.0013162 0.00261626 0.00047553
2092 1 11.316 12.4497 29.2513 0.000428298 0.00547663 -0.00401256
2093 1 12.5862 10.7136 30.5574 -0.00170798 -0.00999955 -0.0052257
2094 1 12.5648 11.5591 29.2812 -0.0033852 -0.00431548 -0.00148286
2095 1 13.8435 13.3714 30.5724 -0.00723523 0.00812287 -0.00326877
2096 1 11.3618 13.3571 30.5045 -3.28584e-07 0.000566356 -0.00230559
2097 1 12.5776 11.5748 31.7966 0.00125121 -0.00639112 0.00963718
2098 1 10.0489 10.7229 30.5001 -0.00343238 0.00812669 0.00459761
2099 1 11.3357 12.4378 31.7506 -0.00271011 0.00226818 -0.00608814
2100 1 8.83323 12.53 31.7948 0.0045044 -0.00220164 -0.000507009
2101 1 10.0621 10.7392 33.0565 0.00201278 -0.00361145 -0.00303341
2102 1 10.0563 11.6155 31.7773 0.00251521 -0.00409086 -0.0077548
2103 1 11.3495 13.3709 33.0417 0.000468971 -0.00990421 -0.00364906
2104 1 8.81249 13.4041 33.0573 0.00700117 0.0011825 0.00221591
2105 1 10.0604 11.6536 34.2961 0.00664374 -0.00787534 -0.0075935
2106 1 7.58141 10.7316 33.042 -0.000933627 -0.000159333 -0.00422163
2107 1 8.82711 12.482 34.37 0.0112925 -0.00312506 -0.00703927
2108 1 6.29448 12.4712 34.2433 -0.000587613 -0.00245329 0.00131461
2109 1 7.5385 10.7016 35.5664 0.00317799 0.00541125 0.00890048
2110 1 7.52635 11.5996 34.3334 0.00122138 -0.00847574 0.00765988
2111 1 8.79063 13.4086 35.6 -0.00384682 -0.00204105 -0.00397385
2112 1 6.20539 13.3853 35.5325 0.00566468 0.00295111 0.00378
2113 1 7.59662 11.5946 36.8968 -0.00105703 0.00645713 0.00640321
2114 1 5.08229 10.6106 35.5618 -0.00214307 -0.00294573 -0.00423963
2115 1 6.28176 12.4667 36.8922 0.00416608 -0.00168071 0.000418488
2116 1 3.73839 12.3957 36.8435 -0.00487296 0.00332828 -0.00660914
2117 1 4.99965 10.5549 38.0397 -0.00909452 -0.00618144 0.00278403
2118 1 5.02526 11.5231 36.8901 -0.000497402 -0.000346578 -0.00563482
2119 1 6.3067 13.4446 38.0361 0.0052675 0.0034361 0.00165531
2120 1 3.79628 13.3964 37.983 -0.00429204 0.00931398 0.000873019
2121 1 2.48209 10.5737 38.0247 0.00683799 -0.00605782 -0.00528244
2122 1 18.9213 12.4931 26.6833 0.0044198 -0.00283924 -0.00518592
2123 1 18.889 13.3711 27.9426 0.00152078 -0.00840852 -0.00209926
2124 1 17.6436 10.7187 27.9466 0.004861 0.00154994 -0.00103924
2125 1 18.8747 12.5405 29.2542 -0.00668818 0.000185213 0.00154223
2126 1 16.386 12.4608 29.2466 0.00202761 -0.00142284 0.00135375
2127 1 17.6174 10.6958 30.6161 0.0037277 0.0074512 0.0072408
2128 1 17.624 11.638 29.2651 0.00179505 0.00765004 -0.00635979
2129 1 18.8808 13.4293 30.5253 0.00453968 0.00301353 0.00281012
2130 1 16.3892 13.3435 30.4853 0.00214329 0.00180746 0.00323228
2131 1 17.6213 11.5747 31.829 0.000129963 0.00159403 0.000195769
2132 1 15.1276 10.6737 30.5486 -0.00301873 0.0087966 0.00119016
2133 1 16.3274 12.5471 31.7553 0.00486425 0.00945524 -0.0161774
2134 1 13.8797 12.4971 31.8372 -0.0101754 -0.0022316 -0.00491359
2135 1 15.2036 10.6848 33.0507 -0.00535361 0.00189477 -0.00202941
2136 1 15.1027 11.5551 31.8333 -0.00221301 -0.0110629 -0.0097105
2137 1 16.3388 13.3914 33.0061 0.00131898 0.00803067 -0.00440049
2138 1 13.8561 13.3206 33.0548 0.00132796 -0.00107184 -0.00571024
2139 1 15.1168 11.6004 34.3427 -0.00304922 0.00562577 -0.00381837
2140 1 12.5907 10.7132 33.0844 -0.000933249 -0.00207448 -0.0064733
2141 1 13.8414 12.4836 34.3857 0.000128824 -0.00321816 -0.00579134
2142 1 11.2972 12.4494 34.3429 0.00196624 0.00127311 0.00573329
2143 1 12.5917 10.6918 35.5596 -0.000849459 -0.00947908 -0.00095287
2144 1 12.6065 11.5625 34.3492 -0.00174615 0.00671273 -0.0094345
2145 1 13.8052 13.3869 35.5652 0.00468991 0.00345943 0.00846026
2146 1 11.3219 13.3874 35.5237 0.00096962 -0.0125304 -2.32711e-05
2147 1 12.5432 11.5934 36.9485 -0.00304426 9.79577e-05 -0.00537533
2148 1 10.0536 10.6878 35.5685 0.00464148 -0.00506508 -0.00242236
2149 1 11.2931 12.483 36.8775 0.0106121 0.00216717 -0.00184396
2150 1 8.82448 12.4964 36.8887 -0.00660517 0.00116834 0.0011609
2151 1 10.0055 10.5768 37.9909 0.00224758 0.00255175 -0.0014803
2152 1 10.0265 11.5968 36.9069 0.00169199 0.00335092 -0.00130265
2153 1 11.3198 13.5669 38.0033 0.0080134 0.00158151 -0.00268101
2154 1 8.81574 13.4916 38.0976 -0.00451412 0.00608657 0.00531509
2155 1 7.55541 10.5407 37.8973 0.00243186 -0.000341727 0.00166145
2156 1 18.9139 12.4876 31.7846 0.00333517 -0.00128824 0.000790565
2157 1 18.9017 13.3731 32.9853 0.000601119 -0.00611768 0.0063565
2158 1 17.6343 10.6951 33.0478 0.000694787 0.00757636 -0.000354691
2159 1 18.9209 12.4948 34.2975 -0.000925259 0.00206286 0.000773751
2160 1 16.3548 12.4767 34.302 3.94831e-05 -0.00444004 -0.00598705
2161 1 17.6293 10.7223 35.5926 0.00171069 0.00338781 0.00242467
2162 1 17.6339 11.5386 34.3492 -0.000657376 -0.00271612 -0.00418106
2163 1 18.904 13.3413 35.5394 -0.00430116 0.00301073 -0.00703125
2164 1 16.3267 13.3374 35.5333 0.00376579 0.00119089 -0.00381447
2165 1 17.6669 11.6209 36.9117 0.000527024 0.00390675 0.00473894
2166 1 15.146 10.7284 35.6022 -0.00615992 -0.00768678 0.00486898
2167 1 16.3934 12.4651 36.8692 0.00523177 -0.00489687 -0.0026865
2168 1 13.8491 12.4438 36.8961 -0.00108685 0.00527888 0.00168221
2169 1 15.0572 10.6681 38.1284 0.000718233 9.50242e-05 -0.00115503
2170 1 15.0866 11.6358 36.9167 -0.00201942 0.00216086 -0.00583024
2171 1 16.3821 13.4768 38.0229 -0.00788649 0.00619557 -0.00925875
2172 1 13.916 13.5329 38.0042 -0.00505212 0.00453731 -0.0070799
2173 1 12.5351 10.6035 38.0703 0.00115924 -0.0113417 -0.00366097
2174 1 18.9705 12.4498 36.8845 0.00911062 -0.00157093 -0.00220249
2175 1 18.9138 13.4871 37.9919 -0.00748495 0.00227972 -0.00688939
2176 1 17.666 10.5583 38.0832 0.00217673 5.16425e-05 -0.00425944
2177 1 2.52111 15.1529 -3.78166 0 0 0
2178 1 1.26055 16.0442 -3.78166 0 0 0
2179 1 0 14.2615 -2.52111 0 0 0
2180 1 0 15.1529 -3.78166 0 0 0
2181 1 1.26055 16.9356 -2.52111 0 0 0
2182 1 0 15.1529 -1.26055 0 0 0
2183 1 7.56333 15.1529 -3.78166 0 0 0
2184 1 6.30277 16.0442 -3.78166 0 0 0
2185 1 3.78166 16.0442 -3.78166 0 0 0
2186 1 5.04222 14.2615 -2.52111 0 0 0
2187 1 5.04222 15.1529 -3.78166 0 0 0
2188 1 6.30277 16.9356 -2.52111 0 0 0
2189 1 3.78166 16.9356 -2.52111 0 0 0
2190 1 5.04222 15.1529 -1.26055 0 0 0
2191 1 2.52111 14.2615 -2.52111 0 0 0
2192 1 3.78166 16.0442 -1.26055 0 0 0
2193 1 1.26055 16.0442 -1.26055 0 0 0
2194 1 2.50527 14.2246 0.00473786 0.00326687 0.00407218 -0.00332257
2195 1 2.52111 15.1529 -1.26055 0 0 0
2196 1 3.81348 16.911 -0.000770808 0.00106159 -0.00239684 0.00216492
2197 1 1.26606 16.9427 0.0138847 -0.00539825 0.00377041 0.00511458
2198 1 2.51863 15.1633 1.26639 0.00161943 0.00512635 -0.00336097
2199 1 0.0217602 14.253 0.0456634 0.00181181 -0.0129908 -0.00255426
2200 1 1.24718 16.0668 1.26987 0.00079473 0.00499095 0.00489011
2201 1 20.1618 14.2591 2.62616 -1.39465e-06 -0.00383336 0.0025048
2202 1 20.1683 15.1031 1.2936 -0.00283595 -0.00429475 -0.00158217
2203 1 1.20949 16.9416 2.55067 -0.00210707 0.000318324 -0.00171611
2204 1 0.0393036 15.1542 3.92024 -0.004666 -0.00329395 0.0117699
2205 1 12.6055 15.1529 -3.78166 0 0 0
2206 1 11.345 16.0442 -3.78166 0 0 0
2207 1 8.82388 16.0442 -3.78166 0 0 0
2208 1 10.0844 14.2615 -2.52111 0 0 0
2209 1 10.0844 15.1529 -3.78166 0 0 0
2210 1 11.345 16.9356 -2.52111 0 0 0
2211 1 8.82388 16.9356 -2.52111 0 0 0
2212 1 10.0844 15.1529 -1.26055 0 0 0
2213 1 7.56333 14.2615 -2.52111 0 0 0
2214 1 8.82388 16.0442 -1.26055 0 0 0
2215 1 6.30277 16.0442 -1.26055 0 0 0
2216 1 7.57159 14.2752 0.00412677 0.00464596 0.00227551 0.000696364
2217 1 7.56333 15.1529 -1.26055 0 0 0
2218 1 8.82997 16.9275 0.0629291 -0.00246846 0.00249179 -0.00360213
2219 1 6.32196 16.9126 -0.0173574 0.00310476 0.00873994 -0.00396815
2220 1 7.58678 15.1385 1.29698 0.00793005 -0.00221592 0.00641695
2221 1 5.01879 14.2612 0.0102379 0.000427682 -0.000165076 0.00317637
2222 1 6.35843 16.0442 1.26403 -0.00772219 0.00375875 -0.00343779
2223 1 3.77398 16.0289 1.24499 0.00192291 -0.000274369 -0.00128422
2224 1 4.99675 14.2348 2.55126 0.00660872 -0.0122214 -0.00115656
2225 1 5.05207 15.1549 1.2693 -0.00254998 -0.00648581 0.00895213
2226 1 6.38036 16.9238 2.55196 -0.00610894 0.00223125 -0.00201879
2227 1 3.77125 16.9221 2.52123 -0.00143264 -0.000553234 -0.0086838
2228 1 5.03023 15.1233 3.82851 0.00435259 0.00190582 -0.00143005
2229 1 2.57687 14.2783 2.57706 -0.000501348 0.00403069 -0.000321629
2230 1 3.78405 16.0635 3.81405 0.000802531 -0.00527088 0.00478423
2231 1 1.29115 16.0815 3.83766 0.0110804 0.000501188 0.00365794
2232 1 2.56556 14.283 5.12491 0.0100334 -0.0038283 -0.00197938
2233 1 2.52521 15.2286 3.83849 0.00552949 0.00634325 0.00522161
2234 1 3.81306 16.9798 5.12488 0.000849688 -0.000711564 0.00277072
2235 1 1.29733 16.9951 5.10328 0.00187099 0.000735806 -0.0154266
2236 1 2.62101 15.1548 6.37207 0.0039509 -0.00466215 0.000539829
2237 1 0.066465 14.2127 5.13924 0.00679392 0.00683555 -0.000953828
2238 1 1.37541 16.0164 6.43769 0.00373114 0.00376497 -0.00318556
2239 1 0.0414828 14.2635 7.66366 -0.0103213 0.00139639 0.0036598
2240 1 0.152652 15.1414 6.38287 0.00036778 -0.00387026 -0.0040743
2241 1 1.3154 16.9275 7.66644 -0.00176736 0.00783854 -0.00550381
2242 1 0.00365579 15.1472 8.90057 0.0138193 0.00225678 -0.00514274
2243 1 17.6478 15.1529 -3.78166 0 0 0
2244 1 16.3872 16.0442 -3.78166 0 0 0
2245 1 13.8661 16.0442 -3.78166 0 0 0
2246 1 15.1267 14.2615 -2.52111 0 0 0
2247 1 15.1267 15.1529 -3.78166 0 0 0
2248 1 16.3872 16.9356 -2.52111 0 0 0
2249 1 13.8661 16.9356 -2.52111 0 0 0
2250 1 15.1267 15.1529 -1.26055 0 0 0
2251 1 12.6055 14.2615 -2.52111 0 0 0
2252 1 13.8661 16.0442 -1.26055 0 0 0
2253 1 11.345 16.0442 -1.26055 0 0 0
2254 1 12.6138 14.2723 0.0131057 -0.00176291 -0.00628625 0.00428251
2255 1 12.6055 15.1529 -1.26055 0 0 0
2256 1 13.8588 16.9794 0.0413701 0.00215364 -0.00237281 0.00234222
2257 1 11.3466 16.9842 -0.0107527 0.0073662 -0.00760747 -0.000219824
2258 1 12.5139 15.2256 1.28311 0.00725873 -0.00322022 0.00210509
2259 1 10.0959 14.2616 -0.0127343 0.000882465 -0.00245568 0.000716009
2260 1 11.3037 16.1338 1.20989 0.00126645 -0.00622606 0.00540242
2261 1 8.87068 16.0698 1.27114 -0.000336052 0.00935005 -0.00769095
2262 1 10.0716 14.2811 2.546 -0.00734594 -0.00237708 0.0023549
2263 1 10.075 15.1604 1.27387 -0.00559799 -0.000193726 -0.00128294
2264 1 11.3621 16.9498 2.53359 -0.000579353 -0.00429036 -0.00020461
2265 1 8.85502 16.9528 2.57794 0.0064532 -0.00480066 0.00546246
2266 1 10.1404 15.1475 3.88598 0.00267818 0.00422457 -0.00865977
2267 1 7.56455 14.1781 2.59055 -0.00153336 -0.000537517 -0.0059548
2268 1 8.81814 16.0479 3.81105 0.00908695 0.00172028 -0.000268335
2269 1 6.27546 16.0082 3.82734 -0.00390417 -0.00464647 0.00701907
2270 1 7.60554 14.2421 5.1627 0.00742721 -0.00710466 -0.00180926
2271 1 7.52887 15.0808 3.86201 -0.00391568 0.00442891 0.00131441
2272 1 8.84106 16.9375 5.12234 0.00887882 0.00461079 -0.00469112
2273 1 6.36202 16.9109 5.13005 0.00502228 0.00850157 -0.00676277
2274 1 7.64011 15.1182 6.38945 0.00674633 -0.000455215 -0.00158148
2275 1 5.11415 14.2191 5.13985 0.00663542 0.00691773 -0.00321599
2276 1 6.37508 15.9892 6.39438 -0.000296011 -0.00222746 0.00573338
2277 1 3.84343 16.0714 6.34618 0.00509271 -0.00508059 0.00763468
2278 1 5.13856 14.1993 7.6156 -0.00478005 0.00128911 -0.00162872
2279 1 5.09718 15.0716 6.38387 -0.00201286 -0.00918489 0.00383434
2280 1 6.39587 16.891 7.63758 -0.00213359 0.00569424 0.00216792
2281 1 3.85083 16.9392 7.67765 0.00177912 0.000290349 -0.00519861
2282 1 5.0742 15.1793 8.90171 0.00331759 -0.000836824 0.000620855
2283 1 2.58425 14.2445 7.65619 0.00721895 0.0055036 0.00243784
2284 1 3.78658 16.0196 8.95826 0.00491734 -0.00481684 0.00314904
2285 1 1.23052 16.0135 8.93987 0.00363268 -0.00254967 -0.000793534
2286 1 2.54171 14.254 10.2597 0.00608763 0.00855716 0.00412319
2287 1 2.54598 15.0991 8.92824 -0.0028727 -0.00250238 -0.00313415
2288 1 3.79112 16.883 10.218 -0.00224018 0.000379675 0.00619061
2289 1 1.28975 16.9181 10.1891 -0.00203885 0.00373683 -0.0124038
2290 1 2.52207 15.1561 11.5333 0.00355306 0.00536234 0.00783716
2291 1 0.0055528 14.2571 10.1854 -0.00113174 0.00313939 -0.00385809
2292 1 1.30726 16.027 11.4472 0.00086487 0.00645551 0.00855522
2293 1 0.00969747 14.2197 12.753 -0.00262041 -0.000617486 -0.00358212
2294 1 0.0414071 15.1201 11.4831 0.00381922 -0.00284295 0.00309525
2295 1 1.30153 16.9743 12.7318 0.00272904 -0.00559508 -0.00234036
2296 1 0.0177599 15.136 14.0535 -0.00193498 -0.000145433 -0.00226576
2297 1 18.9083 16.0442 -3.78166 0 0 0
2298 1 18.9083 16.9356 -2.52111 0 0 0
2299 1 17.6478 14.2615 -2.52111 0 0 0
2300 1 18.9083 16.0442 -1.26055 0 0 0
2301 1 16.3872 16.0442 -1.26055 0 0 0
2302 1 17.706 14.2577 -0.0173681 0.00286224 -0.00751787 0.00222242
2303 1 17.6478 15.1529 -1.26055 0 0 0
2304 1 18.8628 16.8965 -0.00267324 0.00165127 0.00239257 -0.00926161
2305 1 16.3644 16.9453 0.0229939 0.00136257 0.00264006 0.00346509
2306 1 17.639 15.1239 1.27391 -0.00133594 0.000425432 0.000997632
2307 1 15.1491 14.2761 -0.0611329 0.00130634 -0.0046879 0.00304031
2308 1 16.3389 16.031 1.25902 -8.86219e-05 0.000508542 -0.00414589
2309 1 13.7916 16.0655 1.29256 0.00278983 -8.28944e-05 0.00887405
2310 1 15.097 14.2807 2.49768 0.00432359 0.000396049 -0.00430666
2311 1 15.0859 15.195 1.24882 -0.00339269 -3.20029e-05 0.000363519
2312 1 16.3746 16.9071 2.57242 -0.000178656 0.00638059 -0.00551956
2313 1 13.8399 16.9305 2.60222 -0.00547985 -0.00432818 -0.00885757
2314 1 15.1505 15.1308 3.82188 -0.00666905 -0.00167938 0.000543841
2315 1 12.5869 14.2626 2.53519 0.00181779 0.00246577 -0.00384754
2316 1 13.8799 16.0196 3.83199 0.00165027 0.000232491 0.00821197
2317 1 11.3371 16.0774 3.86762 -0.00260159 -0.00443463 -0.000404574
2318 1 12.6331 14.2966 5.09126 0.00234679 -0.00574116 -0.00158463
2319 1 12.5847 15.1884 3.7881 -0.000238726 0.000422092 0.00556178
2320 1 13.888 16.8896 5.14192 -0.0050803 -0.00379803 0.000118863
2321 1 11.3918 16.9473 5.12077 0.00571174 -0.000653629 -0.000958859
2322 1 12.6233 15.1719 6.3394 0.0053724 -0.00543401 -0.000560677
2323 1 10.1155 14.3004 5.14007 0.00279495 0.01018 0.00367348
2324 1 11.3585 16.0695 6.3441 0.00155194 0.00420017 0.00391797
2325 1 8.86235 16.0641 6.41075 0.000293698 -0.0118631 -0.00546035
2326 1 10.099 14.2586 7.66492 -5.3932e-05 0.00951721 -0.00203597
2327 1 10.0862 15.1929 6.39499 -0.00473606 -0.0120374 0.00239693
2328 1 11.3534 16.9233 7.6269 -0.00214063 -0.00743036 0.00755455
2329 1 8.85275 17.0109 7.72428 0.00621339 0.000619819 -0.00336987
2330 1 10.1076 15.1597 8.91493 -0.000270813 2.72124e-05 0.000697117
2331 1 7.59617 14.2095 7.70284 0.00353716 -0.00225203 -0.0034628
2332 1 8.86216 16.108 8.95692 -0.00645975 0.00259883 -0.00187372
2333 1 6.38277 16.0519 8.89975 0.00118469 -0.0078287 0.00419235
2334 1 7.58081 14.2569 10.199 0.00840705 0.00579371 0.00136039
2335 1 7.63081 15.1526 8.92989 0.00655265 8.47185e-05 -0.00922301
2336 1 8.84391 16.933 10.2603 -0.00323952 0.00238428 0.00152324
2337 1 6.32639 16.9585 10.1981 0.000476015 -0.00163027 -0.00109865
2338 1 7.5599 15.1384 11.4818 0.00153712 -0.000537187 0.00274984
2339 1 5.04376 14.2702 10.191 0.00726973 0.00577234 0.0019828
2340 1 6.307 16.0482 11.4769 0.0003369 0.000919966 0.00263133
2341 1 3.76013 16.0996 11.4988 -0.003689 0.0075854 -0.00170096
2342 1 5.03738 14.2547 12.6964 0.000878536 0.00321838 -0.00743955
2343 1 5.0461 15.1606 11.4498 -0.00219951 -0.00310527 0.00674467
2344 1 6.26327 16.9748 12.716 -0.00305644 -0.00586793 0.00963702
2345 1 3.74769 16.9517 12.8354 0.00805967 -0.00200891 -0.000170678
2346 1 5.00694 15.1213 13.9836 -0.00482769 0.00629415 -0.00292991
2347 1 2.53247 14.2595 12.76 0.00492701 0.00216819 0.000267318
2348 1 3.75722 16.0138 14.0464 -0.00684639 0.00178084 -0.00329678
2349 1 1.26247 16.0526 14.0295 0.0023787 0.00305747 -0.000876662
2350 1 2.53296 14.197 15.2827 -0.00627496 0.00173935 -0.00187034
2351 1 2.48891 15.1523 14.059 0.0142683 -0.000368388 0.0133464
2352 1 3.79015 16.9539 15.3239 -0.00320104 0.00394719 -0.00844822
2353 1 1.24316 16.9191 15.3044 0.000595039 -0.00753603 0.00203693
2354 1 2.54636 15.1072 16.5489 -0.00152143 0.00475379 -0.00546254
2355 1 0.0499176 14.191 15.3053 -0.00097588 -0.00756692 0.00258846
2356 1 1.34728 16.0656 16.5453 -0.000291484 -3.42838e-05 0.00199354
2357 1 0.0552877 14.2352 17.8035 0.00318067 0.00345921 1.9043e-06
2358 1 0.0132603 15.163 16.5692 0.00233697 -0.00982132 -0.0062516
2359 1 1.3054 16.9098 17.8123 0.00734041 -0.00326912 -0.0066886
2360 1 0.0470371 15.1187 19.0595 0.00149831 0.0012769 -0.00688861
2361 1 18.8859 15.9802 1.2655 0.00675708 0.00234702 0.000475465
2362 1 18.9155 16.9337 2.53499 -0.00246072 0.00124356 0.00345091
2363 1 17.6142 14.2668 2.58639 0.00140002 -0.00110669 0.00792867
2364 1 18.9512 16.0749 3.85523 0.000201605 -0.00195729 -0.00130383
2365 1 16.3902 16.0255 3.85786 0.00349159 0.00744259 -0.00425537
2366 1 17.6358 14.2342 5.11346 0.00434898 0.0025411 -0.000497454
2367 1 17.6569 15.1209 3.82623 -0.00777046 -0.00432226 0.00470778
2368 1 18.9083 16.916 5.12163 0.0024301 -0.00414693 -0.000199251
2369 1 16.3859 16.8893 5.08646 0.00605347 0.00402767 -0.0039298
2370 1 17.7329 15.1429 6.37027 -0.000156952 0.00103496 0.00252225
2371 1 15.1574 14.2767 5.0475 0.00869907 -0.00438742 0.00419986
2372 1 16.3985 16.0114 6.39157 -0.00220169 0.00548533 -0.000431755
2373 1 13.9082 15.9999 6.34491 -0.00341143 0.000495197 -0.0029365
2374 1 15.169 14.2759 7.66058 -0.00836442 -0.00938105 0.00501039
2375 1 15.1716 15.0992 6.36773 -0.00164052 -0.0010339 -0.00260736
2376 1 16.4208 16.919 7.60622 0.00395641 0.00245426 -0.000227052
2377 1 13.913 16.8649 7.64267 -0.00149224 0.0034079 1.6434e-05
2378 1 15.1508 15.1452 8.88813 -0.00166692 0.00642575 0.00174567
2379 1 12.6203 14.3122 7.61566 -0.003072 -0.0081624 0.00720916
2380 1 13.8696 16.0711 8.92909 -0.000990194 0.00278574 0.00597191
2381 1 11.363 16.0222 8.92751 0.00389257 0.0025039 0.0027577
2382 1 12.6295 14.3005 10.1904 0.00160734 0.0035279 0.00955775
2383 1 12.6292 15.2089 8.9259 0.00385735 -0.00135107 -0.00256009
2384 1 13.912 16.9326 10.1933 -0.00182746 0.0031495 -0.00384516
2385 1 11.3413 16.9403 10.2288 0.002571 0.00312258 -0.00305148
2386 1 12.5912 15.1225 11.4767 -0.00257551 -0.00374057 0.00563758
2387 1 10.0901 14.2691 10.2075 -0.000297642 0.00330392 0.00153614
2388 1 11.3292 16.0804 11.4947 0.00256929 0.00591485 -0.00561776
2389 1 8.78345 16.0294 11.4821 0.00322941 0.00151768 0.00603324
2390 1 10.0706 14.303 12.7557 0.00450143 0.00353282 -0.00686952
2391 1 10.0997 15.1841 11.4706 0.000292683 -0.00314464 0.00165835
2392 1 11.2931 16.9779 12.7532 -0.00184891 -0.00832915 0.00400295
2393 1 8.76951 16.9689 12.7081 0.00138077 -0.000665887 0.00901339
2394 1 10.0864 15.2584 13.9937 0.00917613 -0.000430124 0.000790923
2395 1 7.57577 14.2284 12.7442 0.00298612 0.00109672 -0.00130264
2396 1 8.74951 16.0525 14.0088 -0.0114647 -0.00911783 0.00118552
2397 1 6.20029 16.0438 13.9781 0.00198284 -0.00344538 -0.000355303
2398 1 7.54888 14.2483 15.2747 0.00661447 -0.000461069 -0.00333065
2399 1 7.52092 15.1377 14.0031 -0.00852426 -0.00469154 -0.00250659
2400 1 8.79572 16.9218 15.2349 0.00299606 0.0102203 -0.00665973
2401 1 6.2727 16.9655 15.2121 -0.00419203 0.00235269 -0.00116139
2402 1 7.55334 15.1858 16.5556 -0.00481544 0.00439461 -0.000945374
2403 1 5.07408 14.2475 15.3295 -0.00215774 -0.00365267 -0.0025594
2404 1 6.31992 16.0719 16.5173 -0.00719406 -0.00616335 -0.00797935
2405 1 3.84321 15.993 16.5398 -0.00449315 0.00351537 -0.0114973
2406 1 5.08378 14.2729 17.8281 0.00159646 0.00110468 -0.00456723
2407 1 5.09825 15.171 16.5635 -0.000887377 0.00481106 0.00217829
2408 1 6.33371 16.9471 17.8173 0.00263951 0.00281459 -0.000606939
2409 1 3.8111 16.8666 17.8019 -0.000264814 0.00814822 0.00471959
2410 1 5.04982 15.175 19.1202 -0.00211627 -0.00170237 0.000652636
2411 1 2.50138 14.1629 17.7928 -0.00666964 0.00314734 -0.0121282
2412 1 3.73915 16.0002 19.0618 0.00141046 -0.00376115 -0.00206769
2413 1 1.3273 16.0161 19.0702 -0.00394953 -0.0016227 0.00478431
2414 1 2.53406 14.2639 20.3495 -0.00754544 -0.00258048 -0.00368531
2415 1 2.57018 15.0795 19.0483 0.00159513 0.00645102 -0.00478224
2416 1 3.76303 16.8496 20.3263 -0.000478613 -0.00673236 0.00374541
2417 1 1.27892 16.8855 20.3301 0.00519294 -0.00665982 0.00778175
2418 1 2.4853 15.1203 21.6466 -0.00259586 0.00338596 -0.00241371
2419 1 0.0607972 14.2252 20.3173 0.00178875 0.000388222 -0.00225398
2420 1 1.24179 16.0558 21.597 -0.00965529 0.00541453 0.0015627
2421 1 0.0424119 14.2073 22.9177 0.00143526 0.0045526 0.00106585
2422 1 20.1565 15.1717 21.6148 -0.00596548 0.00283294 -0.0115522
2423 1 1.28308 16.9243 22.9232 0.00675648 0.00162163 0.00512789
2424 1 0.0213045 15.1208 24.1641 0.0095839 0.00306694 -0.009215
2425 1 18.9627 16.0163 6.35595 0.00582626 0.0113548 0.000670072
2426 1 18.9234 16.9181 7.61056 0.00770172 -0.00560329 0.00235425
2427 1 17.6579 14.2923 7.62887 -0.00569979 0.00900668 -0.0050691
2428 1 18.9557 16.023 8.87194 -0.00181515 -0.00517515 -0.000996007
2429 1 16.46 16.0381 8.90742 0.00634297 0.00118713 0.00481676
2430 1 17.7052 14.2595 10.1662 0.00451984 0.00316064 -0.00330089
2431 1 17.6769 15.1385 8.89388 0.00408661 -0.00276003 0.00114832
2432 1 18.9536 16.9569 10.1551 -0.0122562 0.000989992 0.0021225
2433 1 16.4122 16.922 10.1816 -0.00240754 -0.00331657 0.00284098
2434 1 17.6833 15.1826 11.4615 -0.010399 0.00622808 0.00201724
2435 1 15.121 14.2436 10.1158 0.00859202 0.0027051 0.0032822
2436 1 16.4053 16.0518 11.4773 -0.0010633 -0.00605001 -0.00289314
2437 1 13.9099 16.0214 11.4362 -0.00258106 -0.0018246 -0.0104968
2438 1 15.1293 14.2769 12.722 0.00885185 -0.00970926 0.00152118
2439 1 15.1502 15.172 11.4476 0.00550822 -0.00880868 -0.00377151
2440 1 16.4137 16.9089 12.7318 -0.00156655 0.00435116 -0.00436074
2441 1 13.9241 16.934 12.6612 0.00012773 0.00662538 -0.0110875
2442 1 15.1316 15.1 13.9668 0.0051334 -0.00371072 -0.00244962
2443 1 12.6019 14.2605 12.7096 0.00629716 -0.00157661 -0.008814
2444 1 13.8886 16.037 13.9128 0.00584323 -0.00469628 -0.00837162
2445 1 11.3534 16.1061 13.9752 0.00650152 0.00429972 -0.00388666
2446 1 12.5729 14.3179 15.318 0.00505304 0.00214103 0.00268791
2447 1 12.5954 15.2187 13.934 0.00509431 -0.00512448 0.00327642
2448 1 13.9017 16.9593 15.2149 0.0036323 0.000955007 -0.00311557
2449 1 11.4016 16.9686 15.2525 -0.000608797 -0.0110952 0.00169456
2450 1 12.6376 15.1895 16.5749 -0.00851804 0.00165456 0.00272369
2451 1 10.1037 14.3395 15.2733 -0.000914187 -0.000259692 0.00230896
2452 1 11.3568 16.1031 16.5216 -0.00487604 -0.00742599 -0.000119007
2453 1 8.82619 16.0716 16.5444 -0.0064182 0.000693126 0.000826959
2454 1 10.1283 14.3365 17.8179 -0.00655155 -0.00113189 -0.000656307
2455 1 10.1636 15.1801 16.5462 -0.00572606 -9.82011e-05 -0.00409784
2456 1 11.3709 16.9547 17.8482 0.00582057 -0.0105093 -0.00840788
2457 1 8.79004 16.9754 17.7917 0.00232643 -0.00366102 -0.0039194
2458 1 10.0861 15.1844 19.1173 -0.00525339 -0.00344067 -0.00526496
2459 1 7.58794 14.3335 17.8335 0.00317399 -0.00449993 -0.00196979
2460 1 8.81348 16.0931 19.0848 -0.00603172 -0.00236887 -0.0010551
2461 1 6.34004 16.0682 19.0947 0.00527876 0.00161426 -0.00441873
2462 1 7.58326 14.2683 20.326 0.00255386 0.000661974 -0.000514179
2463 1 7.5678 15.1642 19.1177 -0.00544701 -0.00270186 -0.00456778
2464 1 8.85208 16.9382 20.3506 0.00665263 -0.00553238 -0.0142172
2465 1 6.29963 16.9273 20.3408 -0.00909942 0.00125804 0.00275031
2466 1 7.57709 15.16 21.6415 -0.00137441 -0.000706471 -0.00499157
2467 1 5.07208 14.2545 20.3848 0.0068797 -0.00190049 -0.00440557
2468 1 6.3101 16.064 21.6219 -0.00822846 -0.000437136 -0.00797885
2469 1 3.7958 16.0271 21.6162 0.00334354 0.000676755 0.00205694
2470 1 5.08462 14.2608 22.9034 -0.00999979 0.000484969 0.00668751
2471 1 5.08587 15.1943 21.6365 0.000630981 0.0029083 -0.00679258
2472 1 6.3162 16.9446 22.8817 0.00773531 -0.00499713 -0.00430957
2473 1 3.77991 16.8862 22.8934 0.00256885 0.000660988 -0.00214749
2474 1 5.04611 15.1677 24.2142 0.00185996 0.00130283 0.00871129
2475 1 2.5415 14.246 22.9342 0.00588877 0.0058482 -0.00361715
2476 1 3.75886 16.0227 24.1512 0.0031328 0.00318003 0.000102956
2477 1 1.23906 15.9906 24.2222 0.00186984 0.00176136 -0.00357936
2478 1 2.50135 14.2681 25.4647 0.00107034 -0.00206934 0.00375684
2479 1 2.49326 15.0719 24.1687 -0.0014341 -0.00417169 -0.00149348
2480 1 3.76089 16.9649 25.4037 0.000622156 -0.00433312 -0.00485122
2481 1 1.30635 16.9292 25.39 -0.00285907 -0.00136129 0.00275943
2482 1 2.51294 15.15 26.6904 -0.00532773 0.00338838 -0.00324685
2483 1 0.0101171 14.2647 25.4086 -0.0055377 0.00179114 -0.00791813
2484 1 1.24223 16.0445 26.6623 0.00362217 -0.00046032 0.00292371
2485 1 0.00360697 14.2664 27.9393 -0.00142502 -0.00335596 -0.00893304
2486 1 0.0403142 15.1639 26.6669 0.00200491 0.00116438 0.0096618
2487 1 1.26013 16.9336 27.9664 0.00108986 0.000690398 -0.00604824
2488 1 20.1684 15.1967 29.1898 0.00198428 0.0109789 0.00383941
2489 1 18.9296 16.018 11.4187 -0.00312163 0.00711353 -0.00200859
2490 1 18.9501 16.9347 12.6686 -0.00279265 0.0054665 0.00524783
2491 1 17.662 14.2673 12.7819 0.00573281 -0.00471295 0.00407968
2492 1 18.9294 16.0222 13.9991 -0.00693498 0.00358987 0.00262978
2493 1 16.3626 16.0208 14.0158 -0.00547591 -0.00201733 0.000909172
2494 1 17.6395 14.2598 15.3271 -0.00203854 0.00290186 0.00324584
2495 1 17.6307 15.1275 14.0201 0.00344654 0.0054326 -0.00679039
2496 1 18.9189 16.9337 15.2498 -0.00564802 -0.00306371 -0.00413523
2497 1 16.3539 16.8572 15.2853 -0.000455618 -0.00168003 -0.00691379
2498 1 17.6471 15.1198 16.5535 -0.00303139 0.00221259 -0.00162715
2499 1 15.0969 14.2873 15.2602 -0.00230766 -0.000675983 0.00128763
2500 1 16.4251 16.0454 16.6175 0.00638394 -0.00311617 -0.00161299
2501 1 13.8794 16.0555 16.5886 0.00155998 0.00166774 -0.00258083
2502 1 15.1596 14.2227 17.7943 0.00798935 0.00478736 0.00711818
2503 1 15.129 15.1685 16.5716 -0.00982205 0.00220613 -0.00100857
2504 1 16.4338 16.8906 17.903 0.00698235 -0.007685 0.00558405
2505 1 13.9064 16.9395 17.8756 -0.00831592 0.00166012 -0.00635473
2506 1 15.1308 15.1029 19.0924 -0.000820865 0.00198654 0.00472065
2507 1 12.6401 14.2777 17.7993 0.00251198 -0.00275015 -0.0147502
2508 1 13.9095 16.0259 19.1255 0.0100568 -0.00066087 0.00167472
2509 1 11.4097 16.0677 19.1204 0.00181708 -0.00162098 -0.00835389
2510 1 12.6629 14.2136 20.3853 0.000175476 0.00676379 0.00544609
2511 1 12.6564 15.1648 19.1131 0.00193082 -0.00211025 -0.00111776
2512 1 13.9505 16.8976 20.3737 0.00172558 -0.00314597 0.000840638
2513 1 11.3565 16.9595 20.3615 0.00446583 -0.0019982 0.000833277
2514 1 12.6292 15.1277 21.6592 -8.45831e-05 -0.00381739 0.00287045
2515 1 10.1905 14.2488 20.3493 -0.0044686 0.0024296 -0.00459481
2516 1 11.3958 16.0319 21.643 0.000593831 -0.000739656 0.00442356
2517 1 8.85899 16.0561 21.6051 0.00447879 -0.00176608 0.00544938
2518 1 10.1327 14.2204 22.8868 -0.00632674 0.00777085 -0.00425421
2519 1 10.1311 15.1517 21.6607 0.00427563 -0.00199512 -0.000662248
2520 1 11.3624 16.9665 22.9137 -0.00584645 -0.000281173 -0.00252051
2521 1 8.8353 16.96 22.8912 -0.00973741 -0.00118328 -0.00744339
2522 1 10.0671 15.0914 24.1628 0.00175218 0.00151211 0.00454209
2523 1 7.61103 14.2925 22.9256 -0.00398761 0.0066722 0.001442
2524 1 8.83334 16.0387 24.1959 -0.00195266 -0.00257473 0.00509487
2525 1 6.3039 16.0654 24.156 -0.00921704 -0.00686499 0.00109142
2526 1 7.51694 14.3085 25.4329 -0.00124672 -0.00482283 0.00119919
2527 1 7.55047 15.1706 24.1802 -0.00268161 -0.00187944 -0.0041678
2528 1 8.7866 16.9065 25.4232 -0.00391389 -0.00785062 -0.000304424
2529 1 6.24964 16.9228 25.4511 -0.00117432 0.000889398 -0.000309272
2530 1 7.54505 15.1247 26.7118 0.00184154 -0.000548163 0.00418639
2531 1 5.023 14.2975 25.4681 3.38359e-05 -0.00501131 0.00866664
2532 1 6.23715 16.0237 26.7476 0.00250488 -0.00663986 0.00314677
2533 1 3.79383 16.0719 26.6966 -0.00323557 -0.00404336 0.00689185
2534 1 5.07249 14.2345 27.9727 -0.00647766 -0.00373051 -0.00520914
2535 1 5.02175 15.1709 26.7317 0.00097127 0.000545847 -0.000387755
2536 1 6.34608 16.9265 28.0057 -0.00194305 -0.0109129 -0.00227147
2537 1 3.80489 16.9646 27.9572 0.011432 -0.00148774 -0.00360841
2538 1 5.0429 15.1392 29.216 0.00109231 0.00126094 0.0101486
2539 1 2.53608 14.29 27.9568 -0.00164658 -0.00314668 -0.00260306
2540 1 3.8184 16.074 29.2214 0.00535473 0.00299362 0.000611203
2541 1 1.25526 16.0663 29.2463 0.0017086 0.00379721 0.00392356
2542 1 2.52969 14.2897 30.4933 -0.00597924 -0.00502575 0.00164529
2543 1 2.50158 15.194 29.2248 0.00348582 0.00120393 0.00249311
2544 1 3.80195 16.9631 30.4882 0.00534748 0.000638243 -0.00101761
2545 1 1.22456 16.9121 30.545 0.00237383 -0.00471994 -0.0040841
2546 1 2.54103 15.1839 31.8073 -0.00278542 0.00106074 0.0044713
2547 1 0.0358732 14.2781 30.5179 0.00168683 0.00248559 -0.00406722
2548 1 1.2736 16.0764 31.8051 -0.00583489 0.00185861 -0.0133291
2549 1 0.0132686 14.3103 33.0558 -0.00127543 0.00213529 0.00278088
2550 1 0.0156714 15.1348 31.8179 -0.00231002 0.00255686 -0.0075325
2551 1 1.29297 16.9792 33.0267 0.000791325 0.0123403 -0.000188235
2552 1 0.0605707 15.1309 34.3121 -0.00374651 -0.00798374 -0.00713777
2553 1 18.9518 16.0259 16.5175 -0.00102831 0.00523541 -0.00736687
2554 1 18.8943 16.8737 17.8224 0.00718587 0.00247461 -0.00167673
2555 1 17.7158 14.2461 17.8441 -0.00178353 -0.00077647 0.00264398
2556 1 18.9346 16.0072 19.0631 -0.00673135 -0.00439589 0.000894483
2557 1 16.4732 16.0109 19.1306 -0.00892122 -0.011847 0.0107318
2558 1 17.7211 14.2553 20.3761 0.00217212 -0.00412768 -0.00980401
2559 1 17.7063 15.1513 19.0897 -3.73556e-05 -0.00129793 -0.00278725
2560 1 18.9314 16.9437 20.2969 -0.00769525 -0.00197722 0.00261376
2561 1 16.433 16.9147 20.4156 0.00219131 0.000998526 0.00420444
2562 1 17.6996 15.1307 21.6273 -0.00112 -0.0016316 -0.00806209
2563 1 15.2174 14.2615 20.3664 -0.00258545 -0.000191538 0.00154368
2564 1 16.4039 16.0714 21.6524 0.00492559 0.00545707 -0.00094021
2565 1 13.8652 16.0154 21.6253 -0.00146417 0.00143337 0.00232213
2566 1 15.1395 14.2783 22.9061 0.00323274 0.000648132 -0.00348569
2567 1 15.1483 15.128 21.6033 -0.00395449 0.00181032 -0.00461691
2568 1 16.4172 16.9689 22.9093 -0.0101651 -0.0105159 -0.00635736
2569 1 13.8556 16.939 22.9101 -0.00428098 0.000667991 0.00279094
2570 1 15.0669 15.1351 24.0874 0.0115142 -0.00833731 -0.000678127
2571 1 12.6906 14.2712 22.9171 -0.000554016 -0.00268256 0.00032294
2572 1 13.8278 16.04 24.2058 0.00630055 0.00256198 -0.00096699
2573 1 11.3259 15.9853 24.1988 -0.00566581 -0.00420188 -0.00376982
2574 1 12.5731 14.2414 25.4426 0.00232751 0.0042771 0.0059237
2575 1 12.5769 15.1801 24.2091 -0.00524065 0.00656878 0.00314491
2576 1 13.8549 16.9642 25.4077 -0.00172048 -0.00314799 0.00226049
2577 1 11.3383 16.9375 25.4176 0.012061 -0.00536632 -0.0054244
2578 1 12.5679 15.1543 26.7275 0.00160477 -0.00188826 0.00433819
2579 1 10.041 14.2245 25.4174 -0.00504886 -0.000589504 -0.000270973
2580 1 11.3634 16.0107 26.687 -0.000892542 -0.000187404 -0.00158593
2581 1 8.85043 16.0411 26.6996 -0.00695959 0.0100829 -0.000900197
2582 1 10.0522 14.2191 27.9498 0.00402233 -0.00492197 0.00523481
2583 1 10.0856 15.1092 26.6713 -0.00263006 -0.00368118 -0.00289705
2584 1 11.3277 16.9372 27.986 -0.000418334 0.00917512 -0.00168371
2585 1 8.85322 16.8781 27.9385 0.00179329 0.0101146 -0.00554913
2586 1 10.0594 15.1216 29.2408 0.00593594 0.0057443 -0.00176604
2587 1 7.5741 14.2952 27.976 0.004225 -0.000686451 -0.00667004
2588 1 8.82923 16.0518 29.2566 -0.00274645 0.00198487 -0.00529831
2589 1 6.30937 16.0295 29.2562 -0.000397129 -0.00176749 0.000660139
2590 1 7.58657 14.2226 30.5149 0.0043526 -0.00449369 0.000746007
2591 1 7.59084 15.1154 29.3038 0.00812188 -0.00297934 0.0023305
2592 1 8.84139 16.948 30.5127 0.00413673 -0.00164 -0.000742221
2593 1 6.35437 17.0046 30.4949 0.0012393 0.00589244 -0.00148961
2594 1 7.54099 15.1479 31.7915 -0.00522166 0.00360495 -0.0119305
2595 1 5.0703 14.2729 30.4671 -0.00322836 0.00957398 -0.00672224
2596 1 6.275 16.0937 31.703 -0.00717218 -0.00220574 -0.00170049
2597 1 3.84142 16.0911 31.7581 0.00512175 -0.00222319 -0.00111662
2598 1 5.02174 14.2654 33.048 0.00105064 0.00224544 -0.0023714
2599 1 5.00944 15.1807 31.7659 -0.00328004 -0.0100102 0.00102322
2600 1 6.24753 16.9459 33.0508 -0.00825069 -0.00349045 0.00504632
2601 1 3.81884 16.9107 33.0739 0.00618628 -4.79701e-05 -0.00316058
2602 1 5.02722 15.1905 34.295 0.00206251 -0.00859104 -0.00241993
2603 1 2.60434 14.3109 33.0351 -0.00882392 0.00343119 -0.00321797
2604 1 3.74655 16.0627 34.4188 0.00206946 -0.00203432 -0.00605002
2605 1 1.33712 16.087 34.289 -0.00275821 -0.00153064 -0.00295192
2606 1 2.49988 14.2734 35.5628 -0.00779533 0.00742068 -0.00248341
2607 1 2.48346 15.1696 34.3384 -0.0069478 -0.00703539 0.00167471
2608 1 3.77273 16.9525 35.6537 -0.00138635 0.000158844 0.00118197
2609 1 1.25128 16.9075 35.5108 -0.00559897 -0.0014203 -0.000881032
2610 1 2.54259 15.1718 36.9331 0.00199877 -0.000438217 -0.00865944
2611 1 20.1462 14.2313 35.5526 0.00298445 -0.00914417 -0.00599723
2612 1 1.24693 16.0405 36.8619 -0.00435002 -0.00155039 -0.0044799
2613 1 20.113 14.2754 37.9426 -0.00350415 -0.00741351 -0.00746251
2614 1 20.1376 15.2035 36.8095 -0.00293676 -0.00516583 -0.000136507
2615 1 1.21346 16.994 37.998 -0.00513946 -0.00958798 0.00262307
2616 1 18.9443 16.046 21.6142 0.00385266 0.0139147 0.00411656
2617 1 18.9274 16.9408 22.8588 -0.00414548 0.00401437 -0.00455225
2618 1 17.7204 14.2742 22.897 -0.000403445 0.00232189 -0.00438744
2619 1 18.9139 16.0531 24.172 0.00547537 -0.00239713 -0.00322817
2620 1 16.3833 16.0491 24.1364 0.00147921 -0.0017632 0.00151811
2621 1 17.6262 14.2116 25.4336 0.00150016 0.00435436 -0.0127825
2622 1 17.7012 15.1713 24.1618 0.00203916 -0.0111679 0.00229674
2623 1 18.8939 16.9243 25.4054 0.00246525 -0.00448257 -0.000538701
2624 1 16.3733 16.9085 25.4056 -0.00282236 -0.0091476 -0.00477521
2625 1 17.6272 15.1115 26.677 0.000391039 0.00282269 0.0055245
2626 1 15.1131 14.2427 25.402 -0.0029949 -0.00209809 -0.000538708
2627 1 16.3701 15.9837 26.6519 0.00751219 -0.000407715 -0.00988825
2628 1 13.8455 16.0349 26.6919 0.00490665 0.000774571 -0.0102302
2629 1 15.0786 14.2212 27.935 0.00367248 -0.00621768 -0.00854097
2630 1 15.0435 15.1589 26.6931 0.00293924 0.00740969 -0.00203134
2631 1 16.3758 16.8956 27.9245 -0.00242254 -0.00719706 0.006276
2632 1 13.8449 16.9406 27.9508 -0.000423108 0.011664 -0.00539578
2633 1 15.121 15.124 29.202 -0.00407672 -0.00524825 -0.00381612
2634 1 12.5614 14.281 27.9965 0.000592593 -0.0017112 0.000680035
2635 1 13.8222 16.0327 29.1991 0.00180799 5.00924e-05 -0.00167013
2636 1 11.3308 15.988 29.255 0.00553078 0.00502441 -0.00980103
2637 1 12.614 14.2617 30.5287 0.000630291 -0.00838786 0.000300265
2638 1 12.5474 15.1266 29.2508 -0.00072644 -0.00505395 -0.00170932
2639 1 13.8134 16.9279 30.4462 0.00307333 -0.00381945 -0.00819562
2640 1 11.304 16.9936 30.529 -0.00425825 0.00422502 0.000668932
2641 1 12.6053 15.2436 31.7731 0.00561546 -0.00317423 0.00303346
2642 1 10.1035 14.2213 30.5301 -0.00202926 -0.000194435 -0.000686071
2643 1 11.3166 16.0597 31.7704 -0.00323491 -0.00106391 0.00196781
2644 1 8.77155 16.0551 31.7533 0.00436047 0.00380766 0.00190909
2645 1 10.0966 14.3052 33.026 0.00260879 -0.00898271 0.000811469
2646 1 10.072 15.1647 31.7579 0.00222723 -0.00384094 0.00764127
2647 1 11.2953 16.9139 33.0242 0.00560553 -0.00452957 -0.00293437
2648 1 8.77858 16.9343 33.0398 -0.00167556 -0.00242549 0.0027803
2649 1 10.0746 15.1585 34.2806 0.00339639 0.00243411 -0.00520113
2650 1 7.54472 14.2751 33.0782 0.00705247 0.00431139 -0.00195571
2651 1 8.83005 16.0401 34.3124 0.0120153 0.00563776 -0.00245003
2652 1 6.24095 16.0874 34.2864 -0.00184108 -0.00398256 -0.00431751
2653 1 7.49582 14.2576 35.56 0.00398664 -0.00306441 -0.00374133
2654 1 7.52203 15.1429 34.2924 0.00690071 0.00463638 0.0042307
2655 1 8.84763 16.9839 35.519 0.00719645 0.000859272 -0.00523047
2656 1 6.30008 16.996 35.6215 0.00909428 -0.00529166 -0.00727036
2657 1 7.58077 15.2125 36.8797 0.000856144 -0.00442889 0.00072249
2658 1 5.04191 14.2922 35.5595 -0.00178122 0.00266117 -0.00907101
2659 1 6.24762 16.0733 36.8795 -0.00849717 0.000813987 0.00190618
2660 1 3.7451 16.0154 36.9543 -0.000815829 0.00951857 -0.00626513
2661 1 4.99411 14.1661 38.1078 0.00331697 -0.000757262 -0.00190695
2662 1 4.94648 15.1607 36.9856 0.000492438 -0.00200054 -0.00128464
2663 1 6.29844 17.0769 38.0292 -0.00332814 -0.00174978 0.00692063
2664 1 3.79785 17.0589 38.1217 0.00194239 0.00435199 -0.00242748
2665 1 2.53984 14.0781 37.9679 -0.00194805 -0.0102909 0.00666062
2666 1 18.9148 15.9855 26.6458 -0.00746442 -0.00597973 0.00508403
2667 1 18.8824 16.9554 27.9044 0.00133944 0.00516145 0.000739552
2668 1 17.602 14.2713 27.9241 -0.00538566 0.00598548 -0.00742315
2669 1 18.9023 16.0415 29.1757 -0.00376546 0.00242483 -0.00105829
2670 1 16.3486 16.0404 29.1748 -0.0115469 4.07958e-05 -0.00318825
2671 1 17.6037 14.2757 30.4913 -0.00497767 0.00492946 -0.00416231
2672 1 17.6005 15.146 29.2095 -0.00479318 0.00380599 -0.00705574
2673 1 18.8722 16.9146 30.4655 -0.0063774 -0.000949242 0.00323734
2674 1 16.3246 16.9085 30.4352 -0.00278015 0.00395418 -0.000568171
2675 1 17.633 15.1885 31.7329 0.00388112 -0.00130427 -0.0121779
2676 1 15.0897 14.2922 30.4698 0.0109779 -0.000667457 0.00256049
2677 1 16.3531 16.0427 31.7347 0.00377899 -0.00239643 0.00247616
2678 1 13.8744 16.0242 31.7012 -0.00175858 0.00389915 -0.00222466
2679 1 15.101 14.251 33.0261 0.00583797 -0.000247855 -0.00233413
2680 1 15.1379 15.1333 31.7358 0.0064005 -0.00433248 -0.00030533
2681 1 16.3689 16.9402 33.0036 0.0016213 0.00355606 -0.00371655
2682 1 13.8604 16.8953 32.9758 0.0039076 -0.00033478 0.00471177
2683 1 15.0787 15.1743 34.3197 0.00440773 -0.00427607 -0.0108811
2684 1 12.5953 14.271 33.0536 0.00355961 0.0027446 -0.000308836
2685 1 13.8795 16.0569 34.3285 0.00260138 0.000450641 0.00189177
2686 1 11.3135 16.048 34.2805 0.00395279 0.00451318 0.00176889
2687 1 12.5542 14.2519 35.5467 -0.00208497 0.00538368 -0.00170289
2688 1 12.6001 15.0998 34.2933 -0.00271354 0.00300564 -0.00432102
2689 1 13.8749 16.9408 35.5529 -0.00511512 0.00873346 -0.00381157
2690 1 11.4137 16.9399 35.5718 0.0051673 0.00417795 -0.000315609
2691 1 12.625 15.2029 36.8944 0.00646026 -0.00722223 -0.00588392
2692 1 10.0416 14.2505 35.5968 -0.00793736 0.010064 -0.00959919
2693 1 11.3791 16.0658 36.8495 -0.00294313 -0.00170411 0.00173425
2694 1 8.80456 16.1248 36.7829 -0.00481474 0.00776206 0.00246118
2695 1 10.0585 14.2714 38.1149 0.00417811 0.00146448 -0.00626882
2696 1 10.1084 15.1899 36.8408 -0.00357467 0.00516787 -0.000959211
2697 1 11.4153 17.132 37.9396 -0.00432483 -0.00078198 0.000541764
2698 1 8.87352 17.1157 37.9848 -0.00430594 -0.000339765 -0.00621039
2699 1 7.58713 14.2409 38.0185 0.00421479 0.00403383 0.000221219
2700 1 18.8752 16.0505 31.7492 0.0052793 6.28832e-05 0.00103377
2701 1 18.9454 16.9307 33.008 0.00206266 0.00810394 -0.00274929
2702 1 17.6834 14.2643 33.0441 -0.00785139 -0.00372979 -0.00232834
2703 1 18.932 16.0291 34.2409 0.00722398 -0.00176209 -0.0104804
2704 1 16.3423 16.1095 34.2609 0.00510398 -0.00854475 0.00650439
2705 1 17.6023 14.2607 35.4822 -0.00399155 -0.00629873 0.00307047
2706 1 17.6722 15.1637 34.2408 0.00169795 0.000566632 -0.00344341
2707 1 18.8941 16.9424 35.4955 0.00901958 0.00540668 3.80154e-05
2708 1 16.3854 16.9767 35.512 -0.000606268 -0.000797895 0.000327518
2709 1 17.5923 15.2028 36.7841 -0.00153249 0.00320422 -0.00514453
2710 1 15.1272 14.2773 35.6114 -0.00153511 0.00344024 -0.000393267
2711 1 16.4151 16.0823 36.8479 0.00393904 -0.00153268 -0.00296893
2712 1 13.8401 16.0993 36.8797 0.00425629 -0.0096747 -0.00120491
2713 1 15.1734 14.2072 38.0576 -0.011783 0.000159316 -0.00380514
2714 1 15.1576 15.2307 36.8594 -0.00261613 -0.000144553 -0.00182822
2715 1 16.3788 17.0389 38.0156 0.00160344 -0.00325635 -0.00925422
2716 1 13.8574 17.1106 38.0259 0.000551909 2.31478e-05 0.00373976
2717 1 12.6766 14.2539 38.0101 0.00328193 -0.00538071 0.00301043
2718 1 18.8686 16.0552 36.7977 0.00465874 -0.00386123 -0.00191062
2719 1 18.9318 17.0505 37.8958 -0.000913515 0.00598302 -0.00196856
2720 1 17.629 14.1783 37.9126 -0.0101111 0.00626336 0.00607363
2721 1 2.52111 18.7183 -3.78166 0 0 0
2722 1 1.26055 19.6096 -3.78166 0 0 0
2723 1 0 17.8269 -2.52111 0 0 0
2724 1 0 18.7183 -3.78166 0 0 0
2725 1 1.26055 20.501 -2.52111 0 0 0
2726 1 0 18.7183 -1.26055 0 0 0
2727 1 7.56333 18.7183 -3.78166 0 0 0
2728 1 6.30277 19.6096 -3.78166 0 0 0
2729 1 3.78166 19.6096 -3.78166 0 0 0
2730 1 5.04222 17.8269 -2.52111 0 0 0
2731 1 5.04222 18.7183 -3.78166 0 0 0
2732 1 6.30277 20.501 -2.52111 0 0 0
2733 1 3.78166 20.501 -2.52111 0 0 0
2734 1 5.04222 18.7183 -1.26055 0 0 0
2735 1 2.52111 17.8269 -2.52111 0 0 0
2736 1 3.78166 19.6096 -1.26055 0 0 0
2737 1 1.26055 19.6096 -1.26055 0 0 0
2738 1 2.51867 17.859 0.0176076 0.00082627 0.000250254 -0.00390093
2739 1 2.52111 18.7183 -1.26055 0 0 0
2740 1 3.77415 20.5424 0.0184462 0.00515058 -0.000240589 -0.00177477
2741 1 1.21859 20.5079 -0.0250113 -0.0073789 -0.00508238 0.00127095
2742 1 2.49754 18.7515 1.29565 0.00225726 -0.000634208 -0.00911295
2743 1 20.1413 17.8075 0.0461361 -0.00373712 0.0116871 -0.0026612
2744 1 1.25056 19.6089 1.28912 -0.000702137 0.00997093 -0.00460646
2745 1 20.1059 17.843 2.50205 0.00611273 -0.00251458 -0.00332973
2746 1 0.0173391 18.704 1.23965 -0.00131925 -1.73426e-05 -0.00174433
2747 1 1.28789 20.4475 2.54276 0.00222705 -0.00775852 -0.00081355
2748 1 20.1508 18.6703 3.85854 -0.00737606 -0.000317491 0.000393474
2749 1 12.6055 18.7183 -3.78166 0 0 0
2750 1 11.345 19.6096 -3.78166 0 0 0
2751 1 8.82388 19.6096 -3.78166 0 0 0
2752 1 10.0844 17.8269 -2.52111 0 0 0
2753 1 10.0844 18.7183 -3.78166 0 0 0
2754 1 11.345 20.501 -2.52111 0 0 0
2755 1 8.82388 20.501 -2.52111 0 0 0
2756 1 10.0844 18.7183 -1.26055 0 0 0
2757 1 7.56333 17.8269 -2.52111 0 0 0
2758 1 8.82388 19.6096 -1.26055 0 0 0
2759 1 6.30277 19.6096 -1.26055 0 0 0
2760 1 7.60019 17.7913 -0.0427364 -0.0102914 -0.00654264 0.00496871
2761 1 7.56333 18.7183 -1.26055 0 0 0
2762 1 8.81982 20.4532 0.0152597 -0.00733797 -0.00668909 0.000451759
2763 1 6.31761 20.5337 0.0548617 0.0108656 0.00334538 0.0012772
2764 1 7.60092 18.7059 1.32464 0.00705176 -0.00213156 0.00260021
2765 1 5.06903 17.8483 0.0472723 -0.00580298 0.00580678 -0.00373722
2766 1 6.33707 19.5927 1.33066 0.00517085 0.000155305 -0.00279501
2767 1 3.83809 19.6172 1.2669 0.00347056 0.000869407 0.00241572
2768 1 5.015 17.8081 2.56016 0.00299805 -0.00294628 -0.00969136
2769 1 5.10174 18.6842 1.27648 -0.00165672 0.00108138 -0.00178859
2770 1 6.31157 20.4594 2.61292 0.000612698 0.00212868 -0.00468421
2771 1 3.78205 20.5128 2.56715 -0.00249482 0.0062088 0.0010984
2772 1 4.97634 18.7319 3.8563 -0.00699925 -0.00695109 0.000556389
2773 1 2.50465 17.8532 2.56586 -0.00591428 0.00328803 0.000941763
2774 1 3.77063 19.6267 3.7792 -0.00357698 0.00447605 -0.00573528
2775 1 1.26916 19.6219 3.80621 0.000502911 0.000979316 0.00190215
2776 1 2.5408 17.8597 5.14136 -0.0114062 -0.00633487 -0.000341893
2777 1 2.52752 18.7417 3.82061 0.00489503 0.00366595 -0.00734715
2778 1 3.7813 20.5474 5.09437 0.00368252 -0.00198319 0.00431993
2779 1 1.24185 20.4676 5.11383 -4.64018e-05 0.00206101 -0.00615704
2780 1 2.56855 18.7038 6.3819 0.00107548 0.00495416 0.00320506
2781 1 0.0275242 17.7825 5.15237 -0.00397092 -0.00358612 -0.00202264
2782 1 1.26411 19.5632 6.37336 0.00503257 0.00105235 -0.00116272
2783 1 0.000809382 17.788 7.62002 0.000556402 0.00215851 -0.00320495
2784 1 20.1398 18.6867 6.41516 0.00880969 0.001569 0.00719322
2785 1 1.25687 20.4423 7.62232 0.00790333 -0.00486775 -0.00433349
2786 1 0.0116115 18.6945 8.91152 0.00541228 -0.00665564 -0.000695623
2787 1 17.6478 18.7183 -3.78166 0 0 0
2788 1 16.3872 19.6096 -3.78166 0 0 0
2789 1 13.8661 19.6096 -3.78166 0 0 0
2790 1 15.1267 17.8269 -2.52111 0 0 0
2791 1 15.1267 18.7183 -3.78166 0 0 0
2792 1 16.3872 20.501 -2.52111 0 0 0
2793 1 13.8661 20.501 -2.52111 0 0 0
2794 1 15.1267 18.7183 -1.26055 0 0 0
2795 1 12.6055 17.8269 -2.52111 0 0 0
2796 1 13.8661 19.6096 -1.26055 0 0 0
2797 1 11.345 19.6096 -1.26055 0 0 0
2798 1 12.6238 17.8274 0.00797434 -0.0045408 -0.00650276 -0.00348411
2799 1 12.6055 18.7183 -1.26055 0 0 0
2800 1 13.9032 20.5254 -0.0192597 -0.00715536 0.000693884 0.0109533
2801 1 11.2847 20.5188 -0.0203901 0.00239497 0.00442309 0.00177409
2802 1 12.5983 18.7257 1.28187 0.0051624 -5.86149e-06 0.00749953
2803 1 10.1001 17.8711 0.0218957 0.00474602 0.00576237 -0.0116647
2804 1 11.311 19.6153 1.26399 0.00454417 0.00173883 -0.00164444
2805 1 8.83975 19.6354 1.30478 -0.00466687 -0.0037584 0.00236005
2806 1 10.1028 17.8108 2.56484 -0.00240624 -0.00257453 0.00435806
2807 1 10.0808 18.7203 1.29547 -9.15727e-05 -0.00601554 0.00369757
2808 1 11.3344 20.5261 2.52233 0.00174207 0.00157936 -0.00314701
2809 1 8.8417 20.5303 2.57934 0.00531939 -0.00550349 0.00155434
2810 1 10.0816 18.7569 3.88496 0.0019699 -7.23715e-05 0.00155606
2811 1 7.57671 17.8565 2.57307 0.000428173 -0.00263171 -0.00482472
2812 1 8.82855 19.6094 3.87105 -0.00429735 -0.00406388 -0.00532454
2813 1 6.26592 19.6267 3.87774 0.00500063 -0.00393714 -0.00375995
2814 1 7.55057 17.8506 5.09492 -0.00579431 -0.00259136 -0.00156217
2815 1 7.55061 18.752 3.86139 -0.000153881 0.00366144 -0.00560899
2816 1 8.81563 20.4828 5.14622 -0.00508664 0.000614674 -0.000122767
2817 1 6.31428 20.4234 5.09849 -1.60835e-05 -0.00123428 -0.000199019
2818 1 7.53811 18.7225 6.36677 -0.00529984 -0.00307005 -0.00774559
2819 1 5.07767 17.8294 5.10375 0.00273697 0.000933141 0.00652174
2820 1 6.31171 19.566 6.36594 0.000493094 0.00567183 -0.00620394
2821 1 3.79346 19.5904 6.33428 -0.00436473 -0.000190744 -0.000699864
2822 1 5.08077 17.8268 7.61938 0.00425903 -0.00754233 0.00355742
2823 1 5.01799 18.6953 6.34341 -0.00598645 0.00301761 0.00429343
2824 1 6.3074 20.5268 7.63422 0.00327508 -0.00458456 -0.00480355
2825 1 3.79265 20.4817 7.60668 -0.0048312 0.00271939 -0.00254792
2826 1 5.10157 18.7301 8.90685 -0.00363943 0.00363501 0.00531975
2827 1 2.59034 17.773 7.68033 -0.00385536 0.00411094 -0.00253825
2828 1 3.76335 19.635 8.89837 -0.00533368 0.00800506 0.00480004
2829 1 1.26395 19.5795 8.93777 -0.00166726 -0.00342701 -0.0028665
2830 1 2.54031 17.833 10.1577 -0.00619882 -0.00335154 -0.00462656
2831 1 2.49404 18.7136 8.91381 -0.00358284 0.0057647 -0.00678806
2832 1 3.7616 20.4971 10.208 -0.00589092 -0.00213921 -0.00139318
2833 1 1.24701 20.4664 10.1394 -0.00335532 -0.00515922 -0.0105164
2834 1 2.57005 18.692 11.4964 -0.00687832 0.00277367 -0.000572871
2835 1 20.1583 17.8349 10.2067 0.00593727 0.00313802 0.000902607
2836 1 1.30351 19.5782 11.4619 -0.000742449 -0.0046408 -0.00410524
2837 1 0.00993768 17.8331 12.7024 -0.000361792 0.00871686 0.0037651
2838 1 0.038942 18.7354 11.431 0.000158536 0.00157034 -0.00101224
2839 1 1.20961 20.5766 12.7326 0.00445501 0.000885948 -0.00248084
2840 1 20.1489 18.7226 13.9696 0.00593778 -6.01054e-05 -0.00292847
2841 1 18.9083 19.6096 -3.78166 0 0 0
2842 1 18.9083 20.501 -2.52111 0 0 0
2843 1 17.6478 17.8269 -2.52111 0 0 0
2844 1 18.9083 19.6096 -1.26055 0 0 0
2845 1 16.3872 19.6096 -1.26055 0 0 0
2846 1 17.6198 17.8513 0.00951266 0.00561044 0.0034229 -0.00298065
2847 1 17.6478 18.7183 -1.26055 0 0 0
2848 1 18.905 20.5195 -0.0213776 0.00555363 -0.00738423 0.000177798
2849 1 16.3613 20.4441 0.00776505 0.00148888 0.0110285 0.00334571
2850 1 17.6535 18.6908 1.32597 0.00303196 0.00927281 -0.00229374
2851 1 15.1269 17.8518 0.0043025 0.000963348 -0.00685093 0.00261446
2852 1 16.3923 19.6279 1.24524 0.00745518 0.00459009 -0.00114234
2853 1 13.895 19.608 1.25072 -0.00429419 -0.000628057 -0.0133382
2854 1 15.1168 17.8426 2.58836 -0.00276014 0.00427472 -0.00283344
2855 1 15.1136 18.7776 1.24083 -0.000301514 0.00704147 -0.00177426
2856 1 16.4022 20.4846 2.53976 0.00276984 -0.000110899 -0.0131541
2857 1 13.8978 20.4652 2.49802 -0.00232624 0.00303026 0.00289564
2858 1 15.1574 18.6586 3.82155 -0.0030393 -0.00250075 0.00585305
2859 1 12.6338 17.8941 2.56878 0.000225413 0.00330361 0.0015517
2860 1 13.8967 19.6029 3.81653 -0.0130875 -0.0091537 0.00862627
2861 1 11.327 19.6148 3.80381 -0.00248708 0.0033909 -0.000906326
2862 1 12.5939 17.858 5.10589 -0.00385518 -0.00338937 0.0046303
2863 1 12.6376 18.7023 3.88799 0.000942001 -0.00779767 -0.00824881
2864 1 13.8819 20.4507 5.11155 -0.00569065 0.00307759 -0.00216806
2865 1 11.3943 20.5721 5.1191 -0.00167322 0.00782563 -0.00291042
2866 1 12.6179 18.7575 6.42461 0.00783169 -0.0041097 0.00469626
2867 1 10.0883 17.8414 5.10534 -0.00169884 -0.00457998 -0.0015115
2868 1 11.3096 19.6102 6.38948 0.00270722 -0.00520176 -0.00110405
2869 1 8.86166 19.5719 6.42719 -0.00230854 -0.00222967 -0.0060907
2870 1 10.1285 17.8166 7.64503 -0.00204416 -0.00705294 -0.00313591
2871 1 10.0832 18.7063 6.35246 -0.0086736 -0.00317166 0.00109364
2872 1 11.3664 20.4674 7.65709 0.00472908 0.00485504 0.00291402
2873 1 8.90109 20.5008 7.67515 -0.00627362 -0.00767044 -0.000679012
2874 1 10.0841 18.6921 8.97011 0.00889677 0.00179976 0.00667417
2875 1 7.55571 17.8172 7.6879 -0.00889059 -0.00220515 -0.00114483
2876 1 8.85972 19.5742 8.89475 -0.00033309 0.00122741 -0.00101625
2877 1 6.33578 19.5614 8.91251 0.00246929 0.00496234 0.000149708
2878 1 7.5526 17.8807 10.2776 -0.0062576 0.00735741 0.00494374
2879 1 7.5883 18.6929 8.94233 0.0074463 0.00172242 -0.000152369
2880 1 8.86564 20.4747 10.1698 -0.00252183 -0.00265875 0.00144735
2881 1 6.26685 20.5139 10.1795 -0.0064375 -0.0027708 0.000648532
2882 1 7.57203 18.7887 11.4758 0.00468776 -0.00828769 0.000276183
2883 1 5.11008 17.8478 10.2156 0.00328424 0.00145766 0.000412865
2884 1 6.31452 19.6767 11.468 -0.000356182 -0.00151444 0.00553421
2885 1 3.76914 19.63 11.4744 -0.00358442 -0.00677995 -0.00185991
2886 1 5.03011 17.887 12.7297 -0.00202728 0.00447558 -0.000735697
2887 1 5.03364 18.7912 11.4957 -0.00550513 0.000364724 -0.000380679
2888 1 6.28494 20.5615 12.7268 0.00502838 -0.0024696 0.00295747
2889 1 3.77626 20.5519 12.7635 0.00110983 -0.000853423 -0.00352673
2890 1 4.98911 18.7614 13.9837 -0.00157359 -0.0046728 -0.00609898
2891 1 2.54821 17.8213 12.778 -0.00537993 -0.00348411 -0.0024672
2892 1 3.81228 19.7012 14.0131 0.0100161 0.00537255 -0.00786937
2893 1 1.2764 19.6514 13.9527 0.000603753 -0.00298392 -0.0013903
2894 1 2.52287 17.8424 15.2551 0.00320336 -0.00478389 -0.00594218
2895 1 2.56179 18.7214 13.9675 -0.0116355 -0.0036564 0.00335315
2896 1 3.807 20.5757 15.3095 0.00617119 -0.00418149 0.00168936
2897 1 1.28085 20.4731 15.2832 -0.00353748 -0.00356411 -0.0066092
2898 1 2.57323 18.6821 16.5251 -0.00390311 0.0073158 0.000886537
2899 1 0.0325852 17.8238 15.2329 -0.00240518 0.00318838 -0.0050543
2900 1 1.3242 19.5764 16.54 -0.00501596 0.00534722 -7.49202e-05
2901 1 0.0114722 17.7925 17.7821 0.00493051 0.000414934 0.00290289
2902 1 0.0459864 18.6829 16.4989 0.00253562 0.00247552 -0.00273921
2903 1 1.31042 20.4407 17.8829 -0.00170876 -0.00245173 -0.00402655
2904 1 0.0691486 18.6742 19.0237 0.00245158 -0.00522896 0.00247465
2905 1 18.8847 19.5807 1.26102 0.00436415 -0.000784683 0.000664513
2906 1 18.9344 20.455 2.58901 0.00516545 -0.000300533 0.0018793
2907 1 17.5985 17.7612 2.55823 0.00832191 0.00253342 0.000413009
2908 1 18.948 19.6034 3.8498 -0.0027772 -1.48699e-05 -0.000134309
2909 1 16.3944 19.5658 3.83437 -0.00297778 0.00366248 -0.00230333
2910 1 17.6233 17.8148 5.08274 0.00424141 0.00243928 -0.000271064
2911 1 17.6444 18.6976 3.81369 -0.00287228 -3.24808e-05 0.00712346
2912 1 18.8426 20.5137 5.09228 0.0102184 0.00371524 -0.00979625
2913 1 16.3939 20.4957 5.05848 -0.000334942 0.00332045 0.00138381
2914 1 17.6009 18.7372 6.32234 -0.00633517 -0.000320751 -0.005311
2915 1 15.1352 17.785 5.11575 0.000636275 0.00133183 -0.00204259
2916 1 16.319 19.5835 6.36077 -0.00664409 -0.000440415 0.00398572
2917 1 13.8893 19.587 6.34259 -2.10496e-05 0.00560171 -0.00727344
2918 1 15.1744 17.7936 7.68632 -0.00056703 0.00133398 -0.00420858
2919 1 15.1346 18.7402 6.39178 -0.00225983 0.00282499 -0.00875829
2920 1 16.3791 20.5109 7.65668 -0.00357022 0.00698554 0.013485
2921 1 13.8436 20.5171 7.61428 0.0025647 0.00322947 -0.000161702
2922 1 15.1142 18.7424 8.92128 6.14915e-05 -0.00260956 -0.00650093
2923 1 12.6549 17.7936 7.63522 0.00552965 0.00171531 0.000845546
2924 1 13.8599 19.612 8.96181 0.00607806 0.00195612 0.00338114
2925 1 11.375 19.5622 8.96269 0.00291136 -0.000190711 0.0018424
2926 1 12.6695 17.7807 10.2208 -0.00200824 0.00147726 0.00200057
2927 1 12.5976 18.6641 8.91552 0.00756363 -0.00168199 0.00105274
2928 1 13.8946 20.5104 10.2115 0.002195 0.000742191 0.00723651
2929 1 11.4108 20.4989 10.2319 0.000722742 -0.00156575 0.00338746
2930 1 12.6608 18.6933 11.4654 -0.00238454 -0.00892191 0.00339173
2931 1 10.1404 17.8827 10.2574 0.00136717 -0.0054053 0.000808658
2932 1 11.3894 19.5468 11.5406 0.00235515 -0.00298789 -0.00602288
2933 1 8.83265 19.6605 11.4542 0.000568383 -0.00356068 -0.0019023
2934 1 10.0764 17.8487 12.7674 0.00299887 -3.63499e-06 -0.00453919
2935 1 10.0808 18.7114 11.4927 -0.000665733 -0.00226115 -0.000646359
2936 1 11.3889 20.459 12.7809 0.00857021 3.18917e-05 -0.00653128
2937 1 8.82854 20.5426 12.7695 -0.00177465 0.000138836 0.00257858
2938 1 10.0535 18.7816 14.0465 -0.00793212 0.00126589 0.00800493
2939 1 7.54502 17.8559 12.7839 0.00174887 -0.00580135 -0.00218944
2940 1 8.79255 19.614 14.0576 -8.6052e-05 -0.00173032 -0.00901336
2941 1 6.27249 19.6525 14.0078 0.00574147 0.00360893 -0.000241833
2942 1 7.58372 17.8522 15.2681 0.000618102 -0.00399244 0.00383473
2943 1 7.56097 18.7718 14.0243 0.0042547 -0.00446839 0.00276281
2944 1 8.8152 20.5367 15.2864 0.00196177 0.00134907 0.0010702
2945 1 6.26244 20.4964 15.2576 -0.00305808 -0.00218173 -0.00827957
2946 1 7.56143 18.7733 16.5724 0.00467375 -0.00236228 -0.00609579
2947 1 5.04154 17.8732 15.2991 0.000152472 0.00471146 0.00862848
2948 1 6.3116 19.6276 16.5288 0.0023997 -0.00178233 -0.00545903
2949 1 3.81807 19.6384 16.5822 -0.00334086 -0.00197419 -0.00254579
2950 1 5.06509 17.8313 17.8168 -0.00172881 0.00247912 -0.00515952
2951 1 5.02478 18.7391 16.5798 0.0042789 0.00867998 -0.00809353
2952 1 6.29646 20.5689 17.7722 0.0124892 0.00527555 0.00642716
2953 1 3.77536 20.5133 17.7775 0.00259815 0.00137649 0.00431466
2954 1 5.04842 18.7345 19.0863 -0.00732208 0.0116053 -0.00518383
2955 1 2.56932 17.8221 17.7563 -0.00270975 0.00174645 -0.0120278
2956 1 3.76567 19.5956 19.0761 -0.0062337 -0.00527767 0.000863931
2957 1 1.31455 19.5717 19.0945 0.00383094 0.0025517 -0.00057302
2958 1 2.51007 17.7908 20.3261 0.00450762 -0.00044669 -0.000219623
2959 1 2.63596 18.6461 19.0174 0.00931663 -0.00780227 -0.00791341
2960 1 3.77852 20.4963 20.3514 -0.00614574 -0.00349977 0.00450143
2961 1 1.28292 20.4947 20.3547 -0.00204302 0.00131139 -0.00178402
2962 1 2.53055 18.7173 21.6042 0.00850228 0.00160331 0.00895202
2963 1 0.0463801 17.7635 20.291 -0.00313526 -0.000386032 0.000379389
2964 1 1.25829 19.602 21.5725 -0.00444598 -0.00548577 0.0056238
2965 1 0.0659154 17.8184 22.8867 0.00712661 -0.00861699 -0.000747916
2966 1 0.0396243 18.6874 21.5626 -0.000629188 0.00234268 -0.00860974
2967 1 1.27812 20.5066 22.857 -0.00095462 -0.00606121 0.00482692
2968 1 0.038662 18.7274 24.1619 0.00239647 0.00159346 -0.00145382
2969 1 18.9187 19.611 6.33276 -0.00351029 -0.000309763 0.00419012
2970 1 18.9256 20.4686 7.62009 -0.00691019 0.00203239 0.00200969
2971 1 17.6897 17.7941 7.59481 -0.0035261 0.00236923 -0.00292824
2972 1 18.8727 19.5981 8.88568 0.00018352 -0.00457613 -0.00960071
2973 1 16.3937 19.603 8.8776 0.00675267 0.00655802 0.00772251
2974 1 17.7103 17.7984 10.1601 0.00268088 0.000951057 -0.0030311
2975 1 17.6627 18.6523 8.85402 0.000723458 -0.00817766 -0.00219311
2976 1 18.9275 20.4766 10.1821 0.00251159 0.00146957 -0.00236946
2977 1 16.3912 20.4924 10.1608 -0.00201124 0.00411062 0.00379253
2978 1 17.7134 18.6908 11.4161 0.00491992 0.010405 -0.00176288
2979 1 15.1775 17.8282 10.1548 -0.0054875 -0.00111996 -0.00645294
2980 1 16.4107 19.616 11.4208 -0.00504736 -0.00539439 -0.00342605
2981 1 13.9148 19.6312 11.4387 0.00255045 0.00749653 -0.00642899
2982 1 15.1723 17.8342 12.7029 -0.00338038 -0.000822617 0.00317454
2983 1 15.1874 18.7597 11.4447 -0.00606746 -0.000631762 0.00506832
2984 1 16.4259 20.521 12.7259 0.00666363 0.00445942 0.00283923
2985 1 13.8763 20.4632 12.7305 0.00143846 -0.00468329 0.0038694
2986 1 15.172 18.7011 13.9908 0.00472637 -0.00848459 -0.00112106
2987 1 12.6233 17.8263 12.7425 0.00482484 -0.00540139 -0.00213252
2988 1 13.9394 19.5808 13.9634 0.000733506 0.00609822 -0.00940739
2989 1 11.2974 19.6352 14.0416 -0.00125355 9.2179e-05 -0.00358228
2990 1 12.5988 17.8661 15.2303 0.00302541 -0.000374719 -0.00455936
2991 1 12.5796 18.6819 13.9762 0.00232524 -0.00323963 -0.00461156
2992 1 13.8586 20.4743 15.2794 0.00789993 0.0018362 -0.00739124
2993 1 11.338 20.5373 15.309 0.00378719 -0.00898928 -0.00395858
2994 1 12.6659 18.7453 16.561 -0.0039853 -0.00554461 -0.00675725
2995 1 10.0567 17.8234 15.2897 -0.00169942 -0.00460103 -0.000248745
2996 1 11.3398 19.639 16.5434 -0.00102116 -0.00669317 0.000510649
2997 1 8.80204 19.6457 16.5534 -0.000904696 0.0017511 -0.00408331
2998 1 10.0493 17.8633 17.816 -0.00244791 0.00607473 0.00129522
2999 1 10.0628 18.6602 16.5577 0.00365036 0.000217255 0.00289567
3000 1 11.3387 20.5084 17.8706 -0.00377849 -0.00310759 0.00541294
3001 1 8.7947 20.5259 17.8297 0.00739854 0.00363456 -0.0078283
3002 1 10.1461 18.7592 19.1689 0.00132772 0.000846739 -0.00466268
3003 1 7.59257 17.8452 17.8639 0.00758227 -0.00354471 -0.00747576
3004 1 8.84138 19.6337 19.1341 0.0116389 0.000428045 -0.000124565
3005 1 6.30343 19.6221 19.057 -0.00792447 0.00585566 0.00113276
3006 1 7.62014 17.8762 20.3687 0.00684077 -0.00415661 -0.000432525
3007 1 7.61171 18.7823 19.1053 0.0045516 0.00678863 -0.00381395
3008 1 8.86332 20.5664 20.42 0.00720575 0.000661357 -0.0043833
3009 1 6.34163 20.538 20.3816 0.00208712 0.000581584 -0.00553198
3010 1 7.58927 18.7548 21.6313 -0.0140976 0.0043863 0.000889795
3011 1 5.0161 17.7701 20.3366 -0.0129582 -0.0036817 0.000571208
3012 1 6.33042 19.6437 21.6699 0.000133617 0.004724 -0.00566149
3013 1 3.81927 19.6134 21.5811 0.00099888 -0.0023784 -0.00566379
3014 1 5.00512 17.8221 22.8358 0.000625332 -0.00432714 -0.0024985
3015 1 5.06311 18.688 21.57 0.00614758 0.00975471 -0.00440017
3016 1 6.33511 20.486 22.9075 -0.00877641 0.000758818 -0.00503735
3017 1 3.78399 20.4672 22.8489 0.00483489 -0.00591021 -0.00882888
3018 1 5.0209 18.6909 24.1255 0.00470898 0.00984559 -0.00212926
3019 1 2.53575 17.806 22.8717 -0.000319715 -0.000856312 -0.00469279
3020 1 3.79512 19.5877 24.1523 -0.00140118 0.00191739 -0.00436936
3021 1 1.30033 19.6156 24.1455 -0.00566605 0.0110107 -0.00203714
3022 1 2.511 17.8456 25.4491 -0.000158103 0.00155161 -0.00055531
3023 1 2.55512 18.6971 24.1808 -0.0012891 -0.0040454 -0.00122638
3024 1 3.81572 20.5078 25.429 -0.00772255 0.00336251 -0.00622912
3025 1 1.28108 20.5258 25.3917 0.00141167 -0.000582443 -0.00256298
3026 1 2.54381 18.733 26.672 0.00313309 -0.00352415 -0.000763752
3027 1 0.0278688 17.822 25.4195 0.00283696 -0.00299558 -0.00765535
3028 1 1.29126 19.5658 26.6971 -0.00508421 -0.00506479 0.00194719
3029 1 20.1655 17.8295 27.8975 -0.0013343 0.000800073 -0.014059
3030 1 0.0657861 18.7294 26.6739 -0.00123302 -0.00781848 -0.00734375
3031 1 1.27983 20.5002 27.8984 0.00200507 -0.00170949 0.00400986
3032 1 0.0203621 18.7403 29.2071 0.00507472 0.000598352 -0.00206133
3033 1 18.9671 19.5678 11.418 -0.000327237 0.000541412 0.00395092
3034 1 18.9166 20.5322 12.7551 -0.000386072 -0.0132058 0.00119568
3035 1 17.6808 17.778 12.6824 -0.00470159 -0.00293934 -0.00340272
3036 1 18.8895 19.5794 14.0026 0.0046427 -0.00464573 -0.00265951
3037 1 16.379 19.5616 13.9696 0.00221827 -0.00273943 -0.0030775
3038 1 17.6789 17.8549 15.2648 -0.000281337 -0.00612699 -0.00434141
3039 1 17.6493 18.704 13.9405 -0.00249502 0.00315974 -0.000501115
3040 1 18.8682 20.5135 15.251 0.00500755 -0.000522008 -0.00222069
3041 1 16.3861 20.4544 15.2734 0.00236745 0.0022044 0.0028071
3042 1 17.6186 18.6835 16.5631 -0.000240167 0.00328222 -0.00406253
3043 1 15.1358 17.7619 15.3168 0.00306708 0.00390295 -0.00543179
3044 1 16.3881 19.5327 16.5183 0.00289862 0.00337455 -0.0013832
3045 1 13.8844 19.6365 16.5521 0.00325298 0.00240558 0.000216374
3046 1 15.1973 17.819 17.8483 0.000384079 -0.00447733 0.000681774
3047 1 15.1558 18.6397 16.5473 -0.0050984 0.011028 -0.00696631
3048 1 16.3911 20.4819 17.8576 0.000685061 -0.00356468 0.00307687
3049 1 13.8843 20.4998 17.8152 0.00480544 0.00456388 -0.00392939
3050 1 15.2057 18.7403 19.0686 0.00164918 3.61111e-05 0.0061116
3051 1 12.6649 17.8693 17.8671 -0.00303084 0.0012676 -0.00387533
3052 1 13.945 19.6394 19.1342 -0.00376372 -0.00121645 0.000893136
3053 1 11.36 19.6056 19.1027 -0.00142604 -0.00194935 -0.00527169
3054 1 12.655 17.8168 20.3277 -0.00186741 -0.000625257 -0.0061288
3055 1 12.6339 18.6866 19.0975 0.0014719 -0.00503556 0.00843073
3056 1 13.8869 20.5292 20.3241 -0.000201301 -0.00817335 -0.001466
3057 1 11.3329 20.4695 20.3893 -0.000182938 0.00260578 0.00339337
3058 1 12.6296 18.7364 21.6277 -0.00187415 0.00677748 6.34003e-05
3059 1 10.1074 17.7861 20.3644 -0.000422962 0.00364142 -0.00360893
3060 1 11.3509 19.5721 21.6482 0.00312756 -0.00375476 -0.00477775
3061 1 8.824 19.6844 21.6777 -0.00401522 0.00971727 -0.00736372
3062 1 10.0952 17.8653 22.8874 0.00453651 0.0037948 -0.00494701
3063 1 10.0859 18.701 21.6164 0.00138288 -0.00516612 -0.00177745
3064 1 11.3476 20.4946 22.9132 -0.00466827 0.000101138 0.00189375
3065 1 8.87473 20.4877 22.8888 0.00127052 0.0143979 0.00638424
3066 1 10.0918 18.7491 24.1737 0.00373266 -0.00145092 -0.00339014
3067 1 7.57637 17.8397 22.8844 -0.00732634 -0.0068317 -0.00364886
3068 1 8.84374 19.5979 24.1905 -0.00380511 0.00386042 0.00192704
3069 1 6.32097 19.6135 24.1872 0.00159591 0.00505634 0.00465878
3070 1 7.56656 17.7792 25.4505 -0.00482984 -0.0020672 -0.008914
3071 1 7.54976 18.7048 24.1713 -0.00903137 -0.00341191 0.00271539
3072 1 8.83033 20.4287 25.4842 -0.00716677 0.00143746 0.000682942
3073 1 6.29466 20.5063 25.4243 -0.00337229 -0.00225346 -0.00271336
3074 1 7.53018 18.7293 26.6681 0.00627264 -0.000504849 0.00316034
3075 1 5.06125 17.8369 25.4111 0.00711363 0.00451215 -0.00665428
3076 1 6.26056 19.6456 26.7002 -0.00178246 -0.00195245 -0.00415239
3077 1 3.79736 19.6523 26.7223 -0.000734327 0.000661404 -0.00748907
3078 1 5.13212 17.799 27.9774 -0.00518563 -0.00304027 0.00367328
3079 1 5.06914 18.6814 26.6999 0.00495773 0.0011587 -0.0092738
3080 1 6.2957 20.5256 27.9602 -0.00481259 -0.00716198 -0.00160398
3081 1 3.77817 20.5181 27.9194 0.00718853 0.00475423 -0.00111801
3082 1 5.03979 18.7091 29.2143 -0.00467317 -0.00038241 0.0108968
3083 1 2.58465 17.8459 27.9556 -0.00209395 -0.000139625 -0.000927432
3084 1 3.77642 19.6139 29.2388 0.00377633 -0.00282543 0.00374637
3085 1 1.24534 19.6352 29.1689 -0.00341021 -0.00600801 0.00274096
3086 1 2.49963 17.8089 30.4924 0.00207631 0.00302302 -0.00094569
3087 1 2.48218 18.7059 29.2055 -0.007356 0.00148336 -0.0062844
3088 1 3.75918 20.4791 30.4716 0.00174232 0.00181991 -0.010858
3089 1 1.30218 20.5595 30.4386 -0.000535263 0.000578443 0.00235277
3090 1 2.51209 18.6574 31.7643 0.00134042 -0.0135429 -0.00317201
3091 1 20.1295 17.837 30.4412 -0.00396164 -0.00952594 -0.000668541
3092 1 1.28836 19.6543 31.7122 6.39087e-05 -0.00284784 -0.00765602
3093 1 0.0117114 17.8798 32.995 0.00583286 -0.0102692 -0.00119084
3094 1 0.00205272 18.7263 31.7022 -0.00477058 -0.00213021 -0.00366126
3095 1 1.26923 20.5357 32.9733 0.00201773 0.00964764 0.00280735
3096 1 20.1595 18.7912 34.2228 -0.00100915 0.0043171 0.00364036
3097 1 18.9315 19.5447 16.5084 -0.00274915 -0.00705758 -0.00546409
3098 1 18.9031 20.4665 17.7628 -0.00320573 -0.00708151 0.00159543
3099 1 17.6641 17.8005 17.8434 -0.00174431 -0.00124656 -0.00288882
3100 1 18.9451 19.5894 19.0236 0.00211853 -0.00623344 -0.00205647
3101 1 16.4276 19.6474 19.0903 -0.00169344 -0.00401306 -0.00152905
3102 1 17.6549 17.8549 20.3617 0.00225239 -0.00269996 -0.00544629
3103 1 17.7172 18.7187 19.0421 -0.00764805 -0.000850524 0.00610708
3104 1 18.9788 20.47 20.3627 -0.000100631 0.00464369 -0.0018723
3105 1 16.3921 20.5139 20.3203 -0.00313133 -0.00308155 -0.00454545
3106 1 17.6514 18.7114 21.6095 -0.00284259 -0.00114933 0.00212695
3107 1 15.1884 17.7957 20.3401 -0.00397146 0.00325416 0.00645805
3108 1 16.3968 19.5782 21.6136 -0.00453653 -0.00411903 -0.00238488
3109 1 13.9036 19.5924 21.6354 -0.00155971 0.00536418 -0.00177142
3110 1 15.1281 17.8028 22.9472 0.00726125 0.00547081 -0.00213696
3111 1 15.1542 18.7276 21.6389 0.00617106 -0.00605891 -0.00349227
3112 1 16.483 20.5085 22.893 0.00059814 -0.00222516 -0.00436318
3113 1 13.8898 20.5385 22.9204 0.000180577 -0.000521521 -0.00598547
3114 1 15.1329 18.7469 24.1738 0.00318946 0.00263236 -0.000755741
3115 1 12.6204 17.8202 22.9246 -0.00672545 0.00489243 -0.00568233
3116 1 13.9248 19.6501 24.1437 -0.00400101 0.000825152 -0.00568719
3117 1 11.3258 19.6515 24.1585 0.00554288 -0.00645314 -0.00199796
3118 1 12.6075 17.8673 25.4422 -0.00325165 0.00795119 -0.00521092
3119 1 12.6073 18.7585 24.2164 -0.00216027 0.00292432 -0.00102488
3120 1 13.9236 20.5475 25.3951 -0.0028006 -0.000791626 0.00232622
3121 1 11.3922 20.5054 25.4472 -0.00832138 -0.004446 -0.00260874
3122 1 12.5893 18.6906 26.6911 0.00527746 0.00261485 -0.00219431
3123 1 10.0581 17.772 25.4465 -0.00428153 -0.00463962 0.00139014
3124 1 11.3322 19.6554 26.668 0.00486388 0.00196975 -0.000481686
3125 1 8.79312 19.5871 26.7324 -0.00224815 0.000876101 -0.012768
3126 1 10.0982 17.7863 27.9929 -0.00122045 -0.00495995 -0.00330061
3127 1 10.037 18.7143 26.7041 0.000412989 -0.00116663 0.00203733
3128 1 11.3199 20.498 27.957 0.00436955 0.00395902 -0.00257402
3129 1 8.81841 20.5344 28.0057 0.00350244 -0.000104161 -0.00173148
3130 1 10.1003 18.736 29.268 -0.000882201 0.00383166 0.00547418
3131 1 7.59392 17.8005 27.9091 0.00532101 -0.00421165 -0.00331214
3132 1 8.824 19.6261 29.23 0.000926257 0.000294343 -0.00529232
3133 1 6.2778 19.5944 29.2423 0.00681367 -0.0100816 -0.000790737
3134 1 7.51381 17.8618 30.5244 -0.00687468 0.00143819 -0.000558455
3135 1 7.50477 18.7553 29.2198 0.000481883 -0.00147843 -0.00386926
3136 1 8.81078 20.4999 30.4967 -0.00113118 0.00435696 0.00772684
3137 1 6.25768 20.5396 30.4317 0.0104436 -0.00602164 -0.00571883
3138 1 7.57014 18.716 31.7662 -0.00226228 -0.000329415 0.00874728
3139 1 5.07533 17.8412 30.5159 0.00143721 -0.00657593 -0.00437261
3140 1 6.24968 19.6275 31.792 0.00122946 -0.000303988 -0.00206524
3141 1 3.81096 19.6311 31.7693 -0.00263119 0.00246272 -0.00698623
3142 1 5.05095 17.8487 33.0348 -0.00154956 0.00252242 -0.00325592
3143 1 5.0597 18.7691 31.7621 -0.00311508 0.00146502 0.00127225
3144 1 6.29545 20.491 33.0358 -0.00135132 -0.00493757 -0.000925502
3145 1 3.83739 20.5415 33.028 0.00179986 0.00126136 -0.009064
3146 1 5.0614 18.7526 34.302 -0.00617687 0.00104708 0.00320544
3147 1 2.56804 17.8037 33.0282 0.0037499 0.00701658 -0.00187669
3148 1 3.79814 19.6161 34.2349 -0.00380546 0.00761598 0.00516314
3149 1 1.31225 19.6023 34.2418 -0.000785022 0.00329492 -0.0012757
3150 1 2.45742 17.86 35.5998 -0.00527754 0.00124863 -0.00672085
3151 1 2.51823 18.7072 34.2756 0.00218571 -0.00461359 0.00503467
3152 1 3.79551 20.4903 35.56 0.00802579 0.00404267 0.00112456
3153 1 1.28487 20.4911 35.5167 -0.00942341 -0.000646018 0.00243903
3154 1 2.47644 18.6884 36.8794 0.00168247 0.00397115 0.00435289
3155 1 0.000347653 17.85 35.4715 0.000876942 6.8908e-05 0.00146129
3156 1 1.27392 19.6624 36.7889 0.00520504 -0.00171899 0.00140835
3157 1 0.027694 17.7644 37.935 -0.000417974 0.00436285 -0.00527479
3158 1 0.0248132 18.7319 36.8 -0.00282684 0.00834549 -0.00479822
3159 1 1.24146 20.6532 37.9715 0.00527112 -8.90983e-05 -0.00202953
3160 1 18.928 19.5927 21.6183 0.000230429 -0.00370696 0.00136664
3161 1 18.9674 20.4743 22.7872 0.00357861 -0.00199695 -0.00138097
3162 1 17.6224 17.8495 22.9032 -0.00117947 0.00669372 -0.00096451
3163 1 18.9667 19.596 24.1349 0.00259439 -0.00744597 0.0026656
3164 1 16.4437 19.6253 24.1726 -0.0107853 -0.00152487 -0.00533962
3165 1 17.6619 17.8192 25.3972 0.00825756 0.000968297 0.00485902
3166 1 17.675 18.7436 24.1088 -0.00209023 0.0029944 0.00377053
3167 1 18.9441 20.5687 25.413 -0.00250384 0.00831322 -0.00990234
3168 1 16.4509 20.4677 25.4707 -0.00172585 -0.00244167 0.00233887
3169 1 17.6565 18.7212 26.687 0.000395828 -0.00442586 -0.00163099
3170 1 15.1545 17.8196 25.4215 0.000385406 0.00439568 -0.00132456
3171 1 16.4672 19.6014 26.692 0.00110283 -0.00311876 -0.00358736
3172 1 13.8772 19.5824 26.6678 0.00339959 -0.00190312 -0.0039487
3173 1 15.1452 17.8099 27.9445 -0.00233473 -0.00575348 -0.0057779
3174 1 15.1199 18.6796 26.6671 -0.00371916 -0.00299643 0.000310168
3175 1 16.4304 20.485 27.9756 0.00642095 0.0108555 -0.00123631
3176 1 13.8572 20.54 27.9321 0.000931037 -0.00801105 -0.00105984
3177 1 15.1236 18.7107 29.2432 -7.21439e-05 0.00579301 -0.00221169
3178 1 12.6155 17.8341 27.95 -0.000840621 0.00215613 -0.00733781
3179 1 13.9067 19.637 29.1935 0.00691582 0.00535115 -0.00160959
3180 1 11.3975 19.6037 29.1794 0.00231182 -0.00420795 -0.00439477
3181 1 12.5734 17.87 30.5319 0.00371731 -0.00104672 -0.000532638
3182 1 12.6629 18.7064 29.2407 0.00511282 0.000968612 -0.00218504
3183 1 13.8869 20.5429 30.4723 0.00286912 -0.00344372 -0.000614243
3184 1 11.3519 20.5346 30.5002 0.0013711 -0.00131581 -0.00841108
3185 1 12.5877 18.7484 31.767 -0.00317023 -0.00270222 -0.00715391
3186 1 10.0606 17.885 30.5067 -0.00696563 0.00513403 -0.00259235
3187 1 11.3636 19.6236 31.7847 0.00213271 -0.00430433 -0.00358594
3188 1 8.79901 19.6323 31.7707 -0.00594986 -0.000296025 0.00239328
3189 1 10.0398 17.7954 33.0183 -0.00408778 -0.000422154 0.00135916
3190 1 10.0876 18.7396 31.8083 -2.83287e-05 0.00531245 -0.00193658
3191 1 11.309 20.551 33.006 0.0026596 0.00575515 -0.00247195
3192 1 8.78723 20.4904 33.0175 0.00314368 0.00372107 -0.00517031
3193 1 10.1121 18.7605 34.3103 -0.00754789 0.000211763 -0.0022316
3194 1 7.56406 17.8163 33.0625 0.00093463 0.0056033 -0.00712697
3195 1 8.84653 19.5961 34.3272 -0.00250406 0.00213192 0.00299449
3196 1 6.30493 19.623 34.3429 -0.00183217 0.00689498 -0.0081643
3197 1 7.57148 17.8318 35.5776 0.00119043 -0.00417869 -0.00190755
3198 1 7.56514 18.6896 34.3088 0.00338464 -0.00126765 0.000812173
3199 1 8.80619 20.5344 35.5975 -0.00502928 0.00589631 -0.00719187
3200 1 6.30325 20.465 35.5762 0.00841039 -0.00344042 -0.000762318
3201 1 7.58908 18.7169 36.8563 -0.0025948 0.00120104 -0.00178258
3202 1 5.04816 17.8573 35.6285 0.00904802 0.00372732 -0.000733467
3203 1 6.34601 19.5599 36.9105 0.000383197 -1.19651e-05 -0.0121566
3204 1 3.77791 19.6076 36.8694 -0.00250642 -0.00332002 -0.00627365
3205 1 5.0904 17.7449 38.0001 -0.0020692 0.000536337 0.00841338
3206 1 5.0751 18.7325 36.9012 0.00219936 -0.00355632 0.0045844
3207 1 6.28975 20.6434 37.9981 0.00780092 -0.00626365 0.00359979
3208 1 3.75884 20.5952 38.0464 0.00192853 0.00160897 -0.00194399
3209 1 2.52409 17.7518 38.0457 0.00419077 -0.00875054 0.00516412
3210 1 18.9537 19.6116 26.7049 0.000558682 0.00677383 0.00260871
3211 1 18.9275 20.5039 27.981 0.00438326 0.0113805 -0.00451141
3212 1 17.6492 17.8495 27.9746 0.00277896 -0.0034677 0.0014338
3213 1 18.8823 19.623 29.212 0.003347 -0.00105004 0.00539674
3214 1 16.4119 19.6102 29.286 -0.00052553 -0.00523722 -0.00739291
3215 1 17.654 17.8113 30.4982 -0.00602166 -0.00859635 -0.00660098
3216 1 17.628 18.6983 29.2733 -0.0069242 0.000978355 0.00438797
3217 1 18.8971 20.4668 30.456 -7.28905e-05 -0.00377237 0.00135161
3218 1 16.4297 20.5288 30.5102 0.0024009 -0.00629724 -0.0054066
3219 1 17.6913 18.7015 31.7779 0.00432358 0.00110217 -0.0076883
3220 1 15.0625 17.8134 30.4671 0.00540926 8.98225e-05 -0.00309813
3221 1 16.4131 19.5607 31.7379 0.000711121 -6.89325e-05 -0.0069856
3222 1 13.8774 19.6638 31.7265 -0.00424683 -0.00700721 -0.00285922
3223 1 15.1529 17.8529 32.9778 -0.000687006 0.00627222 -0.00847967
3224 1 15.1316 18.7254 31.7327 0.00332935 -0.00694045 -0.00973051
3225 1 16.3945 20.4136 33.0494 -0.000715785 0.00802088 -0.00171507
3226 1 13.8225 20.5389 33.0199 0.00351789 -0.00482806 -0.00329417
3227 1 15.1379 18.7501 34.2621 0.00537656 -0.00382086 0.00078415
3228 1 12.5782 17.8396 33.0209 -0.00445847 0.0013709 -0.00109158
3229 1 13.8451 19.6039 34.2686 0.00125004 0.000711794 -0.000164474
3230 1 11.3333 19.6652 34.2387 -0.00572344 -0.00599117 0.00258758
3231 1 12.5854 17.8838 35.6039 -0.00906754 0.000717861 -0.00794194
3232 1 12.5744 18.7064 34.2499 0.00387192 -0.00179779 0.012086
3233 1 13.8657 20.4944 35.4829 -0.000672867 -0.0126161 -0.00445112
3234 1 11.3015 20.554 35.5434 0.0103478 0.00443713 -0.00328526
3235 1 12.6136 18.8016 36.817 0.00583516 0.00181919 0.00396588
3236 1 10.1352 17.9113 35.5745 -0.00556216 -0.00256025 -0.0032139
3237 1 11.3124 19.677 36.8723 -0.00752868 -0.00659013 0.000368307
3238 1 8.78489 19.6493 36.9 -0.00164437 -0.00579315 0.00429358
3239 1 10.121 17.726 37.9117 -0.00780424 0.00799746 -0.00246835
3240 1 10.0875 18.7726 36.8287 0.00556764 -0.00273117 -0.00636071
3241 1 11.3495 20.6595 38.0479 0.00444686 -0.00306899 -0.00444361
3242 1 8.82007 20.6446 38.0167 -0.0114051 0.0110815 -0.00290426
3243 1 7.61414 17.7629 38.0021 -0.00296803 0.00426622 -0.00609242
3244 1 18.925 19.6145 31.7375 -0.00610861 0.0013238 -0.00679728
3245 1 18.8845 20.4763 32.9736 0.00800377 0.00120091 -0.00737038
3246 1 17.6514 17.8072 32.9737 0.00240195 0.00319904 -0.0105357
3247 1 18.8685 19.6113 34.2599 -0.00359839 -0.00178859 -0.00670645
3248 1 16.3698 19.6076 34.2924 0.0109861 0.0117814 -0.00694042
3249 1 17.6155 17.8651 35.5781 0.00326256 -0.00336343 0.00238529
3250 1 17.665 18.7025 34.3057 0.0041132 -0.00115724 -0.0044346
3251 1 18.9389 20.5021 35.5414 0.00390892 0.000348159 0.00743176
3252 1 16.3834 20.5346 35.5124 0.00275583 -0.00536533 -0.00566412
3253 1 17.6304 18.7496 36.8289 -0.00135622 -0.00105759 -0.00334452
3254 1 15.1488 17.8981 35.5376 0.00354119 -0.00166203 -0.00125991
3255 1 16.4123 19.6839 36.7949 -0.00209925 0.00274466 0.00974484
3256 1 13.9002 19.6583 36.8319 -0.00478597 -0.00899995 0.00444694
3257 1 15.1245 17.7526 38.0199 0.00384043 -0.00517291 0.00141618
3258 1 15.208 18.7944 36.8286 0.000347039 -0.000770843 -0.00948437
3259 1 16.3931 20.6062 37.9807 -0.00641112 0.000100211 0.00100352
3260 1 13.8949 20.6111 37.9811 0.00143894 0.00683873 -0.00238267
3261 1 12.6247 17.8051 37.9188 -0.000220433 -0.00588995 0.000809713
3262 1 18.9239 19.5847 36.8111 0.00804157 -0.00253979 0.00431371
3263 1 18.9435 20.5098 37.9488 -0.00540231 0.000275994 0.00173029
3264 1 17.6688 17.7453 37.974 -0.00208134 -0.000890597 -0.00554999
