ITEM: TIMESTEP
0
ITEM: NUMBER OF ATOMS
1800
ITEM: BOX BOUNDS pp pp mm
0.0000000000000000e+00 2.1833448247381568e+01
0.0000000000000000e+00 2.2689985001334318e+01
-3.8596448281022617e+00 4.9403453799708949e+01
ITEM: ATOMS id type x y z vx vy vz
1 1 13.7645 7.59717 16.5689 0.00846705 0.00314791 0.00489026
2 1 0.68348 0.0683542 16.6557 0.00186031 0.00365673 -0.00910866
3 1 0.0598061 15.1648 15.0741 0.00286621 -0.000360512 -0.000745017
4 1 19.6501 21.4294 -3.38425 0 0 0
5 1 0.0349827 22.6653 15.2092 0.00951672 0.00314892 0.0083222
6 1 19.6501 21.4294 -2.04972 0 0 0
7 1 21.8311 10.0583 8.91806 0.000124316 -0.00101938 -0.00557467
8 1 0.663057 5.08128 16.6158 0.00537428 -0.00374671 0.00308214
9 1 13.0405 7.55931 15.153 -0.00599945 0.00142984 -0.00230516
10 1 4.99885 12.6073 16.6365 -0.00367174 -0.00690601 -0.00702463
11 1 0.0635317 5.04934 15.1725 -0.00424473 0.00299365 0.00466587
12 1 10.1955 8.84512 16.5092 0.00263114 -0.0024344 0.00135741
13 1 17.4668 17.6478 -3.38425 0 0 0
14 1 19.6501 16.3872 -3.38425 0 0 0
15 1 19.6501 18.9083 -3.38425 0 0 0
16 1 17.4668 17.6478 -2.04972 0 0 0
17 1 19.6501 16.3872 -2.04972 0 0 0
18 1 19.6501 18.9083 -2.04972 0 0 0
19 1 5.07783 2.52596 16.5195 -0.00880868 -0.00539541 0.00355368
20 1 20.3779 17.6478 -1.45986 0 0 0
21 1 10.1802 6.3173 16.4972 -6.19791e-05 -0.000362365 -0.000868925
22 1 20.3273 17.6545 0.0363569 0.00253457 0.00369889 -0.0117417
23 1 13.1001 20.1689 -3.38425 0 0 0
24 1 15.2834 18.9083 -3.38425 0 0 0
25 1 15.2834 21.4294 -3.38425 0 0 0
26 1 13.1001 20.1689 -2.04972 0 0 0
27 1 15.2834 18.9083 -2.04972 0 0 0
28 1 15.2834 21.4294 -2.04972 0 0 0
29 1 17.4668 20.1689 -3.38425 0 0 0
30 1 16.0112 20.1689 -1.45986 0 0 0
31 1 18.1945 18.9083 -1.45986 0 0 0
32 1 18.1945 21.4294 -1.45986 0 0 0
33 1 17.4668 20.1689 -2.04972 0 0 0
34 1 16.0051 20.1229 0.0706367 0.0069981 0.00191889 -0.00320086
35 1 18.1957 18.8984 0.0127894 0.0077903 -0.00831548 -0.00148227
36 1 18.1805 21.419 0.0261645 0.00592381 -0.00199441 0.0106449
37 1 20.3779 20.1689 -1.45986 0 0 0
38 1 18.9249 20.1576 0.577625 0.00155383 0.00463591 -0.00195835
39 1 21.071 18.8785 0.620529 -0.00112608 -0.00539768 -0.00325742
40 1 21.1036 21.4114 0.585258 0.00162959 -0.00206874 0.00822951
41 1 20.3429 20.1652 0.0730458 -0.00099829 0.000876454 -0.00163925
42 1 18.9406 20.1538 2.17456 0.000486643 -0.00633609 -0.00202699
43 1 21.1035 18.8804 2.135 0.00283707 0.00198624 0.00242354
44 1 21.0835 21.3436 2.12118 0.000139724 0.00201622 0.000757038
45 1 4.34258 12.6409 15.1437 -0.00311578 -0.00851572 -0.000650209
46 1 9.27984 7.57868 16.6067 -0.00391996 0.000573109 -0.00458934
47 1 4.45965 2.53302 15.0417 -0.0015555 0.0105275 -0.00869015
48 1 10.9167 21.4294 -3.38425 0 0 0
49 1 1.61319 3.87045 16.5994 0.00674992 -0.000666628 0.0010925
50 1 10.9167 21.4294 -2.04972 0 0 0
51 1 1.59265 1.23833 16.5165 -0.00591468 0.00507137 0.0015277
52 1 0.792845 2.55366 16.5939 0.00160314 -0.00372867 -0.00141634
53 1 13.8279 21.4294 -1.45986 0 0 0
54 1 1.50688 2.50716 14.4635 0.00168716 -0.00545347 0.000558911
55 1 2.12076 3.81869 15.0149 0.000603483 -0.00115845 0.00237731
56 1 13.831 21.4743 0.110675 0.00318478 0.000817709 0.000507306
57 1 2.18415 1.27418 15.0491 -0.00316416 0.00613614 -0.00311251
58 1 0.0836146 2.56486 15.1997 0.00980093 0.00391461 -0.0017419
59 1 16.7003 21.4188 0.59763 -0.00124085 0.00749287 0.00256568
60 1 1.46947 2.43238 13.0066 0.00635244 0.00611008 0.00417823
61 1 10.1657 7.59203 14.4596 -0.00156986 -0.00416735 0.000360511
62 1 16.7489 21.4623 2.17112 -0.00022026 -0.00185074 -0.000301106
63 1 9.50757 0.00957538 16.6651 -0.00576065 0.00123955 -0.00442241
64 1 1.52884 13.9172 16.6385 -0.00287469 -0.00126861 0.00474774
65 1 19.6692 21.3954 2.6292 8.55345e-05 -0.00478051 -0.0052797
66 1 10.7926 8.81634 15.0213 -0.00902611 -0.00181924 0.000243387
67 1 8.80178 22.6524 15.1714 -0.00578743 0.000770458 0.00313438
68 1 19.6746 21.4007 4.17476 0.000949485 0.000347762 -0.00438165
69 1 5.86479 1.26035 16.5253 0.000822709 0.00308407 0.0033042
70 1 4.98081 0.00501712 16.5736 0.000208434 0.00333384 0.00208557
71 1 5.88474 22.6575 14.4622 0.00819857 0.00446251 0.00166437
72 1 6.5774 1.22314 15.0337 0.00164441 -0.00292493 0.00708132
73 1 4.39823 22.6761 15.0607 -0.00357652 0.000772382 -0.00440233
74 1 17.4668 12.6055 -3.38425 0 0 0
75 1 19.6501 11.345 -3.38425 0 0 0
76 1 19.6501 13.8661 -3.38425 0 0 0
77 1 17.4668 12.6055 -2.04972 0 0 0
78 1 19.6501 11.345 -2.04972 0 0 0
79 1 19.6501 13.8661 -2.04972 0 0 0
80 1 5.8668 0.0187746 12.968 0.00629447 0.00203176 0.000838997
81 1 20.3779 12.6055 -1.45986 0 0 0
82 1 3.66743 1.23552 14.585 -0.00194313 -0.00288976 0.00275759
83 1 20.3832 12.597 0.0519875 -0.00435942 0.00214171 -0.00368648
84 1 13.1001 15.1267 -3.38425 0 0 0
85 1 15.2834 13.8661 -3.38425 0 0 0
86 1 15.2834 16.3872 -3.38425 0 0 0
87 1 13.1001 15.1267 -2.04972 0 0 0
88 1 15.2834 13.8661 -2.04972 0 0 0
89 1 15.2834 16.3872 -2.04972 0 0 0
90 1 17.4668 15.1267 -3.38425 0 0 0
91 1 16.0112 15.1267 -1.45986 0 0 0
92 1 18.1945 13.8661 -1.45986 0 0 0
93 1 18.1945 16.3872 -1.45986 0 0 0
94 1 17.4668 15.1267 -2.04972 0 0 0
95 1 16.0306 15.0792 0.0878243 -0.000425612 -0.00403089 0.00366495
96 1 18.178 13.8149 0.0642852 -0.00113459 0.00227271 -0.0140127
97 1 18.1946 16.314 0.1107 -0.00506159 -0.0057999 0.00238405
98 1 20.3779 15.1267 -1.45986 0 0 0
99 1 18.9484 15.1326 0.66088 -0.0049691 -0.0110131 0.00735116
100 1 21.1226 13.8238 0.585739 0.00130586 0.00351129 0.00273112
101 1 21.0663 16.4068 0.590216 0.00174636 0.011431 -0.00342973
102 1 20.3986 15.1394 0.0882655 0.00139329 -0.00834634 0.00528475
103 1 18.8319 15.1681 2.14575 0.00333543 0.00540221 -0.00675781
104 1 21.0511 13.8697 2.17097 0.00586875 0.00143105 0.00477472
105 1 21.0396 16.4116 2.13351 -0.00313439 0.00370329 0.00029224
106 1 1.44618 0.0535666 14.4619 -0.000760816 -0.00355914 -0.00356715
107 1 8.73338 17.6478 -3.38425 0 0 0
108 1 10.9167 16.3872 -3.38425 0 0 0
109 1 10.9167 18.9083 -3.38425 0 0 0
110 1 8.73338 17.6478 -2.04972 0 0 0
111 1 10.9167 16.3872 -2.04972 0 0 0
112 1 10.9167 18.9083 -2.04972 0 0 0
113 1 13.1001 17.6478 -3.38425 0 0 0
114 1 11.6445 17.6478 -1.45986 0 0 0
115 1 13.8279 16.3872 -1.45986 0 0 0
116 1 13.8279 18.9083 -1.45986 0 0 0
117 1 13.1001 17.6478 -2.04972 0 0 0
118 1 11.6318 17.5935 0.0716685 0.000161589 0.00539946 -0.00390427
119 1 13.8148 16.4199 0.0819859 -0.00518245 0.00400757 0.00347464
120 1 13.8331 18.894 0.132403 0.00495506 0.00836321 0.00565081
121 1 16.0112 17.6478 -1.45986 0 0 0
122 1 14.598 17.6557 0.630608 -0.00194942 -0.00148755 -0.00418594
123 1 16.7244 16.3083 0.627949 0.00122739 0.00659854 0.00282391
124 1 16.7464 18.8995 0.543907 0.000962257 0.00223564 0.00395017
125 1 16.0014 17.6279 0.0545383 0.00724514 0.00724159 0.0108592
126 1 14.548 17.6888 2.15753 -0.00157637 -0.00158571 0.0049063
127 1 16.7107 16.3895 2.16334 -0.00527825 0.00788429 0.000370334
128 1 16.7867 18.8955 2.14653 0.00355928 0.00262374 -0.000231355
129 1 18.9013 17.6347 0.602349 -0.00153649 0.00705579 -0.000397423
130 1 17.4688 17.6209 2.69233 0.000189589 0.00140366 0.00706973
131 1 19.6086 16.425 2.62052 0.001254 0.00488147 -0.00210629
132 1 19.6952 18.8854 2.65335 0.00168182 0.00533374 -0.00987765
133 1 18.8967 17.6467 2.13564 0.000695631 0.00533246 0.00197068
134 1 17.5059 17.6545 4.2355 0.00423995 -0.00422551 -0.00860426
135 1 19.6176 16.4338 4.18681 -0.0027531 0.00427119 0.00989697
136 1 19.6869 18.882 4.20656 -0.000494603 0.0036593 0.00144286
137 1 2.93145 22.6616 12.4643 -0.000405777 -0.00394665 -0.0050423
138 1 20.4092 17.6713 4.73305 -0.00429726 0.00219556 -0.00556138
139 1 3.66045 1.2977 13.0013 -0.00818378 -0.000113738 0.00799935
140 1 20.3793 17.6683 6.31623 -0.00021204 -0.000363522 0.00512518
141 1 4.36669 20.1689 -3.38425 0 0 0
142 1 6.55003 18.9083 -3.38425 0 0 0
143 1 6.55003 21.4294 -3.38425 0 0 0
144 1 4.36669 20.1689 -2.04972 0 0 0
145 1 6.55003 18.9083 -2.04972 0 0 0
146 1 6.55003 21.4294 -2.04972 0 0 0
147 1 8.73338 20.1689 -3.38425 0 0 0
148 1 7.27782 20.1689 -1.45986 0 0 0
149 1 9.46116 18.9083 -1.45986 0 0 0
150 1 9.46116 21.4294 -1.45986 0 0 0
151 1 8.73338 20.1689 -2.04972 0 0 0
152 1 7.33612 20.1579 0.0712513 0.00618285 0.00634836 -0.00955153
153 1 9.4923 18.8771 0.0817358 -0.000912923 0.00167276 0.00149206
154 1 9.43014 21.4118 0.0710467 0.00249689 -0.00201571 -0.00240269
155 1 11.6445 20.1689 -1.45986 0 0 0
156 1 10.1615 20.1544 0.58677 0.00413005 -0.00380101 -0.000483927
157 1 12.3619 18.9169 0.646186 -0.00748962 -0.00777582 0.00109654
158 1 12.3366 21.3963 0.602726 -0.00396829 -0.00290536 0.00185475
159 1 11.6497 20.1538 0.0638009 -0.00670824 -0.0072364 -0.00495208
160 1 10.1717 20.1311 2.14448 0.00869473 0.00989687 0.00353136
161 1 12.3561 18.9178 2.17395 0.00308586 0.000297239 0.00519443
162 1 12.3221 21.449 2.17102 0.00873736 0.00604741 0.00420073
163 1 14.5384 20.1494 0.636218 -0.00122844 0.00696278 0.0068556
164 1 13.0911 20.182 2.72311 -0.00187804 -0.00597728 0.00154577
165 1 15.2567 18.9185 2.66951 -0.00228526 -0.00369081 0.000611197
166 1 15.2983 21.4121 2.68913 -0.00378712 0.00050175 -0.000295775
167 1 14.5647 20.1888 2.14349 -0.00250695 0.00441042 0.00231894
168 1 13.0857 20.1817 4.24211 -0.0100536 -0.00492008 -0.00931154
169 1 15.2793 18.8979 4.22215 0.00124838 0.0055658 0.00320988
170 1 15.2958 21.4195 4.16312 -0.00418587 0.00339324 -0.00449216
171 1 17.4423 20.2074 2.65313 0.012553 -0.00274296 0.00702814
172 1 16.0042 20.1285 4.70306 -0.0110424 0.0052561 0.00178069
173 1 18.2133 18.8751 4.73736 0.00179894 -0.00240493 -0.00270899
174 1 18.164 21.4083 4.68749 0.000590697 -0.00426175 0.00261805
175 1 17.4539 20.1332 4.21778 0.0172565 0.00071814 -0.00533458
176 1 16.0043 20.1499 6.30171 -0.000392363 0.00325374 0.00208996
177 1 18.1846 18.9158 6.25409 0.000138931 -0.00431725 -0.00113149
178 1 18.2083 21.4461 6.23611 0.00112814 -0.000833848 -0.00442215
179 1 20.4123 20.1803 4.74554 -0.00525658 -0.00152156 0.00181213
180 1 18.896 20.1715 6.78646 -0.00257356 0.000847636 -0.000694119
181 1 21.1387 18.9279 6.85844 0.000489783 0.00158603 -0.00923696
182 1 21.1174 21.4561 6.86483 0.00170493 0.00625682 -0.00039224
183 1 20.3954 20.1798 6.32935 0.0027395 0.00141791 -0.00562578
184 1 18.9196 20.2378 8.33088 0.00825932 -0.00404752 0.00297225
185 1 21.0916 18.9617 8.38359 0.011559 0.00413807 -0.000962446
186 1 21.1519 21.4383 8.39804 0.000780357 0.00687093 0.0114404
187 1 1.47046 22.6827 12.9483 -0.00262695 -0.00505092 -0.00368346
188 1 2.9307 22.6403 10.8998 0.000494741 0.00434751 0.000418708
189 1 0.712895 1.23249 12.4494 -0.00602401 0.00355194 0.00458453
190 1 2.18334 21.4294 -3.38425 0 0 0
191 1 21.8313 22.658 10.415 0.000629626 0.00877021 0.000500104
192 1 2.18334 21.4294 -2.04972 0 0 0
193 1 0.738519 1.23271 10.9033 0.00312352 0.00577947 -0.00415517
194 1 21.822 0.0137263 8.87903 -0.00413482 0.000159942 -0.00367179
195 1 5.09447 21.4294 -1.45986 0 0 0
196 1 10.8469 6.31954 15.099 0.00108087 -0.000423915 -0.00373822
197 1 0.761608 10.1418 16.7059 0.000441652 -0.0027849 -0.00226141
198 1 5.11254 21.4446 0.0929983 0.00110582 0.00903358 0.00144624
199 1 1.64248 11.376 16.6502 -0.00591028 0.00340986 -0.00146582
200 1 0.765005 12.6245 16.6959 0.00578819 0.00793608 -8.73181e-05
201 1 7.95094 21.4044 0.584009 -0.00434471 0.00717065 -0.000979139
202 1 0.0265989 10.097 15.2208 0.00752016 -0.00684094 0.00498296
203 1 8.66353 7.59707 15.1613 0.000755714 -0.00349006 0.000561712
204 1 7.95801 21.3536 2.15489 0.0041235 -0.00622005 -0.000115378
205 1 4.96773 7.46818 16.5829 -0.000949282 -0.00108323 -0.00258398
206 1 1.48695 12.5506 14.4569 0.012571 -0.00068598 -0.00161125
207 1 10.8778 21.3775 2.69843 0.00260592 0.000949326 -0.000705952
208 1 2.15291 13.8899 15.0664 -0.00270631 -0.00221811 0.00618392
209 1 10.1291 7.58594 13.009 -0.00159543 0.00250849 0.00735682
210 1 10.9325 21.399 4.28454 0.00145254 0.00448409 -0.00806445
211 1 4.34171 7.52683 15.0932 -0.00348318 -0.00492229 0.00377358
212 1 1.6401 8.909 16.5968 0.00661429 -0.001579 -0.00685801
213 1 13.8361 21.4731 4.74083 0.00695376 -0.00454429 -0.00126192
214 1 1.43841 6.38063 16.6863 0.00927918 -0.00134001 0.000498863
215 1 0.667931 7.67154 16.6851 0.00108887 0.0028519 -0.00512429
216 1 13.9033 21.4513 6.27429 -0.000761138 0.00479584 -0.00376346
217 1 1.44269 7.57111 14.5219 0.000914417 0.00048434 -0.00287873
218 1 2.13785 8.81507 15.1165 0.00509787 0.005663 -0.00961561
219 1 16.7839 21.4034 6.80185 -0.00617845 -0.00283877 0.00129101
220 1 2.17024 6.35723 15.1275 -0.00443936 0.00581482 0.00316799
221 1 0.0576399 7.64947 15.1149 0.00178807 0.00291124 0.00448817
222 1 16.7532 21.4685 8.35718 -0.00378508 0.00177023 -0.00129179
223 1 1.46377 7.5955 13.0658 0.000700115 -0.000118994 0.012288
224 1 8.01116 8.88337 14.6729 -0.00544968 -0.00468413 0.00103357
225 1 19.6638 21.4407 8.90153 -0.00532613 -0.00685613 0.00281041
226 1 9.39585 5.02134 16.5399 0.00382787 -0.00275349 0.00815316
227 1 2.12591 11.3246 15.09 0.000150856 -0.00138206 -0.00776038
228 1 19.6577 21.4393 10.4582 0.00115108 -0.00836508 0.00455288
229 1 0.0368682 12.6018 15.1763 0.0050439 -0.00585126 -0.00199193
230 1 7.93214 6.36062 14.6403 -0.00348624 -0.00282386 0.00500637
231 1 8.74788 5.08529 15.0608 -0.00182079 -0.00106389 0.0147012
232 1 5.93463 6.28656 16.5331 -0.00421054 0.0042808 -0.01282
233 1 5.95896 3.76535 16.4916 0.00202014 -0.00465582 -0.0083275
234 1 5.07271 5.00432 16.6326 -0.00524917 -0.0003004 0.00603498
235 1 17.4668 7.56333 -3.38425 0 0 0
236 1 19.6501 6.30277 -3.38425 0 0 0
237 1 19.6501 8.82388 -3.38425 0 0 0
238 1 17.4668 7.56333 -2.04972 0 0 0
239 1 19.6501 6.30277 -2.04972 0 0 0
240 1 19.6501 8.82388 -2.04972 0 0 0
241 1 5.82136 4.98197 14.4668 -0.00223426 -0.00356592 0.00108524
242 1 20.3779 7.56333 -1.45986 0 0 0
243 1 20.3755 7.59724 0.0525273 -0.000356622 -0.00482016 0.00201793
244 1 13.1001 10.0844 -3.38425 0 0 0
245 1 15.2834 8.82388 -3.38425 0 0 0
246 1 15.2834 11.345 -3.38425 0 0 0
247 1 13.1001 10.0844 -2.04972 0 0 0
248 1 15.2834 8.82388 -2.04972 0 0 0
249 1 15.2834 11.345 -2.04972 0 0 0
250 1 17.4668 10.0844 -3.38425 0 0 0
251 1 16.0112 10.0844 -1.45986 0 0 0
252 1 18.1945 8.82388 -1.45986 0 0 0
253 1 18.1945 11.345 -1.45986 0 0 0
254 1 17.4668 10.0844 -2.04972 0 0 0
255 1 16.0292 10.0938 0.0975449 -0.00415994 -0.00756888 -0.00292407
256 1 18.1851 8.84331 0.0860062 -0.00447805 0.0046872 0.00328793
257 1 18.218 11.3548 0.0778159 0.00705003 -0.00129909 -0.0078639
258 1 20.3779 10.0844 -1.45986 0 0 0
259 1 18.9481 10.0898 0.642898 -0.00573957 -0.0021658 -0.00439971
260 1 21.1016 8.87052 0.589753 -0.00685815 0.000725748 0.00134521
261 1 21.135 11.3533 0.602516 -0.00292695 0.00234921 -0.000157254
262 1 20.4092 10.1135 0.0821309 0.000727586 -0.00118054 -0.000614175
263 1 19.0005 10.0442 2.14922 -0.00416514 -0.00743216 0.00624132
264 1 21.0942 8.77886 2.11973 -0.00220415 -0.00525021 0.00827223
265 1 21.1394 11.3516 2.13171 -0.00500808 0.00218586 -0.00514463
266 1 6.48879 6.2442 15.0545 0.00478447 -0.0130295 -0.00524049
267 1 6.50169 3.76057 15.0118 0.00173456 0.0100112 0.0136159
268 1 8.73338 12.6055 -3.38425 0 0 0
269 1 10.9167 11.345 -3.38425 0 0 0
270 1 10.9167 13.8661 -3.38425 0 0 0
271 1 8.73338 12.6055 -2.04972 0 0 0
272 1 10.9167 11.345 -2.04972 0 0 0
273 1 10.9167 13.8661 -2.04972 0 0 0
274 1 13.1001 12.6055 -3.38425 0 0 0
275 1 11.6445 12.6055 -1.45986 0 0 0
276 1 13.8279 11.345 -1.45986 0 0 0
277 1 13.8279 13.8661 -1.45986 0 0 0
278 1 13.1001 12.6055 -2.04972 0 0 0
279 1 11.6663 12.5987 0.110381 0.00577156 0.00376716 0.00549844
280 1 13.8469 11.3218 0.0722863 -0.00582324 -0.000849606 -0.00179565
281 1 13.8336 13.8816 0.0803578 -0.00358329 -0.00618498 -0.000436076
282 1 16.0112 12.6055 -1.45986 0 0 0
283 1 14.5746 12.6104 0.629903 -7.93339e-05 -0.00154984 0.00136808
284 1 16.7506 11.3339 0.590061 0.00243027 0.00267661 0.00494083
285 1 16.7057 13.8129 0.578148 0.00301356 0.00871284 0.00780938
286 1 16.0388 12.5939 0.0947211 -0.00436381 -0.00388707 0.00859765
287 1 14.5211 12.6309 2.17602 0.00470134 -0.00406721 -0.00166411
288 1 16.7251 11.2979 2.1755 0.00393836 -0.00802016 0.00528146
289 1 16.7266 13.7974 2.18144 -0.00958576 -0.00665172 -0.00770533
290 1 18.9545 12.5916 0.577999 -0.00277169 0.00278557 0.00555874
291 1 17.4959 12.5336 2.70347 -0.00268928 0.00424956 -0.000755991
292 1 19.674 11.3331 2.71151 0.00592315 0.00497736 0.00342399
293 1 19.6209 13.8657 2.71288 0.00703109 0.00176199 -0.00628423
294 1 18.9675 12.5445 2.1943 0.00213769 0.00992735 0.00135518
295 1 17.4951 12.5931 4.28825 0.000129885 -0.00101383 0.00618901
296 1 19.641 11.3963 4.23367 -0.00289213 -0.0046465 0.00463333
297 1 19.6232 13.9127 4.21351 -5.51187e-05 -0.00065569 -0.00138241
298 1 4.39491 5.05308 15.0919 -0.00637849 0.00418119 -0.000707458
299 1 20.3807 12.6382 4.73289 0.0036405 -0.0106124 -0.00191237
300 1 20.3495 12.6013 6.2668 -0.00629855 -0.00171694 0.00482546
301 1 4.36669 15.1267 -3.38425 0 0 0
302 1 6.55003 13.8661 -3.38425 0 0 0
303 1 6.55003 16.3872 -3.38425 0 0 0
304 1 4.36669 15.1267 -2.04972 0 0 0
305 1 6.55003 13.8661 -2.04972 0 0 0
306 1 6.55003 16.3872 -2.04972 0 0 0
307 1 8.73338 15.1267 -3.38425 0 0 0
308 1 7.27782 15.1267 -1.45986 0 0 0
309 1 9.46116 13.8661 -1.45986 0 0 0
310 1 9.46116 16.3872 -1.45986 0 0 0
311 1 8.73338 15.1267 -2.04972 0 0 0
312 1 7.2283 15.089 0.0499109 -0.00361063 -0.00380638 -0.0049293
313 1 9.44443 13.8186 0.027483 0.0108446 0.00304474 -0.00241626
314 1 9.41045 16.3452 0.120487 -0.000184054 0.00962979 0.00436475
315 1 11.6445 15.1267 -1.45986 0 0 0
316 1 10.1657 15.0128 0.564904 -0.00664862 0.000807261 -0.00216832
317 1 12.4302 13.9003 0.594308 -0.00115325 0.00610495 -0.00235508
318 1 12.363 16.348 0.612982 -0.0084277 -0.00398186 -0.00576803
319 1 11.6916 15.1082 0.0639604 -0.00335475 0.0038652 -0.00102896
320 1 10.226 15.0668 2.13076 -0.00155808 -0.00691553 0.00111252
321 1 12.4108 13.906 2.1749 0.00238408 0.000309684 0.00571733
322 1 12.3646 16.3849 2.16128 -0.00376993 -0.0119014 0.00360073
323 1 14.5691 15.1432 0.570868 -0.00295056 0.0084687 0.0041526
324 1 13.0918 15.1002 2.62936 -0.00568303 -0.00351022 0.00164814
325 1 15.3321 13.8022 2.71928 0.00818035 -0.00297922 -0.0065519
326 1 15.2349 16.3568 2.67903 0.0019983 -0.00305243 -0.000672415
327 1 14.54 15.1256 2.16845 -0.00224054 -0.00813837 0.000860658
328 1 13.0984 15.1114 4.23049 0.00280184 -0.003873 0.00625969
329 1 15.2964 13.7883 4.25993 0.00577597 0.00221901 0.00471841
330 1 15.2806 16.3845 4.19295 -0.0046193 -0.00465871 0.00105678
331 1 17.404 15.0733 2.67906 -0.0025714 -0.000884879 0.00353818
332 1 16.0004 15.1288 4.69545 0.00450802 -0.00240031 0.00313699
333 1 18.1717 13.8835 4.7513 0.00525313 0.00782836 0.00466663
334 1 18.1664 16.3957 4.72613 -0.00113163 -0.00480373 0.00588989
335 1 17.447 15.1619 4.22567 0.00508316 0.00576361 -0.00586227
336 1 15.9805 15.1497 6.28772 0.00233519 -0.00368553 0.00390851
337 1 18.1533 13.8668 6.27278 0.00614624 -0.000329198 -0.00564339
338 1 18.2548 16.4228 6.28566 -0.00292201 0.00699223 0.00439911
339 1 20.3545 15.1496 4.68675 0.00120946 -0.00250609 0.00387353
340 1 18.925 15.1322 6.78311 0.00816282 -0.0097655 -0.00359897
341 1 21.0579 13.9102 6.79868 0.000446323 -0.0105462 0.00228974
342 1 21.1345 16.4417 6.75352 0.000411012 0.00454109 -0.00975026
343 1 20.3999 15.1071 6.25651 -0.0044463 -0.00650439 -0.010609
344 1 18.9382 15.0633 8.29923 0.0038009 0.000629741 -0.00180904
345 1 21.0965 13.8708 8.32244 0.0019448 0.00914015 -0.00273235
346 1 21.1122 16.4834 8.32007 -0.00401784 -0.00696518 0.00389655
347 1 5.82165 5.05158 12.9526 -0.0114717 0.00434375 0.0012144
348 1 3.65042 6.27472 14.6642 0.00927056 -0.00399489 0.00122647
349 1 7.77677e-11 17.6478 -3.38425 0 0 0
350 1 2.18334 16.3872 -3.38425 0 0 0
351 1 2.18334 18.9083 -3.38425 0 0 0
352 1 1.14654e-09 17.6478 -2.04972 0 0 0
353 1 2.18334 16.3872 -2.04972 0 0 0
354 1 2.18334 18.9083 -2.04972 0 0 0
355 1 4.36669 17.6478 -3.38425 0 0 0
356 1 2.91113 17.6478 -1.45986 0 0 0
357 1 5.09447 16.3872 -1.45986 0 0 0
358 1 5.09447 18.9083 -1.45986 0 0 0
359 1 4.36669 17.6478 -2.04972 0 0 0
360 1 2.85339 17.6159 0.0869686 -0.00621779 -0.00356914 -0.00051977
361 1 5.10252 16.4221 0.0650356 -0.00146102 0.00514154 0.0032567
362 1 5.09587 18.8884 0.0754165 -0.00598204 0.00200694 0.00441313
363 1 7.27782 17.6478 -1.45986 0 0 0
364 1 5.85569 17.6525 0.562572 0.00301374 -0.00506422 -0.00779864
365 1 7.97693 16.3565 0.578043 -0.000198016 -0.00646623 0.00753378
366 1 8.06788 18.8438 0.558241 -0.00305909 -0.00675126 0.00653353
367 1 7.27816 17.6554 0.042667 0.00627895 -0.0019556 -0.00633627
368 1 5.83677 17.6385 2.15897 0.00279169 0.0021511 -0.0145502
369 1 7.97679 16.3484 2.17102 0.00341011 0.000836692 0.00283804
370 1 8.00321 18.8393 2.15416 0.00686217 0.00112118 -0.00453871
371 1 10.2045 17.562 0.564787 0.00676491 -0.00225565 -0.0053632
372 1 8.71057 17.5992 2.66171 -0.00211932 0.000114884 -0.00422694
373 1 10.896 16.3459 2.62546 -0.000370337 0.00390725 -0.00870241
374 1 10.8866 18.9193 2.72215 -0.00114167 -0.00302572 -0.00196082
375 1 10.1951 17.5942 2.12483 -0.00174242 0.00649487 -0.00155527
376 1 8.77271 17.6361 4.25613 -0.00722901 0.000677519 -0.00801741
377 1 10.9365 16.3772 4.24214 -0.00361753 0.00102029 0.00106209
378 1 10.9652 18.9187 4.26063 -0.00135318 -0.000539195 0.00594596
379 1 13.0689 17.6823 2.69999 -0.00429016 0.00173194 0.00296292
380 1 11.6633 17.6484 4.72083 0.00105034 -0.0145658 -0.00558326
381 1 13.7957 16.3939 4.73341 1.6261e-05 0.0163079 -0.0054133
382 1 13.8171 18.8947 4.81025 0.000774682 -0.00139338 -0.00522509
383 1 13.1238 17.6218 4.20816 -0.00424007 0.00557148 0.00130128
384 1 11.652 17.6591 6.34447 -0.0139844 -0.00468782 -0.00888234
385 1 13.8155 16.3702 6.32334 0.00730304 -7.89318e-05 -0.000991851
386 1 13.8208 18.829 6.32592 0.00235556 0.00507608 -0.00501375
387 1 16.0471 17.6566 4.81009 -0.00337376 7.74205e-05 -0.00232935
388 1 14.5533 17.6126 6.78312 -0.00423099 -0.00412694 -0.0035576
389 1 16.7456 16.4399 6.82289 -0.00637268 -0.00911407 -0.00247362
390 1 16.7511 18.9044 6.8384 -0.00480051 -0.00626742 -0.00537079
391 1 16.0165 17.6307 6.35985 -0.00536595 0.000395374 -0.00129982
392 1 14.5624 17.6529 8.42975 0.00406663 -0.00697082 0.00517747
393 1 16.7103 16.4182 8.35022 0.00206967 0.00405597 0.00549184
394 1 16.7982 18.9399 8.41938 0.0043041 -0.00587823 -0.00301777
395 1 18.9809 17.6269 6.83536 -0.00734128 -0.0053535 0.00231465
396 1 17.461 17.623 8.90033 -0.00656962 0.0010236 -0.00939406
397 1 19.674 16.3884 8.92248 0.00516964 -0.00484777 -0.00936515
398 1 19.6613 18.947 8.86309 -0.00600154 -0.00901703 0.00161794
399 1 18.8876 17.5926 8.39313 -0.00152796 -0.0038668 -0.000440067
400 1 17.4747 17.6307 10.4517 0.000583052 -0.000905022 0.00522991
401 1 19.6417 16.4445 10.4346 0.00165546 -0.00327172 -0.0107504
402 1 19.7067 18.9529 10.4538 -0.00240434 0.00305628 -0.00783942
403 1 3.64331 3.84527 14.6312 -0.000736519 0.00518946 -0.000248732
404 1 20.374 17.6781 10.9851 0.00483396 0.00147128 0.00106183
405 1 1.54166 5.09753 14.4994 0.00576819 0.000251939 0.00504129
406 1 20.4622 17.6472 12.5172 0.00345817 -0.000814156 -0.00312574
407 1 7.76496e-11 20.1689 -3.38425 0 0 0
408 1 0.727782 18.9083 -1.45986 0 0 0
409 1 0.727782 21.4294 -1.45986 0 0 0
410 1 1.14634e-09 20.1689 -2.04972 0 0 0
411 1 0.731816 18.9196 0.0697984 -0.000509196 -0.00413867 -0.000693394
412 1 0.730714 21.4356 0.071708 -4.7499e-05 -0.002401 0.0102541
413 1 2.91113 20.1689 -1.45986 0 0 0
414 1 1.47462 20.1302 0.587477 0.00285828 -0.00099429 0.00122542
415 1 3.63403 18.9109 0.615689 0.00474379 -0.000685176 0.00423467
416 1 3.67123 21.4062 0.540089 0.00019947 -0.00420095 -0.00699173
417 1 2.92619 20.1686 0.0820969 0.00580259 6.89342e-05 -0.00495733
418 1 1.43999 20.1376 2.18721 -0.0062145 0.004452 0.00303805
419 1 3.63519 18.9012 2.15193 0.0043315 -0.00375342 -0.0024169
420 1 3.61114 21.4107 2.08122 -0.000449443 0.00584763 -0.00184996
421 1 5.84021 20.196 0.586792 0.00532191 0.000641761 0.00245179
422 1 4.33929 20.1383 2.66198 0.00157854 -0.000887251 -0.00260652
423 1 6.49936 18.8856 2.65079 -0.00296217 0.00707212 0.00283859
424 1 6.49779 21.4583 2.60536 -0.00561418 0.00520942 -0.00595701
425 1 5.7589 20.2118 2.12455 -0.00507366 -0.000221818 0.00878908
426 1 4.361 20.1639 4.19124 -0.00656494 -0.00456238 0.00469664
427 1 6.56155 18.8847 4.19869 0.00605219 -0.00272835 0.00179057
428 1 6.54717 21.4204 4.17812 0.00934997 -0.00657606 0.00190214
429 1 8.69998 20.0709 2.60379 0.000795963 0.0117988 0.00493853
430 1 7.3124 20.1238 4.74092 0.00318839 -0.00456023 -0.0043444
431 1 9.49188 18.9007 4.73761 -0.00580437 0.0033771 -0.00500481
432 1 9.45873 21.3902 4.70741 0.00243203 0.0120275 0.00387911
433 1 8.74981 20.153 4.19355 0.00275537 0.00465987 0.00685173
434 1 7.3207 20.145 6.2584 -0.000212638 -0.000969171 -1.92362e-05
435 1 9.45322 18.9283 6.3041 0.00189341 0.00110592 0.00662267
436 1 9.498 21.3908 6.23578 0.00163466 0.00833346 -0.00377738
437 1 11.6917 20.1394 4.83904 0.000717416 0.00248451 -0.00224786
438 1 10.189 20.1803 6.80478 0.0034033 -0.00156771 -0.000637036
439 1 12.3653 18.8702 6.8987 -0.00131783 0.00999925 0.00101801
440 1 12.4229 21.4656 6.82567 0.0015031 0.00732015 0.00593349
441 1 11.6619 20.2057 6.32565 0.00191657 0.00331176 0.00382156
442 1 10.2065 20.1346 8.39162 -0.00356485 -0.00272271 -0.000101128
443 1 12.3218 18.9095 8.44569 0.0044447 -0.00316224 -0.0107176
444 1 12.3835 21.4459 8.35168 0.0050667 0.00580902 0.0049541
445 1 14.5664 20.1548 6.87549 0.00901755 0.0011999 0.00283057
446 1 13.1026 20.1702 8.91833 -0.00433587 -0.00631498 0.00779535
447 1 15.3218 18.905 8.8831 0.00225772 0.00141339 -0.00184465
448 1 15.2604 21.4032 8.93575 -0.00694574 0.00110547 0.0051142
449 1 14.5801 20.1821 8.42142 0.00458768 -0.0113255 0.00495222
450 1 13.0719 20.1876 10.4798 -0.000300699 -0.00340554 0.0100976
451 1 15.2588 18.8929 10.4551 -0.00303445 -0.0030969 9.00715e-05
452 1 15.3349 21.4002 10.5051 -0.000556337 -0.00759236 -0.00176149
453 1 17.5158 20.1717 8.96018 0.00474816 0.00400445 -0.00418454
454 1 16.0439 20.1053 10.9638 0.00471415 0.00149938 0.00135843
455 1 18.2796 18.9331 10.9657 -0.000735766 0.00103659 -0.00147857
456 1 18.2341 21.4289 11.0061 -0.00345292 0.0106754 0.00235367
457 1 17.4646 20.1584 10.505 0.0122223 -0.0122969 -0.00245759
458 1 16.1398 20.0888 12.538 0.00225045 0.00279463 -0.00912038
459 1 18.2649 18.8422 12.5176 -0.00588598 0.00554609 0.00897475
460 1 18.2606 21.4158 12.5802 -0.00219079 -0.00472657 0.00813825
461 1 20.4298 20.1955 10.9275 -0.00161761 -0.00379052 0.000323965
462 1 19.0416 20.1841 13.0978 -0.00131408 -0.00240585 9.00456e-05
463 1 21.1271 18.9527 13.0362 0.00345068 0.0058058 0.00793202
464 1 21.1345 21.4505 13.0912 -0.00302282 -0.00168777 0.0131446
465 1 20.4604 20.2167 12.5287 0.0111672 0.000351528 -0.00742462
466 1 18.9595 20.18 14.5312 -3.3892e-05 -0.00140907 0.00225658
467 1 21.1215 18.9978 14.6084 -0.00679854 0.0070409 0.00440927
468 1 21.1172 21.4226 14.6855 -0.0021712 0.00329381 -0.00778235
469 1 2.9282 5.05104 12.5462 0.00505098 -0.00214432 -0.00143889
470 1 3.63757 6.28078 13.0228 -0.0151163 -0.00271928 0.00783471
471 1 3.63125 3.79518 13.0534 0.00295139 -0.00178367 0.00241108
472 1 1.42345 5.0196 13.0362 -0.0031301 0.00255544 -0.00756684
473 1 2.1741 21.434 2.65574 -0.00321384 0.000644441 -0.00609674
474 1 2.89888 5.03822 10.9607 0.00223718 -0.0074605 -0.00416326
475 1 0.725701 6.32932 12.5379 -0.00416032 0.00338997 0.00349189
476 1 2.18035 21.449 4.2299 0.00578733 -0.00468481 0.0031239
477 1 0.762356 3.70089 12.4966 -0.00203887 -0.00280515 0.00763892
478 1 21.8312 5.05776 10.4352 0.00273789 -0.00748133 -0.000229109
479 1 5.1296 21.422 4.69838 -0.00590188 -0.00579874 -0.00390465
480 1 0.71864 6.29098 10.9193 -0.00199142 0.000190688 0.00606304
481 1 0.716326 3.77169 10.9081 -0.00818559 0.0153966 0.00586421
482 1 5.11136 21.402 6.22327 0.00272852 0.00590036 0.00168332
483 1 21.8203 5.03125 8.88583 -0.00174709 -0.00512045 -0.000963748
484 1 5.79942 7.55857 14.4876 0.0126566 0.000535855 -0.00751182
485 1 8.06585 21.4751 6.77758 -0.00780253 0.00553995 0.00168644
486 1 13.7289 2.56144 16.6698 0.00164553 -0.000606841 -0.00730626
487 1 1.40939 12.5203 13.0106 0.00199666 -0.000147554 -0.00494135
488 1 7.99687 21.4286 8.3012 -0.00363019 -0.0021537 -0.00769609
489 1 7.20795 7.51574 12.5009 -0.00525999 0.00668813 -0.00100403
490 1 7.94214 8.84113 13.0544 -0.000884992 0.000478413 0.00303751
491 1 10.9233 21.4023 8.851 0.00513668 0.00200711 0.00277361
492 1 13.1167 2.51685 15.1689 -0.00382078 -0.00261808 0.000326166
493 1 10.246 3.78586 16.5359 -0.000372747 -0.00723108 -0.00419673
494 1 10.8978 21.399 10.3614 -0.00439322 -0.00273302 -0.00011798
495 1 10.3812 1.24176 16.559 0.000866561 0.00510512 -0.00412562
496 1 9.41426 2.48007 16.6059 0.000813128 -0.0013287 0.00523979
497 1 13.8471 21.4695 10.9565 -0.00425866 0.00578741 0.000535169
498 1 10.1803 2.54337 14.4912 -0.00523538 0.00104741 -0.00191009
499 1 10.7621 3.7637 15.0636 0.00863329 -0.00486506 -0.00433749
500 1 13.8297 21.4397 12.4881 -0.0117821 -0.000933142 0.0101941
501 1 10.9584 1.2726 15.0782 0.00235593 -0.00022175 0.000671478
502 1 8.73217 2.5304 15.1148 0.00578587 -0.00257544 -0.010863
503 1 16.7712 21.389 13.0759 -0.000543431 0.00253062 -0.00301376
504 1 10.1712 2.50299 12.9662 -0.00504451 0.00089585 0.00474249
505 1 8.04384 3.75523 14.6143 0.00510262 0.0017529 0.006881
506 1 16.7836 21.3655 14.6394 -0.000479855 -0.00061382 0.00637645
507 1 8.08541 1.23417 14.6214 -0.00575743 0.00582673 -0.00568719
508 1 5.84706 2.49647 14.3934 -0.0024271 0.00513386 -0.00192124
509 1 19.6154 21.4431 15.1126 -0.00483946 -0.000965442 0.00539976
510 1 7.24144 2.52924 12.5052 0.000683672 -0.0037709 -0.000426403
511 1 7.98876 3.82005 13.0098 0.00435091 -0.00474982 0.0031133
512 1 18.9665 21.4313 16.6136 -0.00117778 -0.00799428 0.000787039
513 1 8.00825 1.26704 13.0348 0.00277148 0.00154152 -0.00597786
514 1 5.8297 2.5485 12.9711 -0.00614361 -0.0120345 -0.00605747
515 1 7.32449 2.49678 10.9163 -0.00366694 -0.00171309 -0.0044255
516 1 5.12414 3.79931 12.5011 0.00260179 -0.00146507 -0.0106776
517 1 17.4668 2.52111 -3.38425 0 0 0
518 1 19.6501 1.26055 -3.38425 0 0 0
519 1 19.6501 3.78166 -3.38425 0 0 0
520 1 17.4668 2.52111 -2.04972 0 0 0
521 1 19.6501 1.26055 -2.04972 0 0 0
522 1 19.6501 3.78166 -2.04972 0 0 0
523 1 20.3779 2.52111 -1.45986 0 0 0
524 1 5.11564 1.25624 12.4882 0.000888652 -0.00156139 -0.00362656
525 1 20.3811 2.53366 0.0732005 -0.00240308 -0.00125818 -0.000508635
526 1 13.1001 5.04222 -3.38425 0 0 0
527 1 15.2834 3.78166 -3.38425 0 0 0
528 1 15.2834 6.30277 -3.38425 0 0 0
529 1 13.1001 5.04222 -2.04972 0 0 0
530 1 15.2834 3.78166 -2.04972 0 0 0
531 1 15.2834 6.30277 -2.04972 0 0 0
532 1 17.4668 5.04222 -3.38425 0 0 0
533 1 16.0112 5.04222 -1.45986 0 0 0
534 1 18.1945 3.78166 -1.45986 0 0 0
535 1 18.1945 6.30277 -1.45986 0 0 0
536 1 17.4668 5.04222 -2.04972 0 0 0
537 1 15.975 5.05731 0.0801779 -0.00402384 -0.000769939 0.0108735
538 1 18.151 3.75287 0.05446 0.00408054 0.00275433 -0.00817493
539 1 18.1427 6.27552 0.088107 -0.00194008 -0.000811008 0.00405661
540 1 20.3779 5.04222 -1.45986 0 0 0
541 1 18.9167 4.99942 0.622347 0.00625636 0.00608379 0.00205747
542 1 21.1143 3.7665 0.602393 0.00117488 0.0017391 -0.0143352
543 1 21.0724 6.32836 0.589347 -0.00125363 -0.000990249 0.000895422
544 1 20.2831 5.04992 0.038898 -0.00202888 0.00147522 -0.00515284
545 1 18.9265 5.01884 2.07875 0.00210033 -0.00780938 0.0021628
546 1 21.1222 3.73734 2.14817 8.67004e-05 -0.00477169 -0.00165897
547 1 21.0665 6.32092 2.14881 0.00640972 -0.00813975 -0.00594134
548 1 2.94136 2.5161 12.4704 -0.00196863 0.00161981 -0.00328339
549 1 8.73338 7.56333 -3.38425 0 0 0
550 1 10.9167 6.30277 -3.38425 0 0 0
551 1 10.9167 8.82388 -3.38425 0 0 0
552 1 8.73338 7.56333 -2.04972 0 0 0
553 1 10.9167 6.30277 -2.04972 0 0 0
554 1 10.9167 8.82388 -2.04972 0 0 0
555 1 13.1001 7.56333 -3.38425 0 0 0
556 1 11.6445 7.56333 -1.45986 0 0 0
557 1 13.8279 6.30277 -1.45986 0 0 0
558 1 13.8279 8.82388 -1.45986 0 0 0
559 1 13.1001 7.56333 -2.04972 0 0 0
560 1 11.6156 7.57152 0.0380376 0.00215252 -0.00611334 -0.00376896
561 1 13.7668 6.29446 0.0752166 -0.00164949 0.000936022 0.00764457
562 1 13.7829 8.82067 0.0823089 -0.00175102 -0.0102752 2.4624e-05
563 1 16.0112 7.56333 -1.45986 0 0 0
564 1 14.5158 7.59696 0.562193 0.00182036 0.000209188 0.0012045
565 1 16.6926 6.28035 0.608573 -0.0025054 0.0037696 0.00187986
566 1 16.728 8.79986 0.633855 0.00444811 0.000874167 -0.000340857
567 1 15.989 7.56184 0.0553669 0.00617184 -0.00120646 -0.00804255
568 1 14.4878 7.50282 2.16428 0.000827045 -0.00869067 0.00500436
569 1 16.7352 6.30159 2.19145 0.00322428 0.0010314 -0.00237086
570 1 16.7326 8.86005 2.13526 -0.000115465 -0.00421529 -0.00497232
571 1 18.9345 7.57756 0.526222 -0.000488295 0.00281242 -0.000273442
572 1 17.4564 7.5456 2.64185 0.00732489 0.00300572 -0.00604726
573 1 19.6748 6.27309 2.68181 -0.00362099 -0.00178904 0.000174738
574 1 19.6925 8.80032 2.63908 -0.00074634 0.00578773 -0.00685787
575 1 18.9466 7.52441 2.11327 0.0026431 0.00680848 -0.0122991
576 1 17.5049 7.55268 4.22903 0.00512882 0.000524391 -0.00652976
577 1 19.6944 6.27113 4.25194 -0.00313379 0.000286517 -0.00730419
578 1 19.7076 8.8122 4.28871 -0.00504608 -0.00773169 -0.000451625
579 1 20.3655 7.55654 4.76085 0.00694681 -0.0043494 4.0254e-05
580 1 4.35441 2.53744 10.4101 0.00481904 -0.000178792 -0.00113136
581 1 20.3841 7.57173 6.36096 0.00811967 -0.00992715 -0.00576151
582 1 4.36669 10.0844 -3.38425 0 0 0
583 1 6.55003 8.82388 -3.38425 0 0 0
584 1 6.55003 11.345 -3.38425 0 0 0
585 1 4.36669 10.0844 -2.04972 0 0 0
586 1 6.55003 8.82388 -2.04972 0 0 0
587 1 6.55003 11.345 -2.04972 0 0 0
588 1 8.73338 10.0844 -3.38425 0 0 0
589 1 7.27782 10.0844 -1.45986 0 0 0
590 1 9.46116 8.82388 -1.45986 0 0 0
591 1 9.46116 11.345 -1.45986 0 0 0
592 1 8.73338 10.0844 -2.04972 0 0 0
593 1 7.26732 10.0913 0.0261424 -0.00182117 0.00531064 -0.00345763
594 1 9.44544 8.82954 0.0328302 0.00482401 0.000459672 -0.00698205
595 1 9.45839 11.3306 0.106958 0.00649358 -0.00897357 0.00117198
596 1 11.6445 10.0844 -1.45986 0 0 0
597 1 10.2085 10.1333 0.555625 0.00440006 0.00525455 0.00880762
598 1 12.2981 8.7923 0.539513 0.00974332 -0.00101938 -0.0105841
599 1 12.366 11.3597 0.602223 -0.00656526 0.00533561 -0.00311584
600 1 11.6317 10.1306 0.0433197 0.00282362 -0.00294111 0.000644465
601 1 10.1467 10.0704 2.12013 -0.000322972 0.0041937 0.00350349
602 1 12.3207 8.80358 2.10438 -0.00565796 -0.00279117 -0.000734119
603 1 12.352 11.2859 2.11143 -0.00378493 -0.00204944 0.00299315
604 1 14.5247 10.0786 0.5771 0.00926134 -0.000778042 0.00395189
605 1 13.0738 10.0909 2.68114 -0.00226397 -0.00204944 0.00634759
606 1 15.2495 8.81408 2.6696 -0.0064119 -0.0015747 -1.32515e-05
607 1 15.2255 11.2927 2.66613 0.00206107 0.0102908 -0.00153209
608 1 14.515 10.0564 2.11691 -8.04249e-05 -0.00165195 0.00329967
609 1 13.1086 10.1013 4.21509 0.000118628 0.00301995 0.00498154
610 1 15.2711 8.82636 4.17621 0.00218321 0.00448084 0.00924849
611 1 15.2549 11.3279 4.22629 -0.00103499 0.00333614 0.00393584
612 1 17.4819 10.0196 2.71052 0.00286809 0.000683929 0.00539825
613 1 16.0317 10.0598 4.76051 0.00247809 0.0076868 0.00453232
614 1 18.2568 8.79608 4.70446 -8.99687e-05 -0.00227968 0.00471831
615 1 18.1732 11.3383 4.79266 0.00387594 -0.00173805 -0.00279327
616 1 17.5419 10.034 4.226 0.00395176 -0.00564684 -0.000899806
617 1 16.014 10.0502 6.30715 -0.00173819 0.00382975 0.00955006
618 1 18.1677 8.80178 6.29059 -0.00177629 0.00278576 -0.00160833
619 1 18.1737 11.3293 6.33139 0.00618625 0.00126838 -0.00348296
620 1 20.352 10.0869 4.75469 0.000723393 0.00337742 -6.70046e-06
621 1 18.8865 10.0893 6.87519 -0.00191949 0.0106838 0.00247538
622 1 21.0994 8.86335 6.86007 0.00744757 -0.00613883 -0.00157789
623 1 21.0945 11.3554 6.76324 0.0095871 -0.00304502 -0.0045808
624 1 20.363 10.1074 6.33892 -0.00975971 -0.00134735 0.00357253
625 1 18.9344 10.0582 8.37245 0.00491603 -0.00249407 -0.000166995
626 1 21.0869 8.80091 8.39636 -0.00116056 -0.00186697 -0.00421353
627 1 21.134 11.2915 8.37268 -0.000564939 -0.0090345 -0.00438442
628 1 5.1396 3.74213 10.9747 -0.00182904 0.00135936 0.00339419
629 1 5.0695 1.30981 10.9304 -0.0039106 0.00486083 0.00135624
630 1 7.75613e-11 12.6055 -3.38425 0 0 0
631 1 2.18334 11.345 -3.38425 0 0 0
632 1 2.18334 13.8661 -3.38425 0 0 0
633 1 1.14627e-09 12.6055 -2.04972 0 0 0
634 1 2.18334 11.345 -2.04972 0 0 0
635 1 2.18334 13.8661 -2.04972 0 0 0
636 1 4.36669 12.6055 -3.38425 0 0 0
637 1 2.91113 12.6055 -1.45986 0 0 0
638 1 5.09447 11.345 -1.45986 0 0 0
639 1 5.09447 13.8661 -1.45986 0 0 0
640 1 4.36669 12.6055 -2.04972 0 0 0
641 1 2.91111 12.573 0.093869 -0.00744416 -0.00243356 0.0162132
642 1 5.10404 11.2963 0.0480795 -0.00318547 0.00151367 -2.1659e-05
643 1 5.07089 13.819 0.0590265 0.00295753 -0.00638791 0.0077649
644 1 7.27782 12.6055 -1.45986 0 0 0
645 1 5.74874 12.5751 0.572336 0.00257623 -0.0017191 0.00392
646 1 8.02566 11.3213 0.553482 -0.00788803 0.00469675 -0.00185212
647 1 7.99775 13.8572 0.619534 -0.00438915 -0.00319581 -0.00794351
648 1 7.25058 12.6053 0.0805847 -0.00681214 -0.000501732 0.000307972
649 1 5.8109 12.5556 2.09424 0.00315889 0.010701 0.00436564
650 1 7.96143 11.2777 2.18609 -0.0051691 -0.0028706 -0.002208
651 1 8.02353 13.8261 2.18971 -0.00799796 0.00358862 0.00165253
652 1 10.1901 12.5414 0.589155 -0.00172247 0.00199641 -0.00283236
653 1 8.69466 12.5643 2.74096 0.000865407 -0.00189386 -0.0106824
654 1 10.9094 11.2994 2.6368 -0.0043565 -0.00211414 0.00351507
655 1 10.9116 13.8169 2.71349 -0.00349204 -0.00209635 0.0071957
656 1 10.2073 12.582 2.14885 -0.00269133 -0.000221471 0.000773449
657 1 8.66537 12.5842 4.26566 0.00426852 -0.00164195 -0.00153898
658 1 11.0083 11.264 4.24944 -0.000721598 -0.0044126 0.00209762
659 1 10.9049 13.8207 4.29758 0.00687336 0.00686102 -0.00574335
660 1 13.1131 12.6044 2.69506 -0.00145786 -0.00825955 0.00309193
661 1 11.6899 12.5757 4.79874 0.0024258 -0.00676002 -0.00585644
662 1 13.8603 11.3595 4.75251 0.00190755 -0.000889542 -0.00495929
663 1 13.7999 13.8551 4.77415 -0.0096935 -0.000515656 0.0035127
664 1 13.1212 12.5577 4.23463 0.000409302 0.00109332 -0.00505968
665 1 11.6681 12.558 6.30227 0.00550895 -0.00152483 0.00374588
666 1 13.9082 11.2813 6.32098 0.00186036 0.00431058 0.00129258
667 1 13.7716 13.8656 6.314 0.00274233 0.0029684 -0.00940546
668 1 15.9961 12.5784 4.80447 -0.00152693 -0.00149913 0.00726594
669 1 14.5538 12.6453 6.85106 0.00059098 0.00372699 0.00193997
670 1 16.767 11.3997 6.86011 0.000287602 0.000474349 -0.00153307
671 1 16.7355 13.9263 6.84975 -0.00405902 0.011044 0.00444517
672 1 16.0176 12.5919 6.31169 -0.00650462 -0.00225758 -0.00754886
673 1 14.5527 12.5926 8.41126 0.00609502 0.00392938 0.0030665
674 1 16.7055 11.3456 8.38751 0.00513233 0.00489965 -0.00305248
675 1 16.7812 13.9287 8.3745 -0.00509431 -0.00320366 -0.010165
676 1 18.9104 12.6092 6.7397 0.00225391 0.00492039 0.000584392
677 1 17.4443 12.6296 8.88647 0.00104802 0.00505629 0.00515243
678 1 19.6333 11.3138 8.89755 -0.00172499 -0.0016575 0.00597277
679 1 19.6203 13.8046 8.83632 -0.000218658 0.00026112 -0.00309549
680 1 18.9299 12.5523 8.33442 0.00276458 0.00010544 -0.00342688
681 1 17.462 12.6422 10.4058 0.00206919 0.000811889 -0.00307112
682 1 19.6289 11.3925 10.4388 -0.00589385 0.000405148 -0.00443847
683 1 19.6633 13.8917 10.409 -0.00133148 0.00245832 -0.00693259
684 1 2.93209 2.53077 10.934 -0.00763505 0.00579982 -0.0062684
685 1 20.4165 12.625 10.9699 0.00329171 -0.00457774 -0.00616803
686 1 4.35455 2.52995 8.85539 -0.0016909 -0.000923454 0.00155151
687 1 20.3803 12.6156 12.4866 -0.000102202 0.000170765 0.00118566
688 1 7.77087e-11 15.1267 -3.38425 0 0 0
689 1 0.727782 13.8661 -1.45986 0 0 0
690 1 0.727782 16.3872 -1.45986 0 0 0
691 1 1.14652e-09 15.1267 -2.04972 0 0 0
692 1 0.753837 13.8291 0.105433 0.00666766 -0.000433125 0.00117416
693 1 0.695939 16.3186 0.0690669 0.000996922 0.00219246 -0.00333573
694 1 2.91113 15.1267 -1.45986 0 0 0
695 1 1.38151 15.1398 0.611707 0.00934747 -0.00420577 0.00711874
696 1 3.58242 13.825 0.583569 -0.00481335 0.00646054 -0.00144446
697 1 3.66558 16.4228 0.649734 -0.00667296 -0.00412283 0.00954683
698 1 2.92417 15.159 0.100642 -0.00187315 -0.00305663 0.00139885
699 1 1.42167 15.1071 2.13748 0.0030024 0.00330049 0.00643052
700 1 3.63779 13.872 2.08427 0.00608075 0.00265548 0.0108491
701 1 3.62203 16.4078 2.16675 -0.00488072 -0.0023255 0.00298644
702 1 5.84187 15.0489 0.561404 -0.00882959 -0.00937092 0.00704094
703 1 4.35037 15.0991 2.64307 0.00233192 -0.000246756 -0.000507905
704 1 6.57722 13.8396 2.6484 -0.0010691 -0.00306045 0.0059648
705 1 6.54496 16.3533 2.62653 -0.00266405 0.00483377 -0.000968974
706 1 5.84284 15.0795 2.13155 -0.000570867 0.000945826 -0.00185791
707 1 4.3508 15.0663 4.23065 0.00415164 -0.00505358 -0.00329801
708 1 6.5583 13.8437 4.18643 0.000172076 -0.005146 0.00309846
709 1 6.51359 16.3815 4.19451 -0.0042051 -0.00330141 0.0030949
710 1 8.78688 15.0397 2.71609 -0.00274951 -0.00313737 0.0023933
711 1 7.22977 15.1259 4.72123 -0.00550273 0.00516285 0.0173063
712 1 9.47065 13.8574 4.82247 0.00353599 -0.000760375 0.0049928
713 1 9.52968 16.3786 4.7282 0.000983216 -0.00726043 -0.00130594
714 1 8.79629 15.1702 4.26542 0.00383493 0.00643245 0.0019224
715 1 7.26282 15.1518 6.27906 -0.00754809 0.00756191 -0.00528762
716 1 9.45209 13.8825 6.37255 -0.00042364 -0.00611884 0.00190928
717 1 9.4717 16.3696 6.30028 0.0046244 -8.10382e-05 0.00212426
718 1 11.6476 15.1013 4.71439 0.00931545 0.00307004 0.00580196
719 1 10.2184 15.1403 6.79856 -0.000942111 -0.00559902 0.00720298
720 1 12.3136 13.8849 6.80894 -0.0125435 0.00332891 0.00146201
721 1 12.3596 16.4434 6.89107 0.00464469 -0.00266759 -0.000212502
722 1 11.6421 15.1619 6.32613 0.00805528 -0.00231736 -0.000991123
723 1 10.1785 15.1139 8.3507 -0.00455844 -0.00538107 0.00401131
724 1 12.417 13.9249 8.39613 0.00394268 0.00094111 -0.0128665
725 1 12.3549 16.394 8.34618 0.00508166 -0.00496694 -0.00472714
726 1 14.5675 15.1225 6.8849 -0.000590046 0.00180748 0.00114261
727 1 13.0791 15.1631 8.94124 -0.000655046 -0.00464429 0.000708616
728 1 15.2762 13.9091 8.89315 -0.000208331 -0.00582093 0.00390257
729 1 15.3215 16.4291 8.91001 -0.000307117 -0.00444538 -0.00310003
730 1 14.5222 15.1341 8.40773 0.00257084 -0.00727634 -0.00122455
731 1 13.0929 15.19 10.4955 -3.98e-05 -0.00943759 0.00417352
732 1 15.312 13.9211 10.4156 0.0006543 -0.00755861 -0.0024271
733 1 15.333 16.3964 10.3873 -0.00425277 -0.000565406 -0.003922
734 1 17.504 15.1579 8.85886 0.00328003 -0.00595945 0.000313087
735 1 15.9888 15.1722 10.988 0.0103235 0.00617503 0.00850788
736 1 18.2117 13.8726 10.9573 0.000365056 0.00480474 -0.00298408
737 1 18.1689 16.405 10.9854 -0.00231347 0.00252766 0.00338748
738 1 17.4668 15.181 10.4354 -0.00795676 0.00115303 0.00342549
739 1 16.0452 15.1685 12.5213 -0.00744012 -3.84167e-05 0.00113564
740 1 18.1695 13.8444 12.5145 0.000618278 0.00032808 -0.00144377
741 1 18.229 16.4059 12.4914 0.00104117 0.00420692 -0.00282546
742 1 20.3896 15.1377 10.9035 -0.00549514 0.00391613 0.00274055
743 1 18.9648 15.1767 12.9978 -0.0031233 0.000192686 0.00282867
744 1 21.0649 13.8826 13.0314 -0.00449399 0.00209984 -0.00296997
745 1 21.1238 16.4055 13.0617 0.00230044 -0.000444409 0.000808354
746 1 20.3834 15.1399 12.5135 0.00167973 -0.00605262 0.00786088
747 1 18.94 15.135 14.495 0.0124142 -0.00142339 0.00382691
748 1 21.1362 13.8451 14.7236 -0.00133617 0.00871595 -0.00239523
749 1 21.1448 16.4485 14.6084 -0.00613992 -0.00233768 -0.0025463
750 1 2.1911 3.7711 10.4494 0.00451723 -0.000712201 0.00298895
751 1 2.22587 1.25842 10.3543 -0.0032219 -0.00275041 -0.00654725
752 1 1.42626 17.6061 0.588038 -0.00107589 0.00509898 -0.00344515
753 1 21.7624 17.6878 2.644 0.00231574 -0.000443597 0.000647008
754 1 2.09261 16.3776 2.66904 0.002268 -0.00856959 -0.000137144
755 1 2.16422 18.8713 2.63403 -0.00443079 -0.00118315 0.000108718
756 1 1.36387 17.624 2.11827 0.00518491 0.00455204 -0.00703644
757 1 0.0274549 17.6323 4.22115 -0.00105544 -0.0084572 -0.000679714
758 1 2.13623 16.3987 4.18512 0.000875524 -0.00492984 -0.00524131
759 1 2.19476 18.9308 4.21131 0.00480165 0.00833423 0.000466054
760 1 4.37727 17.6357 2.64342 0.00105236 -0.00190084 0.00555629
761 1 2.9265 17.6361 4.71165 -0.000853602 0.000932685 -0.0105073
762 1 5.05967 16.3648 4.67686 0.00279596 -0.00284332 -0.00414877
763 1 5.07887 18.8892 4.7252 -0.0137562 0.00591291 0.00699543
764 1 4.33964 17.6082 4.20248 -0.00716658 0.000836925 0.000583144
765 1 2.88203 17.6201 6.23349 0.00343649 4.85715e-05 0.00642123
766 1 5.08689 16.3914 6.31179 -0.00381464 0.00597794 -0.00286611
767 1 5.11611 18.9104 6.24417 -0.00279851 -0.00224886 -0.00147585
768 1 7.28538 17.6206 4.70532 -0.000207699 -0.00477459 -0.00379172
769 1 5.78361 17.6667 6.74942 0.00165682 0.0044375 -0.00105638
770 1 8.03452 16.3734 6.79496 -0.00336847 0.000546239 0.00499822
771 1 8.03085 18.9264 6.78444 -0.00218699 -0.00331715 0.000101427
772 1 7.3173 17.5997 6.26554 0.00519455 0.00250395 0.00242323
773 1 5.83401 17.656 8.3715 0.00589076 -0.00938509 0.00493258
774 1 7.97575 16.3866 8.42305 0.00108728 0.00771796 -0.00143046
775 1 8.00954 18.9096 8.29775 3.09799e-05 -0.00164747 -0.00174724
776 1 10.1414 17.6632 6.79733 0.00152501 0.0119776 -0.0153209
777 1 8.68818 17.5501 8.89601 0.00199505 -0.00216332 0.00436115
778 1 10.9409 16.4342 8.9038 -0.00269126 0.00619488 0.00154629
779 1 10.8544 18.9186 8.91838 0.000511303 0.000503493 0.00645737
780 1 10.1317 17.6464 8.37873 0.00564126 -0.0026927 0.00204202
781 1 8.69323 17.6273 10.4858 0.00965738 -0.00458614 -0.00524822
782 1 10.9383 16.435 10.4875 0.000907555 0.000926938 -0.00369289
783 1 10.8717 18.9092 10.4245 -0.000331823 0.0126803 -0.0110773
784 1 13.1 17.6561 8.90548 -0.0038679 -0.000405935 0.00512667
785 1 11.6425 17.6562 10.9426 -0.00358186 0.00623759 -0.0136647
786 1 13.8766 16.4182 10.9283 -0.00348629 0.00538921 -0.00640874
787 1 13.8059 18.8543 10.9437 -0.00835396 0.000144207 -0.00212781
788 1 13.1028 17.6822 10.4365 -0.0033989 -9.8426e-05 -0.00381857
789 1 11.6231 17.6234 12.5524 -0.00231209 0.00447388 0.000325111
790 1 13.7691 16.3775 12.5243 0.00184765 0.0033893 -0.0100576
791 1 13.825 18.91 12.5604 0.0022278 0.0118448 -0.000507905
792 1 16.0469 17.6547 11.0406 0.000178974 0.00332301 0.0052319
793 1 14.4939 17.632 13.0464 0.00461614 -0.0080193 -0.0033893
794 1 16.7916 16.4036 13.1297 -0.00542824 0.00336538 -0.00133962
795 1 16.7966 18.8993 13.0608 0.00509913 0.00576728 -0.00647768
796 1 16.0061 17.6537 12.5711 -0.00371308 0.00216155 0.000576702
797 1 14.5445 17.6286 14.5281 0.00370301 -0.00261266 0.00253055
798 1 16.7168 16.3707 14.7536 0.000692738 0.00279047 -0.00514467
799 1 16.7291 18.8755 14.6568 0.00281487 -0.00467301 -0.00526691
800 1 18.9726 17.6241 13.0252 -0.000841958 -0.00143557 -0.00611421
801 1 17.5067 17.6468 15.1281 -0.00159288 0.00300219 0.0140649
802 1 19.6129 16.4396 15.1311 4.50235e-05 0.00766499 0.0100296
803 1 19.5985 18.9652 15.0728 0.00277048 -0.00294329 0.0013685
804 1 18.9917 17.6784 14.4762 0.0105169 -0.000499192 0.00592118
805 1 18.2458 17.6798 16.6272 -0.00382878 -0.00247153 0.000502792
806 1 18.9884 16.3917 16.5794 0.00883968 0.00196679 0.0065097
807 1 19.0318 18.9512 16.5171 -0.00578014 0.00362616 -0.000800925
808 1 7.98158 6.31304 13.025 -0.000268856 0.00366423 -0.00785067
809 1 0.0121184 2.51624 10.3846 0.0107207 -0.00687416 -0.0060491
810 1 21.8295 20.1444 2.69025 0.00458797 -0.00541653 0.000266111
811 1 0.734907 18.9004 4.74488 0.00365824 0.00546098 0.00358361
812 1 0.741265 21.4568 4.71928 0.00173042 -0.00404545 -0.000794496
813 1 0.0135907 20.1869 4.25495 -0.000651097 0.00576154 -0.000809161
814 1 0.747353 18.9674 6.30486 0.00317706 0.001195 0.00231764
815 1 0.714054 21.4397 6.29212 -0.00223538 -0.00272171 0.00080827
816 1 2.87725 20.1436 4.67166 -2.74465e-05 -0.000418804 0.000677155
817 1 1.41364 20.1814 6.8167 -5.84484e-05 -7.94425e-05 -0.00378787
818 1 3.68361 18.8918 6.77256 -0.00346019 -0.000579991 0.00834608
819 1 3.61109 21.3556 6.7734 -0.00162202 -0.00367816 0.00506969
820 1 2.88553 20.1345 6.23956 -0.000135459 -0.00218174 1.65099e-05
821 1 1.5141 20.1274 8.34237 0.00166747 0.00173639 -0.0018004
822 1 3.66572 18.9328 8.31672 -0.000398332 -0.00425895 0.00770914
823 1 3.64115 21.4502 8.33534 -0.00982612 -0.00735139 -0.00124229
824 1 5.90918 20.1638 6.79318 -0.00058065 0.00123955 -0.00139935
825 1 4.35307 20.2159 8.88053 0.00999767 0.00205598 -0.00596754
826 1 6.58918 18.9112 8.87978 0.00297125 0.00200134 0.00456931
827 1 6.53294 21.4998 8.84909 -0.00654574 -0.00151515 -0.00228743
828 1 5.84412 20.1874 8.28874 -0.00174257 0.00785611 -0.00151917
829 1 4.35083 20.1967 10.4205 -0.000320959 -0.00904703 -0.00466791
830 1 6.48914 18.9468 10.4124 0.00257095 0.00248449 0.00402214
831 1 6.59244 21.428 10.4231 0.00964269 0.00493926 -0.000218668
832 1 8.75232 20.1221 8.86151 -0.00443458 0.0058081 -0.0014159
833 1 7.28445 20.139 10.9714 -0.0060445 0.00172794 -0.00381381
834 1 9.43647 18.8908 10.9553 0.00850889 0.00685799 0.00892903
835 1 9.45802 21.3982 10.9255 0.00210476 -0.00250573 0.00478476
836 1 8.71794 20.1901 10.4058 -0.00571364 0.00226515 0.00321709
837 1 7.30439 20.1654 12.5597 -0.000707013 0.000111449 0.00825247
838 1 9.48414 18.8868 12.4898 0.00653448 0.0112993 -0.00656495
839 1 9.49457 21.4413 12.4728 -0.00385542 0.00144792 -0.00390141
840 1 11.6169 20.1545 11.0001 -0.00579892 -0.00285083 -0.00256719
841 1 10.2549 20.1406 13.0368 -0.00315644 -0.00218006 -0.000699246
842 1 12.3986 18.8924 13.0684 -0.0083287 -0.011587 0.00768683
843 1 12.4319 21.4325 13.1309 -0.00299261 0.000641907 0.00512636
844 1 11.7055 20.1491 12.5549 -0.0109011 -0.00202745 0.00177214
845 1 10.2711 20.1728 14.5461 0.0100999 -0.00673363 9.51447e-06
846 1 12.41 18.9637 14.6584 0.00425084 -0.000398943 -0.00700319
847 1 12.4599 21.4264 14.6438 0.00542693 -0.00211001 0.00389116
848 1 14.6051 20.1423 12.9789 0.00234543 0.00554609 0.00679698
849 1 13.1539 20.1863 15.1958 0.00076246 0.00520136 -0.00133347
850 1 15.281 18.8776 15.0076 -0.00258988 0.000903353 -0.00555855
851 1 15.2393 21.4419 15.1594 0.000541101 0.000837219 -0.00213716
852 1 14.5951 20.1699 14.4948 -0.00085942 0.00571314 0.00272377
853 1 13.842 20.153 16.6524 -0.00440777 -0.00473127 -0.0091167
854 1 14.807 18.8759 16.5119 0.00138884 -0.0029001 0.00502599
855 1 14.5869 21.4667 16.5547 0.00819634 -0.00040648 -0.00542795
856 1 17.4788 20.1588 15.1522 -0.00728974 -0.00546111 -0.00228629
857 1 5.76789 7.55645 13.0041 0.00608575 0.00144645 -0.00617115
858 1 9.35963 10.1279 16.5748 0.0110821 -0.00660689 0.00221899
859 1 7.20286 7.5371 10.9771 -0.00687052 -0.00463371 0.00119172
860 1 18.1195 20.1471 16.6837 -0.00466851 -0.00178767 -0.00154951
861 1 5.0715 8.78955 12.5185 -0.0011941 -0.00144234 -0.00514487
862 1 1.38784 2.4702 8.37577 0.00471982 -0.00409737 0.00451539
863 1 2.2027 3.74587 8.90531 0.001897 0.010281 0.000106917
864 1 2.17179 21.4346 8.85126 -0.00453055 0.000106711 0.0019603
865 1 2.1634 1.23195 8.85466 -0.000787094 -0.00040728 -0.00337747
866 1 21.7993 2.53713 8.87665 0.00879701 0.00116292 0.00356127
867 1 2.21971 21.3771 10.421 -0.00688138 0.00195654 0.00164561
868 1 1.43681 2.50941 6.81746 -0.00455765 0.00302411 -0.00596883
869 1 5.1044 6.30207 12.4775 -0.00485646 0.00938899 0.00418909
870 1 5.156 21.409 10.9762 0.00549858 -3.11864e-05 0.00563906
871 1 18.1303 0.0381636 16.6 -0.000217746 0.00688857 0.00968981
872 1 8.77133 10.158 15.1152 0.000942507 -0.00334884 -0.00427979
873 1 5.1341 21.4271 12.4686 0.000880433 0.00154055 -0.00254876
874 1 2.90964 7.57137 12.5839 0.00576409 0.00304693 0.00806243
875 1 17.4987 0.00212717 15.0778 8.09791e-05 -0.00156341 0.0107803
876 1 8.03759 21.4168 13.0909 -0.00899978 0.00277215 0.00311492
877 1 14.5774 1.26606 16.6025 -0.00198031 0.000970213 -0.00717039
878 1 13.8052 22.6632 16.6224 -0.000291691 -0.00665441 0.00189562
879 1 8.07673 21.4059 14.7037 -0.00105679 -0.00243839 0.00196237
880 1 14.5726 22.646 14.4681 0.000468221 -0.00110573 -0.00159729
881 1 15.3031 1.21773 15.0305 0.00744797 -0.00516846 -0.00833499
882 1 10.9527 21.4634 15.1043 0.00231957 -0.000111375 0.002559
883 1 13.1739 0.0254595 15.0409 0.00477309 -0.0026282 -0.00210697
884 1 14.6117 0.0311622 12.9865 0.00207054 -0.00663728 -0.0029737
885 1 10.3015 21.3975 16.5549 -0.00455954 -0.000128168 -0.00655071
886 1 12.4429 1.28529 14.5839 0.00291598 -0.000478343 0.0035075
887 1 10.2925 0.0159934 14.4658 0.0100331 0.00581511 0.00190536
888 1 5.87024 11.3726 16.5433 0.00747853 -0.00460724 -0.0036613
889 1 11.7042 22.6755 12.5315 5.70165e-05 0.00222783 0.00366609
890 1 12.4143 1.25675 13.0393 3.18105e-05 0.00021328 -0.00112941
891 1 13.1001 22.69 -3.38425 0 0 0
892 1 15.2834 1.26055 -3.38425 0 0 0
893 1 13.1001 22.69 -2.04972 0 0 0
894 1 15.2834 1.26055 -2.04972 0 0 0
895 1 17.4668 22.69 -3.38425 0 0 0
896 1 16.0112 6.53735e-14 -1.45986 0 0 0
897 1 18.1945 1.26055 -1.45986 0 0 0
898 1 17.4668 22.69 -2.04972 0 0 0
899 1 16.0094 0.0672954 0.0772663 -0.0039762 -0.00611378 -0.00927387
900 1 18.2141 1.25011 0.0712224 -0.00355911 -0.000651542 -0.00147239
901 1 20.3779 22.69 -1.45986 0 0 0
902 1 18.9557 0.0431355 0.60015 0.00169336 0.00552173 -0.00332058
903 1 21.1114 1.28378 0.571462 0.000796876 3.81827e-05 -0.00128648
904 1 20.4201 0.00740434 0.0232525 0.00151884 0.00407511 0.00201929
905 1 18.928 0.000159425 2.0948 -0.00212811 0.0102277 0.00309253
906 1 21.0882 1.25377 2.15377 -0.000599467 0.00133718 0.00282765
907 1 10.233 22.666 12.9449 -0.000178369 -0.00287745 -0.00397046
908 1 8.73338 2.52111 -3.38425 0 0 0
909 1 10.9167 1.26055 -3.38425 0 0 0
910 1 10.9167 3.78166 -3.38425 0 0 0
911 1 8.73338 2.52111 -2.04972 0 0 0
912 1 10.9167 1.26055 -2.04972 0 0 0
913 1 10.9167 3.78166 -2.04972 0 0 0
914 1 13.1001 2.52111 -3.38425 0 0 0
915 1 11.6445 2.52111 -1.45986 0 0 0
916 1 13.8279 1.26055 -1.45986 0 0 0
917 1 13.8279 3.78166 -1.45986 0 0 0
918 1 13.1001 2.52111 -2.04972 0 0 0
919 1 11.5891 2.4738 0.0762047 0.00431188 -3.74291e-05 0.0026603
920 1 13.8131 1.20443 0.097021 0.00261054 -0.00124904 0.00814995
921 1 13.8677 3.7626 0.0740812 0.00514414 0.00626658 -0.00565831
922 1 16.0112 2.52111 -1.45986 0 0 0
923 1 14.5659 2.47218 0.617416 0.00467238 0.00262508 0.00316926
924 1 16.7622 1.22121 0.637979 -0.0013443 8.04227e-05 -0.0025026
925 1 16.6853 3.76449 0.591072 0.00510634 -0.0111958 -0.00228296
926 1 16.0432 2.49585 0.0590274 -0.00578921 -0.000427012 -0.0053624
927 1 14.5599 2.49367 2.1569 -0.000142366 -0.00809313 0.00486796
928 1 16.7823 1.22435 2.13032 0.00268426 0.000138365 0.00201656
929 1 16.7056 3.78577 2.12012 0.00217618 0.00120706 -0.00523708
930 1 18.8485 2.53579 0.502975 -0.0041587 -0.00194513 0.000147472
931 1 17.4796 2.4694 2.60972 -0.00182746 0.00207394 0.000492287
932 1 19.6477 1.24969 2.64483 -0.00132391 -0.0031045 -0.0011189
933 1 19.6384 3.76293 2.70651 0.0054335 -0.00471506 -0.00646462
934 1 18.8989 2.519 2.12194 -0.00544126 0.00215581 -0.00295801
935 1 17.4794 2.50141 4.21137 -8.11175e-05 -0.00174722 0.00527262
936 1 19.6934 1.23446 4.17064 0.00622694 -0.00441049 0.00416721
937 1 19.6652 3.72893 4.23615 0.00555516 0.000225707 0.00237607
938 1 11.6839 22.6665 10.9273 0.00227906 0.000784354 0.00294053
939 1 20.4054 2.52115 4.73572 0.00250209 -0.000960721 -0.000610166
940 1 9.47848 1.19402 12.4999 0.00183096 0.000155176 0.0018915
941 1 20.3694 2.51672 6.27032 0.000175211 0.00447848 0.00209664
942 1 4.36669 5.04222 -3.38425 0 0 0
943 1 6.55003 3.78166 -3.38425 0 0 0
944 1 6.55003 6.30277 -3.38425 0 0 0
945 1 4.36669 5.04222 -2.04972 0 0 0
946 1 6.55003 3.78166 -2.04972 0 0 0
947 1 6.55003 6.30277 -2.04972 0 0 0
948 1 8.73338 5.04222 -3.38425 0 0 0
949 1 7.27782 5.04222 -1.45986 0 0 0
950 1 9.46116 3.78166 -1.45986 0 0 0
951 1 9.46116 6.30277 -1.45986 0 0 0
952 1 8.73338 5.04222 -2.04972 0 0 0
953 1 7.27611 5.02229 0.085046 0.00881733 -0.00752654 -0.00132443
954 1 9.47482 3.8202 0.0354525 0.00161223 0.00595486 -0.00681328
955 1 9.43711 6.31578 0.0789254 0.000618374 0.0088193 -0.0010971
956 1 11.6445 5.04222 -1.45986 0 0 0
957 1 10.1478 5.0923 0.625238 0.00248693 -0.0115143 7.89662e-05
958 1 12.3781 3.74421 0.600201 -0.00357063 -0.00236643 -0.00563569
959 1 12.303 6.2575 0.614708 0.000980812 -0.00451646 0.00115179
960 1 11.6727 4.9878 0.112927 0.00420116 0.00964115 -0.00630355
961 1 10.1652 5.02843 2.17655 -0.00609966 0.00165837 0.00163
962 1 12.4179 3.70074 2.11544 -0.00180329 0.00950125 0.00154793
963 1 12.3412 6.19544 2.12789 0.00507782 0.00236754 0.00681732
964 1 14.4927 5.04276 0.573077 0.00162136 -0.000494895 0.00674057
965 1 13.0383 4.98785 2.63986 0.00100718 0.00493383 0.00100237
966 1 15.3179 3.80945 2.66443 -0.00855466 -0.000380711 -0.00613296
967 1 15.2348 6.26013 2.6748 0.00262137 -3.66753e-05 0.000232695
968 1 14.5368 5.05314 2.14635 0.00412268 0.00805283 -0.0015589
969 1 13.0471 5.01482 4.20153 -0.00802591 -0.000994582 -0.00405039
970 1 15.304 3.80011 4.24537 -0.00383697 -0.00380315 0.0046667
971 1 15.2883 6.33208 4.25411 0.000524049 -0.00647273 -0.00636489
972 1 17.5038 5.05309 2.63896 -0.0043354 -4.96714e-05 0.00435439
973 1 16.0353 5.02857 4.76134 -0.00119722 -0.00837645 0.0069018
974 1 18.1774 3.74022 4.73684 -0.0023615 0.010114 0.00207954
975 1 18.2332 6.26853 4.746 -0.00445535 -0.00724391 -0.00681419
976 1 17.5201 5.02134 4.1699 0.00239919 0.00573746 -0.00366959
977 1 16.043 4.99448 6.35819 1.74939e-05 0.000258948 0.00117315
978 1 18.1792 3.72323 6.34062 -0.00776377 -0.000433021 0.00421225
979 1 18.2187 6.2812 6.29102 -0.00554307 0.00546872 0.00226636
980 1 20.3608 5.01367 4.77843 0.000403445 -0.000712679 -0.0148512
981 1 18.8829 4.96686 6.8338 0.00148907 -0.00113777 0.00481251
982 1 21.1211 3.80115 6.82898 0.0074033 -0.000163475 0.00059699
983 1 21.0941 6.31553 6.80912 -0.00497041 0.000722999 0.00583317
984 1 20.3877 5.01219 6.33658 0.00762238 -0.00523096 0.00492838
985 1 18.9409 5.04421 8.37665 0.00755976 0.00901668 0.00718986
986 1 21.1447 3.79433 8.38316 0.000694624 -0.00213914 0.00107926
987 1 21.1479 6.30124 8.35651 -0.00449702 -0.00510425 -0.00340034
988 1 7.30095 0.0246495 12.5043 0.00755656 -6.57854e-05 -0.00719663
989 1 8.76762 22.6548 10.3998 0.00325562 -0.0028903 -0.00449423
990 1 7.72644e-11 7.56333 -3.38425 0 0 0
991 1 2.18334 6.30277 -3.38425 0 0 0
992 1 2.18334 8.82388 -3.38425 0 0 0
993 1 1.14579e-09 7.56333 -2.04972 0 0 0
994 1 2.18334 6.30277 -2.04972 0 0 0
995 1 2.18334 8.82388 -2.04972 0 0 0
996 1 4.36669 7.56333 -3.38425 0 0 0
997 1 2.91113 7.56333 -1.45986 0 0 0
998 1 5.09447 6.30277 -1.45986 0 0 0
999 1 5.09447 8.82388 -1.45986 0 0 0
1000 1 4.36669 7.56333 -2.04972 0 0 0
1001 1 2.91241 7.57287 0.109523 0.00786062 0.00202445 0.00206058
1002 1 5.07218 6.31615 0.0790409 0.00129255 0.00441447 0.00312146
1003 1 5.12887 8.81732 0.0335697 -0.00044929 0.00535003 0.000232722
1004 1 7.27782 7.56333 -1.45986 0 0 0
1005 1 5.81198 7.58746 0.596963 0.00581821 0.00250658 0.00856642
1006 1 7.97402 6.27113 0.638996 -0.00262278 -0.00320822 0.00163639
1007 1 8.01637 8.7609 0.578872 0.00578788 -0.000635115 0.00083476
1008 1 7.28557 7.56907 0.083139 0.000701113 0.000578112 -0.0105111
1009 1 5.84101 7.56031 2.18015 -0.000258042 -0.0036676 -0.00487367
1010 1 7.99279 6.25084 2.154 0.0049586 0.00108317 0.00647265
1011 1 7.97279 8.81905 2.15523 0.00437827 -0.0133622 0.00807603
1012 1 10.181 7.58975 0.593411 0.00219042 0.00342316 0.00138933
1013 1 8.73251 7.5328 2.64805 -0.00451448 -9.61579e-05 0.00622201
1014 1 10.8783 6.29337 2.69806 -0.00201306 0.000976866 4.2438e-06
1015 1 10.8748 8.78386 2.6157 -0.000982761 0.00502949 -0.0101028
1016 1 10.1478 7.55127 2.15954 -0.00206547 0.00286084 0.00623404
1017 1 8.80165 7.56502 4.2334 -0.00356055 0.00247051 0.00851623
1018 1 10.8506 6.26206 4.22873 -0.00375947 0.0027774 0.00487556
1019 1 10.9469 8.75893 4.20194 -0.000848308 0.00197389 -0.000942538
1020 1 13.0666 7.54953 2.69797 0.00489151 0.0031743 0.00421085
1021 1 11.6503 7.49731 4.79989 0.00450739 0.00442951 0.000874894
1022 1 13.8582 6.26553 4.74979 0.00471797 0.000567913 0.00350742
1023 1 13.7895 8.75315 4.70673 -0.00136784 -0.000101967 0.00173996
1024 1 13.0952 7.5304 4.23944 0.00220546 0.000307131 0.00085952
1025 1 11.6289 7.53819 6.30108 -0.00126252 0.000380134 -0.000559732
1026 1 13.8836 6.29947 6.28746 -0.00301858 0.000170012 -0.00373268
1027 1 13.8397 8.82585 6.2402 -0.00399194 -0.00217584 -0.00165345
1028 1 16.0502 7.5819 4.69743 0.0123529 -0.00162393 0.00289087
1029 1 14.6171 7.51489 6.7789 -0.00399317 -0.00115882 0.00157275
1030 1 16.7653 6.26101 6.79079 -0.00669761 0.00356886 -0.00237522
1031 1 16.7122 8.84996 6.81525 -0.00487538 -0.00798877 -0.00650853
1032 1 16.0206 7.5681 6.23698 -0.000399612 -0.00445277 -0.00039082
1033 1 14.5663 7.5545 8.32807 0.00344862 0.002098 0.00575903
1034 1 16.7421 6.28417 8.35798 0.00272037 -0.00618785 -0.00376863
1035 1 16.7795 8.8042 8.33163 -5.01704e-05 -0.00124104 0.00347469
1036 1 18.9062 7.6007 6.83865 -0.0021782 -0.0023773 -0.00121361
1037 1 17.4737 7.53809 8.81882 -0.00029099 -0.000670688 -0.00917242
1038 1 19.6862 6.2345 8.93708 0.00171616 -0.00712226 0.00478373
1039 1 19.6201 8.78947 8.94128 0.00397614 0.00119519 -0.0036637
1040 1 18.9435 7.5325 8.39022 -0.00418512 -0.00159436 -0.00187539
1041 1 17.5042 7.51833 10.4112 0.000441179 0.00456775 0.00169419
1042 1 19.6911 6.21969 10.4341 -0.00145873 5.61802e-05 -0.000464872
1043 1 19.6667 8.84553 10.431 0.000593119 -0.000633931 0.00732021
1044 1 9.49959 1.21326 10.9605 -0.00289366 0.000790932 -0.00580018
1045 1 20.3771 7.52492 11.0035 0.00340375 -0.000740062 -0.000369718
1046 1 7.28065 0.0213985 10.9256 0.00943262 0.00226884 -0.0035568
1047 1 20.3719 7.54671 12.5451 0.000879661 0.00240207 0.000859606
1048 1 7.73598e-11 10.0844 -3.38425 0 0 0
1049 1 0.727782 8.82388 -1.45986 0 0 0
1050 1 0.727782 11.345 -1.45986 0 0 0
1051 1 1.14596e-09 10.0844 -2.04972 0 0 0
1052 1 0.793552 8.8111 0.111723 0.00880258 -0.000404693 -0.00154062
1053 1 0.796181 11.3944 0.0731429 -0.00364651 0.00317234 0.0022241
1054 1 2.91113 10.0844 -1.45986 0 0 0
1055 1 1.41554 10.0854 0.657148 0.000639187 0.00485356 -0.00197215
1056 1 3.61445 8.84713 0.595189 0.00545536 -0.00234539 0.00206601
1057 1 3.62055 11.3276 0.537511 -0.00803508 -0.00129313 -0.0112571
1058 1 2.90343 10.0972 0.0582731 0.0118617 -0.000810024 -0.000712378
1059 1 1.40658 10.0281 2.15779 0.00349376 0.00187157 -0.00580378
1060 1 3.64393 8.79268 2.13777 0.00884074 0.00378053 0.00380389
1061 1 3.63283 11.3518 2.1184 -0.000226309 -0.00114244 0.00682996
1062 1 5.82023 10.0632 0.572071 0.000351815 0.00165782 0.00394777
1063 1 4.3556 10.0727 2.67774 -0.00470694 0.00205925 0.00302679
1064 1 6.55882 8.85457 2.70916 0.00357912 -0.00587981 -0.00359596
1065 1 6.52748 11.3578 2.68131 0.00347417 0.00762278 -0.00218059
1066 1 5.84278 10.0915 2.19065 0.00261363 -0.00249222 -0.00341096
1067 1 4.3364 10.066 4.20553 0.00439876 0.00317158 0.00317339
1068 1 6.5269 8.90051 4.24998 0.00158077 0.00366514 -0.00852757
1069 1 6.5771 11.3693 4.19744 0.00525627 0.00710567 0.0020413
1070 1 8.71102 10.0691 2.60882 -0.00204174 0.000316495 0.00207133
1071 1 7.27405 10.089 4.77968 0.00210519 -0.0015419 -0.000808131
1072 1 9.52851 8.83831 4.6593 0.00799546 0.00370429 -0.00413529
1073 1 9.46336 11.3166 4.71277 -0.010589 -0.00946422 0.0067515
1074 1 8.74782 10.0469 4.23175 0.0041651 0.00407208 0.00403442
1075 1 7.24414 10.0415 6.28727 -0.00295828 -0.00173987 -0.00198095
1076 1 9.48321 8.84842 6.28734 -0.00499688 -0.00473162 0.00430645
1077 1 9.42574 11.2808 6.31339 0.00309031 -0.00694225 -0.0119239
1078 1 11.7268 10.0526 4.78186 -0.00251708 -0.000177434 0.00323651
1079 1 10.2346 10.0415 6.83936 -0.00155107 -0.00152518 -0.00546435
1080 1 12.4096 8.79613 6.79415 0.00133159 0.000211882 0.00652426
1081 1 12.4212 11.2818 6.80727 -0.00316424 0.000185662 -0.00325186
1082 1 11.7017 10.039 6.3068 0.00451348 0.00487939 0.013058
1083 1 10.2273 10.0814 8.39715 -0.00420187 -0.00406336 -0.00030323
1084 1 12.4049 8.84301 8.35467 0.0054371 -0.000140303 0.0085618
1085 1 12.3656 11.3743 8.42456 -0.0064268 0.00307207 -0.00228335
1086 1 14.6257 10.0063 6.82662 0.00237248 0.00331529 0.00223168
1087 1 13.1018 10.1128 8.9392 -0.00311099 0.00708248 -0.00127111
1088 1 15.3299 8.79925 8.88127 -0.00109636 0.00496956 0.0105487
1089 1 15.274 11.3293 8.87312 -0.00304959 0.00113541 -0.00721259
1090 1 14.5849 10.0775 8.37427 0.00075951 -0.00242292 0.00168678
1091 1 13.1043 10.0604 10.4394 -0.00755124 -0.00364366 -0.00154587
1092 1 15.2697 8.81193 10.4531 0.00422065 0.00215819 -0.00128184
1093 1 15.3194 11.3541 10.4912 -0.0012443 0.00520349 0.00607089
1094 1 17.4557 10.0312 8.83645 -0.00478714 0.0107817 0.000913736
1095 1 16.069 10.0993 11.0197 -0.00204552 -0.00193884 0.003052
1096 1 18.1715 8.77235 10.9208 0.000337412 0.0065283 -0.00317152
1097 1 18.1913 11.3681 10.9651 -0.00156415 0.000427428 0.00395997
1098 1 17.4628 10.0167 10.4728 -0.00690763 0.00218652 -0.00747057
1099 1 16.0047 10.0973 12.5387 -0.00089744 -0.00324846 -0.00345321
1100 1 18.177 8.82871 12.5156 -0.0023831 -0.00343341 -0.00484911
1101 1 18.1738 11.3511 12.5409 -0.00127105 0.00716512 0.00347389
1102 1 20.3583 10.1142 10.9762 -0.000539289 0.000346814 -0.0020967
1103 1 18.9055 10.0769 12.9865 0.00084245 0.00170916 -0.00528451
1104 1 21.0874 8.80821 13.079 0.00461819 0.00441345 0.00544699
1105 1 21.1585 11.3697 13.0568 0.0049024 7.43925e-05 0.00264798
1106 1 20.4414 10.1135 12.498 -0.00159629 -0.00196255 -0.00530424
1107 1 18.9211 10.0649 14.4891 -0.000671806 -0.0018957 -0.00474515
1108 1 21.081 8.80338 14.7159 0.00341398 0.00479408 -0.00369298
1109 1 21.1421 11.3468 14.6778 -0.00438179 -0.00366931 0.00575551
1110 1 8.73578 22.6202 8.86326 -0.00755383 -0.0100783 0.00209614
1111 1 1.50685 12.6012 0.598951 -0.0121167 -0.00400649 0.00420971
1112 1 21.8157 12.6296 2.64037 -0.00123329 0.00245269 0.00405118
1113 1 2.18884 11.3569 2.65007 -0.00852915 -0.00980367 0.00201078
1114 1 2.13888 13.8564 2.61547 0.000923873 -0.00374436 0.000700989
1115 1 1.4358 12.549 2.12555 -0.00245862 -0.0101544 0.00102363
1116 1 21.813 12.6443 4.18609 0.00376423 -0.00710345 -0.00616759
1117 1 2.17593 11.2913 4.22249 -0.00503972 0.00466867 -0.000532824
1118 1 2.17036 13.8597 4.21031 0.00483791 0.00724733 -0.00218448
1119 1 4.33704 12.5796 2.60917 0.00332583 -0.00380246 -0.000123059
1120 1 2.92171 12.5854 4.68929 0.00172974 -0.000767496 -0.00360962
1121 1 5.05668 11.2863 4.76133 -0.000459843 -0.00254886 0.00693232
1122 1 5.09509 13.8058 4.68017 -0.00446819 -0.0101952 0.000532036
1123 1 4.33523 12.5411 4.19902 -0.000424957 -0.00415502 -0.000683955
1124 1 2.92291 12.6706 6.26199 -0.0013485 0.00701219 -0.00291947
1125 1 5.11848 11.3412 6.30832 -0.000661288 0.00552514 -0.00193044
1126 1 5.07222 13.8616 6.27018 0.00329258 0.00242 0.00368994
1127 1 7.30968 12.6045 4.79101 -0.0119751 -0.00928163 -0.00271708
1128 1 5.82072 12.5982 6.82005 -0.00178847 0.00167311 -0.00214877
1129 1 7.97943 11.2944 6.79265 -0.00519181 -0.00123684 -0.00353117
1130 1 8.00696 13.8726 6.86048 -0.000167907 0.00469611 0.00272257
1131 1 7.30437 12.6263 6.26123 -0.0145549 -0.00717747 0.002068
1132 1 5.80382 12.6286 8.3659 0.00947588 0.000681078 0.00872517
1133 1 7.96682 11.3307 8.34182 -0.00461127 3.59628e-05 0.00235175
1134 1 8.04871 13.8832 8.40509 0.00419722 0.00751372 -0.00117131
1135 1 10.2035 12.5673 6.8576 -0.00218793 0.00804342 -0.000446551
1136 1 8.73354 12.5803 8.8922 -0.00234645 0.000582259 -0.00409795
1137 1 10.8996 11.3827 8.92789 -0.000931494 0.0043835 0.00834412
1138 1 10.9471 13.9108 8.86395 -0.0028581 -0.00221299 -0.00088557
1139 1 10.239 12.6061 8.39731 0.00217167 0.00560975 -0.000878817
1140 1 8.72132 12.6127 10.4299 -0.00785196 0.00147014 0.00579758
1141 1 10.91 11.3553 10.4653 0.00512072 -0.00239775 -0.00897216
1142 1 10.9042 13.8889 10.4459 -0.00473322 -0.0002363 0.00586798
1143 1 13.0906 12.6251 8.89445 -0.00565493 -0.00478089 -0.00327215
1144 1 11.6187 12.6337 10.9655 -0.00704881 -0.000776525 0.00446745
1145 1 13.8206 11.327 10.9268 -0.0108433 -0.00488241 0.000596882
1146 1 13.8724 13.8845 10.9338 0.00340417 -0.000401908 -0.00177409
1147 1 13.1172 12.6041 10.448 -0.00270919 -0.00184131 0.00423316
1148 1 11.6809 12.6114 12.5187 0.000730271 0.00346945 -0.00254423
1149 1 13.8541 11.323 12.434 0.00389944 0.0116093 -0.00398938
1150 1 13.8677 13.8956 12.4861 -0.00461492 0.00726282 0.00276484
1151 1 16.0496 12.5798 10.8802 -0.000615205 0.00186306 0.00389023
1152 1 14.5865 12.6514 12.9762 0.00969674 0.00663937 -0.00451555
1153 1 16.7263 11.3117 13.0992 0.00375841 -0.00224984 -0.00159916
1154 1 16.7603 13.8844 13.0409 0.00485364 -0.00120083 -0.00655592
1155 1 16.0234 12.5944 12.4988 -0.0124141 0.00375871 -0.00583339
1156 1 14.6331 12.5941 14.477 -0.00180888 -0.00326316 0.00892913
1157 1 16.8365 11.3227 14.6529 -0.00113279 0.00100169 0.00158139
1158 1 16.7751 13.8805 14.6846 -0.000665835 -0.0103454 0.0027032
1159 1 18.908 12.6135 12.9738 0.000448459 0.00621158 0.00565895
1160 1 17.5238 12.6037 15.1156 0.00231624 -0.00217392 0.00399331
1161 1 19.6163 11.3436 15.0793 -0.0072316 -0.00633582 0.00657383
1162 1 19.6313 13.8655 15.062 0.000222273 0.00509835 -0.0014733
1163 1 18.9683 12.6223 14.472 -0.00407542 -0.0020154 -0.0033306
1164 1 18.1941 12.6023 16.6611 0.00080075 -0.00553774 -0.0015831
1165 1 18.9999 11.3234 16.6018 -0.0102702 -0.00894647 0.00381486
1166 1 18.9714 13.9038 16.6451 -0.00218376 -0.00100185 -0.00743419
1167 1 4.34609 7.52117 10.4079 -0.000376809 0.00106773 -0.00285007
1168 1 6.57894 1.26402 10.3905 -0.00364751 0.00712508 -0.000500123
1169 1 0.011428 15.1337 2.6877 -0.0012534 -0.00306308 -0.0102347
1170 1 0.697472 13.8603 4.71346 -0.00310482 -0.00284521 -0.00425245
1171 1 0.718823 16.3494 4.72541 0.00232169 0.00917788 0.00761925
1172 1 0.0176915 15.1226 4.18914 -0.00214021 -0.00577197 0.00683729
1173 1 0.741343 13.8561 6.27811 0.0023614 -0.0022666 0.00695149
1174 1 0.689171 16.3917 6.26476 -1.74058e-05 -0.00285337 -0.00685881
1175 1 2.89975 15.1156 4.69721 -0.00527808 -0.00466951 -0.00219478
1176 1 1.43433 15.1128 6.78547 0.00831354 0.00466395 0.00712144
1177 1 3.65162 13.914 6.81206 0.00159975 -0.00191976 0.00272074
1178 1 3.57204 16.3731 6.75629 -0.00180417 0.00654778 -0.000679216
1179 1 2.87322 15.18 6.24038 -0.0111497 0.0039129 0.00860141
1180 1 1.45502 15.1542 8.3281 0.00592447 0.00444507 0.0021566
1181 1 3.63798 13.7829 8.3991 -0.00420347 0.00319672 -0.0087049
1182 1 3.68123 16.433 8.36019 -0.000576565 -0.0010153 -0.00540852
1183 1 5.78151 15.1745 6.82135 -0.00531165 -0.00862907 0.00387343
1184 1 4.37935 15.1315 8.88181 0.000749774 0.000786155 0.00616616
1185 1 6.53179 13.8531 8.90111 0.0047511 0.0070322 -0.00328563
1186 1 6.54408 16.41 8.83578 0.00266573 -0.00227649 0.00866191
1187 1 5.81166 15.1063 8.34898 -0.00668494 0.00124017 -0.00450832
1188 1 4.38728 15.1149 10.3836 0.0063198 0.0027179 0.00498461
1189 1 6.53388 13.9023 10.4104 0.00150234 -0.00527266 -0.00205428
1190 1 6.55192 16.4341 10.4007 -0.000253228 -0.00014118 -0.00503536
1191 1 8.72992 15.1236 8.92611 0.00175092 -0.00894307 -0.00399333
1192 1 7.2734 15.091 10.987 -0.00409641 -0.00306967 2.74858e-05
1193 1 9.40553 13.8817 10.9267 -0.00142683 0.00225275 -0.00210111
1194 1 9.47197 16.4237 11.0294 -0.000306513 0.0107646 -0.00573845
1195 1 8.71755 15.1229 10.4608 0.00300198 0.0051891 -0.00563909
1196 1 7.25465 15.1104 12.5616 0.0112488 -0.0061129 -0.00200183
1197 1 9.42787 13.8856 12.465 0.00735462 0.00425604 0.00880038
1198 1 9.46445 16.4242 12.5667 0.00558088 -0.00285407 0.00159464
1199 1 11.6349 15.1657 10.9764 -0.00348407 -0.00263666 0.00467372
1200 1 10.1012 15.1362 13.0516 0.00938224 0.00273464 0.0043264
1201 1 12.3754 13.8833 13.0952 -0.00308394 0.00437143 0.00237742
1202 1 12.3408 16.3366 13.0942 -0.00401093 0.00208597 0.00029783
1203 1 11.6176 15.1332 12.5339 -0.0111051 0.0015944 -0.00200011
1204 1 10.2021 15.1398 14.5586 -0.00179893 -0.0048259 0.00191167
1205 1 12.3831 13.8736 14.6985 -0.00534755 0.00743959 -0.000457868
1206 1 12.3732 16.4289 14.7645 -0.00693113 0.00352926 0.00795458
1207 1 14.5354 15.1692 13.0338 -0.00413312 0.00302773 -0.00386181
1208 1 13.1648 15.1356 15.2106 -0.00401123 0.00436671 0.00733413
1209 1 15.2868 13.9016 15.086 -0.000322929 -0.00248535 0.00225477
1210 1 15.2558 16.3662 15.1231 -0.00559495 0.00255084 -0.00670546
1211 1 14.6206 15.0971 14.5356 0.00716075 0.00145561 -0.00171487
1212 1 13.7468 15.1556 16.7026 1.45532e-05 0.00809799 -0.000927213
1213 1 14.6707 13.8832 16.6501 0.00042159 0.0081753 -0.00720594
1214 1 14.6333 16.4255 16.663 -0.000408122 -0.00207564 0.003049
1215 1 17.5161 15.1281 15.1269 -0.00632698 0.00266281 -0.00567932
1216 1 5.05608 8.83757 10.965 0.00148511 0.00456084 -0.00361702
1217 1 5.80325 8.70992 16.6111 -0.0022286 0.00353269 0.0015013
1218 1 5.03391 10.0402 16.6077 0.00116364 0.00374476 -0.00151177
1219 1 18.163 15.1432 16.6386 0.00363723 -0.00458292 -0.00316656
1220 1 5.0763 6.27041 10.9557 0.00710315 0.00171801 -0.0013538
1221 1 1.46622 17.6884 6.70421 0.000138755 -0.00645593 0.00179865
1222 1 0.0276376 17.699 8.84135 -0.00356469 0.012226 -0.00697181
1223 1 2.18534 16.366 8.79329 0.000628183 0.00417973 0.00121239
1224 1 2.2162 18.8742 8.87035 0.000666743 0.000648689 -0.00637532
1225 1 1.44816 17.6342 8.26756 0.00276618 -0.00110856 0.00441342
1226 1 0.00555697 17.6997 10.381 0.00745684 0.00529187 0.00637844
1227 1 2.16471 16.4106 10.3627 -0.0016984 -0.00258848 0.00269794
1228 1 2.23036 18.8668 10.4415 0.000733535 -0.00506627 0.0013044
1229 1 4.43423 17.6734 8.88611 -0.00379507 -0.00190411 -0.00337593
1230 1 2.95552 17.6483 10.9615 0.000591376 -0.00443337 0.000558276
1231 1 5.1244 16.3802 10.8865 -0.00155869 0.00280544 0.00269956
1232 1 5.07354 18.9659 10.925 -0.00976353 -0.000269255 -0.00129785
1233 1 4.34016 17.6144 10.436 0.00602689 -0.00529775 0.00849012
1234 1 2.93196 17.6097 12.4772 0.00779092 0.00484014 0.00158299
1235 1 5.11466 16.4245 12.4846 0.00532334 -0.00683748 0.00755665
1236 1 5.1195 18.9827 12.4954 -0.00651954 0.00484127 -0.00222845
1237 1 7.25941 17.7177 10.9762 0.0013637 -0.00411541 0.00661399
1238 1 5.84165 17.6374 13.0185 -0.00237456 -0.0067512 -0.000163911
1239 1 7.98688 16.3994 13.067 -0.0092799 0.000238212 -0.0097054
1240 1 8.051 18.9207 13.1094 0.0018154 -0.00606988 0.00767999
1241 1 7.30691 17.6675 12.5382 -0.00486429 0.00747407 0.010755
1242 1 5.80311 17.6571 14.5085 -0.00128684 0.00295896 -0.0142647
1243 1 7.96859 16.3256 14.6441 0.0030904 0.00861823 0.0034661
1244 1 8.04765 18.8923 14.6861 0.00309282 -0.00436117 -0.00167092
1245 1 10.175 17.6542 13.0657 -6.15387e-05 -0.00289172 -0.00289607
1246 1 8.73502 17.6205 15.1781 0.000614304 0.00211335 0.000552992
1247 1 10.8397 16.3888 15.1447 0.000792715 -0.00272227 0.00435393
1248 1 10.8964 18.9037 15.141 0.0106647 0.00589435 0.00727256
1249 1 10.1929 17.6629 14.5629 -0.00201699 -0.00186227 0.00736529
1250 1 9.39929 17.6072 16.6816 0.00958351 0.00285073 -0.00140412
1251 1 10.2065 16.3577 16.6124 0.00746 -0.00890571 0.00142615
1252 1 10.2904 18.8552 16.579 0.00113561 0.00172692 0.00481006
1253 1 13.1337 17.6695 15.1771 -0.00737751 -0.00883457 -0.00181783
1254 1 2.95358 7.5451 10.9985 -0.000552418 -0.00321617 -0.00145879
1255 1 5.83942 10.0653 14.4677 -0.000716051 0.0100374 0.00815648
1256 1 6.49694 11.42 15.0155 -0.00489427 -0.0147453 0.00535123
1257 1 13.7671 17.6806 16.6406 -0.00219694 -0.00161885 0.00106981
1258 1 4.3747 7.53907 8.86162 0.000323059 0.00435747 0.00119429
1259 1 0.0620541 20.2111 8.88826 0.00030538 6.70306e-05 0.00515746
1260 1 0.781262 18.9183 10.9803 -0.00286518 0.000106221 0.00566417
1261 1 0.809576 21.4181 10.9266 0.00752595 0.00182514 0.00744415
1262 1 0.0344183 20.2057 10.4329 -0.0038626 0.00299544 0.00512318
1263 1 0.817519 18.8917 12.4684 0.00326705 -0.00434951 -0.0019238
1264 1 0.742236 21.4386 12.5182 0.00379077 -0.00182525 -0.00606879
1265 1 2.91929 20.1881 10.9764 2.1272e-05 0.00207654 0.00415104
1266 1 1.51712 20.1635 12.994 0.000135623 0.0106851 0.000829365
1267 1 3.65758 18.9048 13.0278 0.00446642 0.005381 -0.00532518
1268 1 3.64162 21.391 13.0295 0.00539282 0.00269944 -0.000990862
1269 1 2.89133 20.199 12.5041 0.00175589 0.0026774 0.00398983
1270 1 1.50953 20.2026 14.4458 -0.00141563 0.0055843 0.00325595
1271 1 3.65246 18.9623 14.7073 -0.0110075 -0.00030162 -0.00753674
1272 1 3.63363 21.4289 14.6479 -0.00854913 0.00500787 0.00368614
1273 1 5.84792 20.2145 13.0315 -0.00859115 -0.00262904 0.00301977
1274 1 4.35796 20.1897 15.0937 -0.00190107 -0.00707286 0.00951055
1275 1 6.49895 18.9168 15.0979 0.00353843 -0.000862147 0.00326011
1276 1 6.48312 21.398 15.0768 0.00556456 0.0120365 0.000391048
1277 1 5.84156 20.195 14.5015 0.00564251 -0.00796069 0.0021601
1278 1 5.05673 20.0898 16.5737 0.00178175 -0.000856296 -0.00950341
1279 1 5.91552 18.8405 16.6322 0.000266326 -0.0101082 0.00823263
1280 1 5.82823 21.4419 16.5786 0.00539886 -0.00485073 0.00322203
1281 1 8.82169 20.158 15.171 -0.00763446 0.000412604 0.00356316
1282 1 2.1742 8.77445 10.5398 -0.00219696 -0.0073407 -0.00485294
1283 1 6.50301 8.72385 15.0974 0.00261441 -0.00322223 0.00681508
1284 1 4.43411 10.1203 15.1717 -0.000387298 0.00851796 0.0038323
1285 1 9.48493 20.1557 16.683 -0.00296444 -0.000161485 0.00930049
1286 1 2.21394 6.30056 10.3561 -0.00605879 0.00680486 -0.00295883
1287 1 4.41167 0.0309163 10.4234 0.00119356 -0.00488461 -0.00219047
1288 1 5.85393 22.6707 8.31597 -3.75244e-05 -0.00361298 -0.00317187
1289 1 2.09983 21.5231 15.0869 -0.00734145 -0.00831025 -0.0017992
1290 1 6.6185 1.32272 8.85022 -0.00172155 -0.0142135 -0.00877198
1291 1 4.36559 0.0062532 8.8721 0.00981932 0.00608238 -0.00625779
1292 1 1.49527 21.465 16.5213 0.00206061 -0.00129148 -0.00247056
1293 1 5.85828 0.042312 6.79987 0.00676217 0.0110664 -0.00968693
1294 1 3.65719 1.27399 8.34095 -0.00596961 0.00822949 -0.00516004
1295 1 5.80038 10.0287 12.9952 0.00573817 -0.00557724 -0.00419105
1296 1 1.43839 22.6689 8.35879 0.00434457 -0.00665853 -0.000208392
1297 1 2.91235 0.0130787 6.32437 -0.00677454 0.00707187 0.00485721
1298 1 4.36669 22.69 -3.38425 0 0 0
1299 1 6.55003 1.26055 -3.38425 0 0 0
1300 1 4.36669 22.69 -2.04972 0 0 0
1301 1 6.55003 1.26055 -2.04972 0 0 0
1302 1 8.73338 22.69 -3.38425 0 0 0
1303 1 7.27782 1.46006e-15 -1.45986 0 0 0
1304 1 9.46116 1.26055 -1.45986 0 0 0
1305 1 8.73338 22.69 -2.04972 0 0 0
1306 1 7.22798 0.0719616 0.0587849 -0.0123715 -0.000302946 0.00131887
1307 1 9.43124 1.28185 0.0541873 -0.00211465 -0.0046807 -0.00426184
1308 1 11.6445 2.00293e-13 -1.45986 0 0 0
1309 1 10.1968 22.6606 0.590649 -0.00766987 -0.00775495 -0.00945527
1310 1 12.325 1.20852 0.59316 0.00355327 0.00429335 0.0066621
1311 1 11.6712 22.674 0.053214 -0.00866479 0.00990124 -0.00791287
1312 1 10.2254 22.6614 2.10182 -0.00594734 -0.00737379 -0.00716848
1313 1 12.3605 1.21007 2.18585 -0.00443374 0.000621309 -0.00474371
1314 1 14.4997 22.6746 0.634728 -0.00511616 -0.00926102 -0.00608791
1315 1 13.0686 22.6483 2.66966 0.00354864 -0.00529931 0.00533833
1316 1 15.3205 1.23728 2.69065 0.00260638 0.00567712 -0.000751645
1317 1 14.5569 0.0101213 2.14562 -0.00143353 -0.00558266 0.000732863
1318 1 13.0885 0.000606681 4.23379 -0.00102131 -0.00136027 -0.00861938
1319 1 15.3467 1.21945 4.21784 -0.00124222 0.00333558 0.00161074
1320 1 17.4667 22.6434 2.67964 -0.0107416 -0.00337037 -0.00299158
1321 1 16.0041 22.6527 4.73303 0.00381893 -0.000869988 0.00267042
1322 1 18.2667 1.29236 4.72904 0.00144912 -0.00152332 -0.00188486
1323 1 17.5182 22.6417 4.17663 -0.00043402 -0.00828763 -0.00867128
1324 1 16.0688 22.6842 6.32428 0.00214517 -0.00546846 0.0033547
1325 1 18.2394 1.25302 6.2587 0.000632272 0.00446101 0.00278723
1326 1 20.4385 22.6702 4.73092 -0.00136346 -0.00887344 -0.00450466
1327 1 18.8923 0.00836264 6.77537 -0.00127512 -0.0087087 -0.00494935
1328 1 21.0541 1.30237 6.82152 0.0081935 -0.00028793 0.00342469
1329 1 20.3747 0.0509446 6.27494 0.00689447 0.000652298 0.000854292
1330 1 18.9487 0.0424776 8.36268 0.00145049 -0.00133253 -0.00436752
1331 1 21.0397 1.29745 8.35563 0.00366882 -0.00216724 -0.000323084
1332 1 3.64119 1.23262 6.84681 -0.00723244 0.00120157 0.000957363
1333 1 1.43032 22.6773 6.77103 0.000454726 0.00181849 0.00253032
1334 1 7.73065e-11 2.52111 -3.38425 0 0 0
1335 1 2.18334 1.26055 -3.38425 0 0 0
1336 1 2.18334 3.78166 -3.38425 0 0 0
1337 1 1.14596e-09 2.52111 -2.04972 0 0 0
1338 1 2.18334 1.26055 -2.04972 0 0 0
1339 1 2.18334 3.78166 -2.04972 0 0 0
1340 1 4.36669 2.52111 -3.38425 0 0 0
1341 1 2.91113 2.52111 -1.45986 0 0 0
1342 1 5.09447 1.26055 -1.45986 0 0 0
1343 1 5.09447 3.78166 -1.45986 0 0 0
1344 1 4.36669 2.52111 -2.04972 0 0 0
1345 1 2.89997 2.56317 0.0445213 0.000798823 -0.0111438 -0.000506355
1346 1 5.04587 1.35222 0.0526166 0.00869767 -0.0016186 0.000373115
1347 1 5.06052 3.77514 0.0500281 -0.00726206 -0.003057 0.00143124
1348 1 7.27782 2.52111 -1.45986 0 0 0
1349 1 5.7833 2.54925 0.585543 -0.00431097 -0.00730447 0.00520369
1350 1 7.96836 1.29269 0.612283 -0.00263762 0.000723143 0.00320786
1351 1 7.97197 3.73982 0.558737 -0.00226968 0.00450167 -0.00187741
1352 1 7.25518 2.51318 0.106542 0.0103698 0.00273543 0.00100938
1353 1 5.81504 2.51114 2.14748 0.00220644 0.00995691 0.00251234
1354 1 8.02368 1.25823 2.1152 0.00297103 -4.61765e-06 0.00621718
1355 1 7.99473 3.77223 2.17515 -0.0061995 0.00541063 0.00598351
1356 1 10.1561 2.52032 0.580976 -0.00199292 0.00725569 0.00338167
1357 1 8.73135 2.51482 2.68821 0.00348327 -0.000102132 0.00763755
1358 1 10.9072 1.19456 2.73448 0.00356364 0.00734755 0.0001089
1359 1 10.878 3.75218 2.67131 -0.00683355 0.00341821 0.00235633
1360 1 10.1463 2.53652 2.13151 0.00252308 -0.00339325 -0.00946195
1361 1 8.78186 2.54058 4.18504 -0.000735786 -0.00364821 -0.00924588
1362 1 10.9066 1.19478 4.20928 -0.00029013 0.00971351 -0.00240553
1363 1 10.947 3.68174 4.20272 -0.0062768 0.00440968 -0.00172686
1364 1 13.1727 2.48503 2.68706 0.00202814 0.000383456 0.00427899
1365 1 11.6762 2.42278 4.74968 0.00695846 -0.00192413 -0.00749561
1366 1 13.8383 1.22566 4.74456 0.00335516 0.00334176 -0.00417005
1367 1 13.8588 3.80009 4.70548 0.0045749 0.000331007 -0.000144326
1368 1 13.1688 2.45453 4.20329 -0.00404279 0.00105839 -0.000433396
1369 1 11.6811 2.47345 6.26468 -0.00160114 0.00619033 0.000695581
1370 1 13.8231 1.23503 6.32749 0.00113542 0.00355757 -0.00697287
1371 1 13.8701 3.75778 6.28572 0.00623639 0.0043119 -0.00334873
1372 1 16.007 2.50355 4.78437 -0.00552093 0.00320543 0.00211673
1373 1 14.5207 2.50348 6.81734 -0.000386807 -0.00306953 -0.00427785
1374 1 16.7304 1.27283 6.80621 -0.00543168 -0.000854728 -0.00290281
1375 1 16.763 3.7274 6.81314 -0.00283752 0.0024921 -0.00406973
1376 1 15.9702 2.46208 6.27667 0.0110482 -0.00340849 0.00870273
1377 1 14.5319 2.44914 8.40533 -0.00363883 -0.00311048 -0.00803213
1378 1 16.7269 1.26348 8.39909 0.00622589 0.00432839 -0.00272449
1379 1 16.6764 3.77247 8.34748 0.00200897 0.00271781 -0.00302109
1380 1 18.9224 2.50547 6.83782 0.00610989 -0.00726422 0.00142064
1381 1 17.4099 2.56864 8.91641 -0.00122028 0.00441011 -0.0121613
1382 1 19.5957 1.28644 8.91313 0.00279469 -0.000750417 -0.000208818
1383 1 19.6342 3.76685 8.93856 0.0115817 0.000531623 0.00806697
1384 1 18.882 2.51013 8.42339 0.000752669 0.0112045 -0.00286488
1385 1 17.4207 2.54476 10.441 -0.00739186 -0.00757853 -0.00466031
1386 1 19.6792 1.24414 10.4444 0.00478743 0.0099621 -0.00835103
1387 1 19.703 3.77235 10.4943 -0.000468154 0.00308168 0.00376446
1388 1 2.93565 0.00197427 4.7496 0.00108614 0.00318737 -0.00016188
1389 1 20.4555 2.53585 10.9539 -0.0128351 -0.00315703 0.00312586
1390 1 0.720546 1.27681 6.29567 -0.00450888 0.00106061 -0.00403739
1391 1 20.4525 2.52511 12.5085 0.000910691 -0.000316204 -0.00488729
1392 1 7.72537e-11 5.04222 -3.38425 0 0 0
1393 1 0.727782 3.78166 -1.45986 0 0 0
1394 1 0.727782 6.30277 -1.45986 0 0 0
1395 1 1.14581e-09 5.04222 -2.04972 0 0 0
1396 1 0.709744 3.75571 0.0983404 0.00247532 0.00574036 0.000570205
1397 1 0.653747 6.28628 0.0764838 -0.00587021 0.00847533 -0.00345739
1398 1 2.91113 5.04222 -1.45986 0 0 0
1399 1 1.44541 5.06481 0.559204 -0.00250251 0.000557938 0.000580863
1400 1 3.62807 3.79497 0.604231 5.9999e-05 -0.00207589 -0.00495978
1401 1 3.59772 6.3149 0.620308 -0.000485568 -0.00377303 0.00966959
1402 1 2.86585 5.07143 0.038802 0.0128563 0.00046613 -0.0034648
1403 1 1.54297 5.05704 2.13967 -0.00209236 -0.00399716 0.00717999
1404 1 3.65056 3.79886 2.2182 -6.34865e-05 -0.0037251 0.00235017
1405 1 3.62431 6.31212 2.18701 -0.000219545 -0.0097831 -0.00756305
1406 1 5.83083 5.02257 0.585539 0.00377135 0.00175787 -0.00625143
1407 1 4.35951 5.06133 2.73386 -0.00933429 0.000660411 -0.00551926
1408 1 6.5559 3.77794 2.63386 0.00366553 -0.000613121 -0.00696795
1409 1 6.53389 6.2697 2.65508 0.00189424 -0.0118923 -0.00228521
1410 1 5.82302 5.08092 2.12498 -0.00571742 0.001573 -0.00506547
1411 1 4.4122 5.05626 4.29775 0.00205485 -0.0029381 0.00493554
1412 1 6.6049 3.74969 4.24433 -0.00590385 0.00115705 0.00690502
1413 1 6.56561 6.33222 4.24937 -0.00627221 -0.00761106 0.00384944
1414 1 8.76227 5.0518 2.70773 -0.00526375 -0.00258976 -0.0031797
1415 1 7.27009 5.09844 4.77991 0.00387196 0.00242882 -0.000900559
1416 1 9.49162 3.78299 4.73121 0.00680501 0.0011396 0.00182364
1417 1 9.44331 6.2886 4.76302 0.000192036 0.00397772 -0.00394309
1418 1 8.70281 5.08003 4.22124 0.00428359 -0.00096496 0.00427565
1419 1 7.24527 5.04768 6.28598 0.00165953 0.000242344 0.000506682
1420 1 9.46026 3.74948 6.29909 -0.000533116 -0.011464 0.00237903
1421 1 9.40712 6.30431 6.31763 0.00528834 -0.000264114 0.00325728
1422 1 11.6025 5.01701 4.69142 0.000381272 0.00090251 -0.000155529
1423 1 10.2038 5.06125 6.80048 0.00225202 0.000341515 0.00174072
1424 1 12.4121 3.7481 6.8014 0.00182591 -0.00506796 -0.000982979
1425 1 12.361 6.27951 6.80981 -0.00254719 0.0050952 0.00394345
1426 1 11.6583 5.02875 6.30403 0.00849785 0.0102318 -0.00192219
1427 1 10.1361 5.01027 8.35442 -0.00125252 -0.00429431 -0.00672132
1428 1 12.4136 3.77633 8.36283 -0.00976203 0.00624428 -0.00365156
1429 1 12.3925 6.28396 8.36968 0.00259144 -0.000871969 -0.00222214
1430 1 14.5372 5.00796 6.80287 0.00333691 -0.000374066 0.00959637
1431 1 13.1112 5.04356 8.88488 0.00118979 -0.00390584 -0.0033646
1432 1 15.2667 3.75879 8.84654 0.00476715 0.00015978 -0.00115572
1433 1 15.277 6.27609 8.85253 -0.00302409 -0.00542126 0.00239338
1434 1 14.5804 5.0058 8.35685 -0.00545196 0.00220866 0.0111199
1435 1 13.0977 5.08021 10.4243 -0.00186921 -0.00163605 -0.00862443
1436 1 15.255 3.81179 10.4265 -0.00767595 0.00689829 0.002576
1437 1 15.2892 6.29737 10.4087 0.0026113 0.00205099 -0.00546038
1438 1 17.4868 5.01827 8.90899 0.00438412 0.00423441 -0.003992
1439 1 16.0141 4.99559 10.8934 -0.00155677 0.0071092 -0.00139714
1440 1 18.2154 3.80331 10.9792 0.00634639 0.0069108 -0.00336256
1441 1 18.2107 6.30075 10.8895 0.0112815 0.00512256 -0.00192747
1442 1 17.4766 5.06625 10.4248 -0.00114976 -0.00156789 0.00172988
1443 1 16.003 5.01932 12.5059 -0.00026538 -0.00564602 -0.00732775
1444 1 18.2023 3.8193 12.4668 -0.00288703 -0.00221151 0.00318783
1445 1 18.1947 6.29842 12.4948 0.00444601 0.000698006 -0.00205479
1446 1 20.4163 5.00593 11.0237 -0.000605109 0.0124256 -0.00408363
1447 1 18.9248 5.06388 13.0642 -0.000353839 0.00645288 0.00653761
1448 1 21.187 3.74265 13.0893 0.0128466 0.00202729 -0.000820353
1449 1 21.1213 6.26998 13.114 -0.00798903 0.00197742 0.00390938
1450 1 20.3823 5.00306 12.6201 -0.00580821 -0.00413338 -0.00561388
1451 1 18.9554 5.02599 14.5357 -0.000163585 0.00876934 -0.00549545
1452 1 21.2132 3.76786 14.6957 -0.00638275 -0.00228687 0.0021832
1453 1 21.1486 6.35446 14.7095 0.00920632 -0.00181406 0.0043867
1454 1 0.0653914 22.6886 4.19752 0.00166337 -0.00133072 0.00240071
1455 1 1.44623 7.56284 0.615766 0.00569314 -0.000957259 -0.00682961
1456 1 21.8049 7.59105 2.70003 0.000878672 -0.0045826 0.00779131
1457 1 2.19839 6.3286 2.65272 -0.00104737 -4.10731e-05 -0.000175096
1458 1 2.1989 8.79922 2.7089 0.00187025 0.00286391 0.00382543
1459 1 1.44235 7.51362 2.19197 0.0015205 -0.00338537 -0.00196808
1460 1 21.8196 7.6064 4.2204 0.00153984 -0.00514553 -0.00351305
1461 1 2.16373 6.31327 4.21322 0.00170289 -0.00488403 -0.00144434
1462 1 2.16087 8.81142 4.26876 0.00212181 -0.00408194 0.0107789
1463 1 4.41216 7.50277 2.68813 -0.00259653 0.0008006 0.010202
1464 1 2.85829 7.53749 4.79243 0.0058392 0.0022795 -0.00925624
1465 1 5.11997 6.31623 4.72906 0.00163188 0.00483975 0.00401147
1466 1 5.05563 8.81399 4.73472 0.00344992 -0.00718669 0.000200533
1467 1 4.33596 7.54584 4.26746 0.00489381 0.000169121 -0.00658676
1468 1 2.91977 7.59148 6.30103 -0.0025525 0.00063059 -0.00857706
1469 1 5.09055 6.32224 6.32736 -0.000991353 -0.00571524 -0.00339634
1470 1 5.05464 8.7794 6.27811 0.00229696 -0.00204041 -0.00826337
1471 1 7.30173 7.59302 4.73994 -0.00255321 0.00816974 0.00589426
1472 1 5.81404 7.60379 6.81534 0.00303621 -0.00432165 0.000643528
1473 1 7.99275 6.29744 6.81476 -0.000854703 0.000731458 0.00414787
1474 1 8.01621 8.81865 6.80911 0.00551332 0.00206643 0.0106945
1475 1 7.25516 7.55684 6.30235 -0.000914368 0.00542578 0.00237849
1476 1 5.86268 7.53843 8.44132 0.000232269 0.00496388 0.00157186
1477 1 7.99964 6.27786 8.35504 -0.00176881 -0.00581375 -0.00737248
1478 1 7.99554 8.8184 8.39393 0.000434342 0.00752224 0.0057327
1479 1 10.142 7.53606 6.82215 0.00346788 0.00631132 -0.0084408
1480 1 8.7215 7.52849 8.85475 -0.00108849 -0.0063859 -0.00675038
1481 1 10.9125 6.26617 8.86518 0.00693133 -0.00234784 -0.00223542
1482 1 10.8918 8.76936 8.91272 -0.00420123 -0.00579938 -0.00160697
1483 1 10.1738 7.54102 8.39027 0.00376804 -0.00179169 0.000750027
1484 1 8.65314 7.51307 10.3859 0.00147673 -0.00350347 0.00400566
1485 1 10.9049 6.28806 10.438 0.00384466 0.00137242 0.00377151
1486 1 10.8747 8.87937 10.4982 -0.00860448 0.0063686 0.00133774
1487 1 13.0973 7.58537 8.87306 0.00146723 0.00664282 -0.0132629
1488 1 11.6413 7.53511 10.9201 -0.000678986 -0.00554471 -0.00158505
1489 1 13.8629 6.2887 10.9542 -0.00427842 -0.000163215 -0.000574041
1490 1 13.8247 8.80359 10.9497 -0.000132642 0.00139162 -0.000981915
1491 1 13.0914 7.54736 10.4289 0.00436755 -0.00256005 0.00118142
1492 1 11.6355 7.60038 12.4882 -0.000950274 -0.00219265 -0.000825483
1493 1 13.8175 6.30452 12.4966 0.000708671 0.011036 -0.00262828
1494 1 13.8344 8.79856 12.4347 -0.00957514 -0.00713841 0.00297594
1495 1 16.0293 7.48577 10.912 -0.00407788 -0.00755389 0.00543849
1496 1 14.5743 7.57626 12.9148 -0.000934322 0.00202098 0.00163493
1497 1 16.7814 6.30084 13.0222 -0.00124715 -0.00281761 -0.00454808
1498 1 16.7176 8.83715 13.0907 -0.00411229 0.00420659 0.00550204
1499 1 16.0501 7.52133 12.4819 0.0043113 -0.00471413 0.00269383
1500 1 14.5864 7.5469 14.4514 0.00389716 -0.00181781 0.00132807
1501 1 16.7244 6.27063 14.6463 -0.000362816 -0.000622221 -0.000608225
1502 1 16.7256 8.81662 14.664 -0.00885904 -0.00504711 0.00387813
1503 1 18.9157 7.56166 13.0457 0.00133258 -0.00201226 -0.000903271
1504 1 17.4995 7.51135 15.068 -0.000171216 -0.00834825 -0.0074769
1505 1 19.6339 6.30395 15.1154 0.00228194 -0.00395043 0.0102254
1506 1 19.5484 8.80553 15.0376 -0.00374021 0.00202285 -0.000971529
1507 1 18.9002 7.50728 14.4808 0.00132965 0.0031949 -0.00569657
1508 1 18.0963 7.54392 16.6191 -0.00449534 -0.00751505 -0.0039893
1509 1 18.9975 6.32291 16.5843 0.00297769 -0.00213219 0.00195819
1510 1 18.9127 8.76888 16.5819 -0.00488831 0.00129914 0.00169836
1511 1 0.773991 1.3023 4.72856 0.00507969 0.00273056 -0.00161594
1512 1 21.8294 7.5521 10.46 0.00618456 -0.00242038 0.00177016
1513 1 21.7987 22.6715 2.66945 -0.00667218 -0.0083915 0.00685218
1514 1 21.788 10.0842 2.6948 -0.00259433 -0.00900578 -0.0108218
1515 1 0.691568 8.84679 4.7557 0.0033923 0.00710115 -0.000856846
1516 1 0.693717 11.304 4.68598 -0.00402321 -0.00156806 0.00117794
1517 1 21.7861 10.1066 4.18928 -0.00131273 0.000179564 -0.00655397
1518 1 0.711188 8.82686 6.28645 -0.00420185 -0.00595736 -0.00303382
1519 1 0.699846 11.3503 6.25612 -0.00776388 -0.00986224 0.00110458
1520 1 2.86611 10.0647 4.75879 -0.00512738 0.00576075 -0.00437218
1521 1 1.46154 10.1191 6.8211 0.00323826 0.0060787 -0.00300476
1522 1 3.61158 8.80479 6.8569 0.000400699 -0.00259252 0.000106125
1523 1 3.69335 11.4065 6.80133 -0.00535383 -0.00838488 -0.00224001
1524 1 2.90908 10.0933 6.2942 -0.00264129 0.00531939 0.00114376
1525 1 1.44968 10.0186 8.41194 0.00201115 -0.00132008 9.12135e-05
1526 1 3.63634 8.80845 8.37665 0.00741015 -0.000443568 -0.00242758
1527 1 3.61426 11.3547 8.35036 0.000990699 -0.00168786 -0.00163934
1528 1 5.8613 9.99862 6.78499 -0.00128646 -0.00745994 -0.0068608
1529 1 4.3568 10.0691 8.88186 -0.00148857 -0.0051334 -0.00420979
1530 1 6.53809 8.81227 8.91831 -0.000557748 0.008687 -0.00717718
1531 1 6.54472 11.3252 8.81028 0.0113897 -0.00291 0.0045483
1532 1 5.85838 10.0572 8.3277 0.00698033 -0.00691163 -0.00565996
1533 1 4.36386 10.1002 10.3966 -0.00390213 -0.00423461 -0.00137624
1534 1 6.51653 8.84837 10.4882 -0.00176681 0.00280391 0.00742734
1535 1 6.52726 11.3574 10.3679 0.000820197 -0.000849816 0.000225787
1536 1 8.71575 10.0603 8.89434 0.001957 0.00611899 0.00245467
1537 1 7.23625 10.0999 10.9313 -0.0171876 -0.000480874 0.00316509
1538 1 9.37838 8.80181 10.9835 0.00131177 -0.000909555 -0.00670204
1539 1 9.45651 11.3476 10.9359 -0.00583645 0.000306226 0.00080753
1540 1 8.6814 10.1102 10.4517 0.00671787 -0.00435606 0.00404532
1541 1 7.2459 10.0896 12.5189 0.00689719 -0.00128458 0.00586562
1542 1 9.37645 8.84245 12.4771 -0.00450447 -0.00168844 -0.00442627
1543 1 9.41317 11.4056 12.5293 -0.00684928 0.000332971 0.00389973
1544 1 11.6235 10.1112 10.956 0.00505872 0.000645628 -0.00596387
1545 1 10.1585 10.1003 12.9537 0.00522777 -0.0096426 -0.00246435
1546 1 12.3876 8.82039 13.0577 0.00346036 0.00215485 0.00298486
1547 1 12.4001 11.3737 13.0496 -0.0105931 0.00278603 -0.00409604
1548 1 11.6302 10.0561 12.49 -0.00493571 0.00308046 -0.000341152
1549 1 10.2084 10.1824 14.4248 0.00555317 -0.00608527 0.00203438
1550 1 12.315 8.84305 14.6069 0.00634729 0.00628181 -0.0017335
1551 1 12.4599 11.3397 14.6979 -0.00577067 -0.00438303 0.004503
1552 1 14.549 10.0854 13.0092 0.000918191 -0.00197593 0.00343037
1553 1 13.1337 10.0759 15.1061 0.00291617 0.00755043 -0.00463359
1554 1 15.2338 8.86592 15.0621 -0.000873825 -0.00532479 -0.00887629
1555 1 15.2781 11.322 15.0235 0.00279903 -0.00842656 -0.00760815
1556 1 14.522 10.0317 14.4758 0.00562502 -0.00135174 -0.00371391
1557 1 13.778 10.0509 16.5973 0.00809783 0.00160327 -0.00594556
1558 1 14.6101 8.78069 16.4563 -0.00965671 -0.00778208 -0.00167529
1559 1 14.6151 11.3045 16.4793 0.00206047 -0.00659338 -0.0122009
1560 1 17.5085 10.1162 15.1164 -0.00569822 0.00843439 0.00539052
1561 1 1.4613 7.6096 8.43651 -0.00350874 0.00448442 0.000652723
1562 1 3.69931 11.3055 14.7027 -0.00625744 -0.00376753 -7.02512e-05
1563 1 3.66557 8.8276 14.6708 -0.00336262 -0.00353075 -0.00686475
1564 1 18.1179 10.0845 16.6458 0.00160701 0.00368945 -0.000479999
1565 1 2.17815 8.80827 8.94091 -0.00438432 0.00165249 -0.00251218
1566 1 1.45934 12.6001 6.74659 0.00169138 0.00205924 0.000220689
1567 1 0.00146595 12.5644 8.8822 0.00131147 -0.00434115 -0.00290098
1568 1 2.18466 11.3289 8.88608 -0.000521352 0.00610239 -0.00250918
1569 1 2.23029 13.8782 8.85355 -0.00754275 0.0097586 0.00525111
1570 1 1.4308 12.6063 8.34749 0.000663563 -0.0070066 -0.00386178
1571 1 21.8278 12.6449 10.4411 -0.0076041 0.00115691 -0.00200011
1572 1 2.15308 11.3227 10.404 -0.00947369 0.000217912 -0.00195921
1573 1 2.2266 13.874 10.3572 -0.00437892 -0.00374695 0.00235398
1574 1 4.32407 12.5805 8.8988 0.00164979 0.00850926 0.00390454
1575 1 2.8598 12.5831 10.9106 0.00345093 0.00538613 0.000508072
1576 1 5.12333 11.3606 10.9106 0.0164302 0.0015857 0.000961414
1577 1 5.09024 13.916 10.9335 -0.000188138 0.00437523 -0.00502605
1578 1 4.36782 12.5565 10.4395 0.00667633 0.00711292 -0.00312123
1579 1 2.8776 12.5668 12.5177 -0.00907086 0.00425207 0.00597538
1580 1 5.08362 11.3155 12.4831 0.00320981 0.00220879 0.0044205
1581 1 5.0901 13.8524 12.448 0.00259391 0.0022425 -0.00367526
1582 1 7.28289 12.6325 10.9073 0.00419965 0.0051262 -0.00494339
1583 1 5.79006 12.6051 12.9714 -0.00322415 -0.000147086 0.00296427
1584 1 7.95635 11.3147 13.032 0.00202599 0.00827964 -0.000578794
1585 1 7.99514 13.8264 13.0665 0.00301798 -0.00355508 0.000676455
1586 1 7.21304 12.6147 12.4202 0.00161387 0.00405493 0.0030964
1587 1 5.7378 12.6205 14.4495 -0.00478969 0.00871175 0.00808604
1588 1 7.96977 11.3951 14.6279 0.00508789 0.00327287 0.00329595
1589 1 8.05147 13.877 14.6057 0.000942803 0.00116924 -0.000381536
1590 1 10.2063 12.6579 12.9701 0.000415386 -0.00785388 -0.00264824
1591 1 8.75696 12.6035 15.0912 0.00935221 -0.00181569 0.00716646
1592 1 10.9108 11.3399 15.0469 0.00758207 0.000982862 -0.00502952
1593 1 10.8818 13.8933 15.1318 -0.00182828 -0.00462744 0.00321617
1594 1 10.2274 12.6066 14.4798 0.0137592 -0.00552721 -0.0020015
1595 1 9.28838 12.6641 16.5933 0.00615104 -0.00721796 0.00146424
1596 1 10.1962 11.377 16.5638 -0.00536816 -0.00815565 -0.000975413
1597 1 10.182 13.8319 16.5258 -0.00502118 0.00978072 0.00566711
1598 1 13.1825 12.6062 15.2272 -0.00177087 0.00418503 0.00122533
1599 1 2.16866 6.29884 8.87256 -0.00336257 0.00928105 -0.00146894
1600 1 1.4697 10.1026 14.5239 -0.00108861 0.00282213 -0.00618653
1601 1 2.88025 10.0972 12.5328 0.00242188 -0.00795803 0.00441454
1602 1 13.9003 12.5843 16.685 0.00495034 -0.00355239 0.00108173
1603 1 0.0735363 7.55287 8.90327 -0.000752361 0.0028187 -0.0134845
1604 1 0.00986286 15.1388 8.86824 0.00394885 0.00470624 0.00167738
1605 1 0.793643 13.8506 10.958 0.000331626 -0.00630372 -0.00529988
1606 1 0.693055 16.3459 10.9108 -0.00483201 -0.00223742 0.00290013
1607 1 21.8184 15.0905 10.4064 0.00154493 0.00371945 -0.00642688
1608 1 0.735655 13.8889 12.4859 -0.00309257 0.00817924 0.00257909
1609 1 0.70281 16.4109 12.4188 0.00262439 -0.000237308 -0.000584367
1610 1 2.96134 15.1365 10.8829 0.00989187 0.00350045 -0.00156351
1611 1 1.51125 15.1447 12.9214 0.00466759 -0.0033121 0.00585819
1612 1 3.64607 13.8306 13.0213 -0.00362112 -0.00212593 -0.00193665
1613 1 3.65097 16.399 13.0233 0.00602003 -0.00411776 0.00231532
1614 1 2.93718 15.0787 12.4133 -0.00095723 0.0064496 0.00569767
1615 1 1.51939 15.1567 14.4613 0.00197922 -0.00251123 0.00299502
1616 1 3.65897 13.9033 14.6283 0.00626703 -0.00115507 0.00243848
1617 1 3.67767 16.4043 14.5716 0.00374444 -0.00342516 -0.005025
1618 1 5.79647 15.1095 12.9824 0.00269241 -0.00248973 0.00200261
1619 1 4.38029 15.1403 15.0963 0.0104565 -0.00429982 -0.00946634
1620 1 6.44987 13.8611 15.0579 0.000486317 -0.00389634 -0.0011399
1621 1 6.53016 16.3246 15.1275 -0.00535561 -0.00570583 0.00341062
1622 1 5.77426 15.1304 14.4552 -0.000704335 0.00747283 0.00639301
1623 1 5.03066 15.1136 16.6336 0.000821416 0.00549932 0.0015278
1624 1 5.86811 13.8551 16.4921 0.00464037 0.00269115 -0.0059243
1625 1 5.88609 16.3231 16.6139 -0.0131354 0.00676148 -1.48955e-05
1626 1 8.6957 15.1496 15.169 -0.00386501 -0.00590773 -0.00309886
1627 1 1.4854 7.59034 6.82655 0.00675419 -0.00316934 -0.00638871
1628 1 3.61482 11.3215 13.0736 0.00106079 -0.00157935 0.00136479
1629 1 3.62725 8.81986 13.1108 0.000650616 -0.003583 0.00770927
1630 1 9.34099 15.0846 16.6222 -0.00499835 -0.000186027 -0.0086904
1631 1 18.1309 5.00585 16.6638 -0.00405831 -0.00270918 0.00109813
1632 1 1.52003 17.6622 13.0376 -0.00832083 -0.00169123 -0.00386092
1633 1 0.00951442 17.7153 15.1678 -0.00221115 0.00150014 -0.00195189
1634 1 2.16599 16.4621 15.0406 -0.000578111 0.00269601 0.00387819
1635 1 2.21454 18.9231 15.0732 -0.00361843 0.00189912 0.00656865
1636 1 1.50302 17.6783 14.4578 0.00480171 -0.000288755 -0.000475944
1637 1 0.727465 17.6298 16.5172 0.00228944 -0.00242661 -0.00502108
1638 1 1.54818 16.3816 16.4923 -0.00115004 -0.0015292 0.00538033
1639 1 1.52524 18.8497 16.5495 -0.00726131 0.0030446 -0.00576382
1640 1 4.39781 17.6716 15.1762 0.00274259 -0.00635071 0.000607116
1641 1 0.7523 8.83331 11.0228 -0.0104271 0.00229262 -0.00212758
1642 1 1.4073 10.0471 12.9978 0.000328867 -0.00261278 0.00408657
1643 1 2.89509 10.1122 10.9498 -0.00109159 -0.000820198 -0.00545972
1644 1 5.04232 17.533 16.6872 0.0056081 0.00461793 0.00124083
1645 1 0.737958 11.3307 10.93 0.000940154 0.00096641 -0.00497993
1646 1 0.0517879 20.1488 15.0592 0.0013765 -0.00677604 0.00624131
1647 1 0.746436 11.3224 12.5136 0.00176032 0.00136402 -0.00105472
1648 1 0.702336 8.82213 12.5689 0.00202374 -0.00588766 0.000973493
1649 1 0.719742 20.1295 16.5873 -0.00143926 -0.00120697 0.00724033
1650 1 17.5185 5.00492 15.0995 0.00482004 0.00128152 0.00266017
1651 1 7.74369e-11 22.69 -3.38425 0 0 0
1652 1 0.727782 1.26055 -1.45986 0 0 0
1653 1 1.14613e-09 22.69 -2.04972 0 0 0
1654 1 0.745667 1.29013 0.0376983 -0.003234 -0.00680428 0.00447883
1655 1 2.91113 22.69 -1.45986 0 0 0
1656 1 1.41943 0.0186489 0.525618 -0.00946076 -0.000902847 -0.00183035
1657 1 3.59063 1.28676 0.596615 0.000351475 -0.00197552 -0.00117911
1658 1 2.93045 0.0517407 0.0665315 0.0037084 -0.00060715 0.00650548
1659 1 1.40508 22.6811 2.09057 -0.00533562 -0.00377207 -0.00644228
1660 1 3.6368 1.21242 2.18591 -0.00738264 -0.00294012 -0.00140586
1661 1 5.78641 0.069606 0.598452 0.0086799 -0.00649052 -0.000662926
1662 1 4.33344 0.00804479 2.70212 -0.00375499 0.00369729 -0.00229103
1663 1 6.51733 1.30789 2.68848 0.00497853 -0.00224235 -0.00519288
1664 1 5.84764 0.0405856 2.14907 -0.0073382 0.000181466 -0.00298909
1665 1 4.35591 22.6767 4.21695 -0.00890782 0.00246591 0.00428547
1666 1 6.55043 1.273 4.20663 -0.002869 -0.00464983 0.00557587
1667 1 8.70369 22.6237 2.59518 -0.00287438 0.00205191 0.00459704
1668 1 7.32029 22.6842 4.68003 -0.00305238 0.000822158 0.00366659
1669 1 9.48122 1.24683 4.72682 -0.000363425 0.00883008 -0.00109045
1670 1 8.7502 22.6767 4.14186 0.00107852 0.00212362 -0.00313215
1671 1 7.30735 0.0074872 6.26703 0.00167352 0.00667831 -0.00536925
1672 1 9.45406 1.24215 6.29376 0.00491805 0.00291674 0.0092067
1673 1 11.6599 22.668 4.73077 -0.00105137 0.000777288 -0.00498489
1674 1 10.1921 0.0320627 6.76814 0.00480672 0.00497958 0.00252826
1675 1 12.3539 1.2228 6.80144 0.000878928 0.00229405 0.00659558
1676 1 11.5991 0.00637709 6.33924 -0.0068909 -0.00668155 0.00197474
1677 1 10.1794 22.645 8.34023 0.000436174 0.00478122 0.00419679
1678 1 12.3475 1.25316 8.38111 -0.00532947 0.00525312 0.0039538
1679 1 14.5933 22.6686 6.80893 -0.00107227 0.0078005 0.00179207
1680 1 13.104 0.0206381 8.8344 -0.00529857 -0.0110783 0.00669195
1681 1 15.2573 1.25176 8.92946 -0.000785735 -0.00903157 -0.00774063
1682 1 14.5358 22.6751 8.3529 -0.00276755 0.00578923 -0.00108232
1683 1 13.1084 0.0653957 10.3677 0.00732675 -0.00270721 -0.000650782
1684 1 15.2834 1.27906 10.4513 -0.00218007 0.00664964 -0.0035085
1685 1 17.459 0.0050827 8.9161 -0.000519064 -0.0016939 -0.00113497
1686 1 16.0584 22.684 10.963 -0.00545342 -0.00593163 0.00466937
1687 1 18.1635 1.3524 11.0286 0.00856928 0.000742415 0.00423831
1688 1 17.4515 0.0119833 10.4961 0.00101575 0.00366206 0.00615967
1689 1 16.0441 0.0172314 12.5285 0.00245625 0.00277407 -0.00451757
1690 1 18.2386 1.28378 12.5224 0.00456034 0.00891516 0.00689336
1691 1 20.3949 0.0410466 10.9637 -0.00100171 0.00376152 0.00323041
1692 1 19.0008 0.026009 13.0673 0.00354002 0.000710274 0.00154805
1693 1 21.1475 1.28875 13.1368 -0.00884609 0.00227402 0.000863289
1694 1 20.421 0.055108 12.5747 -0.00772435 -0.00242827 0.00577433
1695 1 18.9433 0.010548 14.4955 -0.00236265 -0.000857817 -0.00334723
1696 1 21.1274 1.27811 14.7164 -0.000339978 0.005899 -0.00803352
1697 1 14.5507 6.35923 16.4848 0.00473617 -0.00459862 0.00048808
1698 1 0.658175 15.2003 16.6018 0.0072635 0.00125087 0.00167669
1699 1 1.48602 2.52931 0.615319 -0.0070509 0.00227007 0.00537558
1700 1 0.0132215 2.53718 2.63631 -0.000338874 0.00545834 0.00381782
1701 1 2.1526 1.20564 2.63869 -0.00297434 0.00393262 0.0120215
1702 1 2.22625 3.80295 2.61629 -0.0113123 0.00239418 0.00414265
1703 1 1.49372 2.50832 2.12088 0.0014952 -0.00619184 -0.00852758
1704 1 0.0382196 2.52748 4.18954 0.0100649 -0.00354241 -0.00323942
1705 1 2.21423 1.25634 4.21563 -0.000193204 -0.000513535 0.00251379
1706 1 2.24951 3.78403 4.2426 0.000832174 0.00211213 -0.000990831
1707 1 4.35214 2.49989 2.67211 0.00466077 0.00189654 0.000680649
1708 1 2.95625 2.55665 4.74891 0.00314499 -0.0013364 -0.0019299
1709 1 5.13527 1.20905 4.70765 -0.00282522 -0.0043978 -0.00194816
1710 1 5.18572 3.71955 4.77128 -0.00807862 0.00330662 0.000767621
1711 1 4.40343 2.55674 4.2676 -0.00727487 0.00307815 -0.00460485
1712 1 2.90208 2.4876 6.31438 -0.00697726 8.61853e-06 -0.00294543
1713 1 5.11499 1.18383 6.22863 -0.00271869 -0.00616874 -0.00200682
1714 1 5.12854 3.76712 6.29067 0.00140819 0.0079549 -0.000512083
1715 1 7.32105 2.4995 4.7435 -0.00251681 0.00285187 0.00239125
1716 1 5.85975 2.49661 6.80846 0.000745185 -0.000619505 0.000479873
1717 1 8.03808 1.27385 6.78666 0.000424349 -0.00536226 -0.0050755
1718 1 8.01656 3.81024 6.78799 -0.00669376 -0.0066641 0.00519749
1719 1 7.27198 2.5002 6.23583 0.00276229 0.00237129 -0.00558554
1720 1 5.8543 2.54642 8.33953 0.00533112 -0.00596999 0.000232215
1721 1 8.03409 1.30256 8.30808 0.000426127 -0.00580236 0.00238559
1722 1 7.99523 3.8165 8.30981 -0.00337386 0.00197293 -0.00525789
1723 1 10.2298 2.4813 6.77998 -0.00883337 0.000810933 -0.000420001
1724 1 8.72796 2.56265 8.84891 -0.00444443 0.00284788 -0.0035222
1725 1 10.9466 1.24759 8.86958 -0.00591777 0.00956912 0.00323083
1726 1 10.94 3.80699 8.88911 0.00346035 -0.00534434 -0.00151586
1727 1 10.228 2.52728 8.33591 -0.00840788 0.000398418 -0.00298874
1728 1 8.73765 2.49758 10.413 -0.00381382 7.23009e-05 0.00217643
1729 1 10.9295 1.22785 10.4503 -0.00571686 -0.00453213 0.00586601
1730 1 10.9398 3.77019 10.4293 -0.000958511 -0.0134018 -0.00494441
1731 1 13.1194 2.49887 8.9395 0.00459669 0.00807189 -0.00545194
1732 1 11.6123 2.4936 10.9307 -0.00675174 -0.00292858 0.00437413
1733 1 13.7925 1.27229 10.9265 -0.00489685 0.00482263 0.011699
1734 1 13.8342 3.8205 10.9545 -3.60146e-05 0.00176121 0.00294282
1735 1 13.0378 2.50083 10.4307 -0.000475611 -0.000778223 -0.00582258
1736 1 11.6516 2.56057 12.5238 0.0013551 0.00356368 0.00637312
1737 1 13.8203 1.32161 12.4567 0.00328573 0.00542714 -0.000215249
1738 1 13.8371 3.82547 12.4838 0.00144684 0.00215759 -0.00686568
1739 1 15.962 2.56277 10.9201 0.00354518 0.000965879 0.00249861
1740 1 14.5614 2.54598 13.0428 -0.00325688 0.0125842 0.00525853
1741 1 16.7714 1.32494 13.0158 0.00356815 0.00277011 -0.000402531
1742 1 16.723 3.81562 13.0396 0.00145002 0.00269404 -0.00705374
1743 1 16.037 2.56811 12.5171 0.00115247 -0.00535895 -0.00180262
1744 1 14.6118 2.49125 14.5402 -0.00840634 -0.00638653 -0.000657412
1745 1 16.783 1.28303 14.5288 0.00806293 0.000185508 0.0014265
1746 1 16.7743 3.77419 14.6075 -0.00329168 -0.00873501 0.00548814
1747 1 18.9321 2.53456 12.973 -0.00915163 -0.00438298 -0.00203037
1748 1 17.544 2.47172 15.0618 0.00562807 0.00464305 0.000364819
1749 1 19.5798 1.24951 15.0642 0.00073778 -0.00568231 -0.00583405
1750 1 19.6897 3.78952 15.1464 -0.00376691 0.00393977 -0.00891762
1751 1 18.9513 2.5511 14.483 -0.00184809 0.0177804 0.0083657
1752 1 18.0969 2.56503 16.6155 3.34993e-05 0.000599504 -0.0055838
1753 1 18.9409 1.30466 16.5278 0.00183754 0.00921464 -0.00243767
1754 1 19.0444 3.80287 16.5874 0.00380328 -0.00563088 -0.00570124
1755 1 14.588 3.81534 16.5446 -0.00265641 -0.00501439 0.00230259
1756 1 21.8207 10.0491 10.4423 -0.00612231 -0.00285702 0.00113258
1757 1 0.0459756 5.05001 2.57718 0.00689226 0.00459453 -0.00348087
1758 1 0.789616 3.79716 4.81078 -0.00164557 0.00497545 -0.00266256
1759 1 0.702805 6.27516 4.73397 -0.00930702 -0.00423122 0.002255
1760 1 0.033065 5.06425 4.22717 0.00286103 -0.00243108 -0.00533082
1761 1 0.765386 3.79795 6.24178 -0.00636937 -0.000334446 0.000220702
1762 1 0.72089 6.27215 6.29983 -0.00269418 -0.00857327 0.0053395
1763 1 2.93773 5.04572 4.77415 -0.00490105 0.00113011 0.00664745
1764 1 1.50436 5.05 6.79956 0.00177349 -0.0128136 0.00704276
1765 1 3.67689 3.80814 6.78964 -0.00599888 -0.00322458 -0.000953861
1766 1 3.6234 6.35704 6.86176 0.00206124 -0.00428539 0.00761366
1767 1 2.92054 5.05261 6.28734 -0.00211385 -0.00121398 0.00806304
1768 1 1.44289 5.00972 8.37281 0.00959358 -0.00332192 -0.00517048
1769 1 3.62738 3.78317 8.35471 0.000705781 -0.000541181 0.00739323
1770 1 3.63488 6.28228 8.34995 -0.00274304 -0.00103594 -0.00700608
1771 1 5.77162 5.06518 6.82355 0.00399134 0.00700541 0.00157493
1772 1 4.3777 5.01558 8.89286 0.00526599 -0.00305642 0.00208606
1773 1 6.50822 3.78735 8.85082 0.00565951 -0.00508169 0.000711467
1774 1 6.5621 6.27308 8.93611 0.0136351 0.00130198 -0.00298531
1775 1 5.7902 5.02255 8.37435 -0.000289766 -0.0113685 -0.00650518
1776 1 4.33262 5.00606 10.4322 0.00396424 -0.00890574 0.000541484
1777 1 6.58094 3.71142 10.4229 -0.00192757 0.00124561 -0.0010857
1778 1 6.56053 6.26402 10.4349 0.00225034 -0.00385951 -0.00197306
1779 1 8.73411 5.03327 8.85767 -0.00456346 -0.00115708 -0.000364781
1780 1 7.28939 4.95696 10.9063 -0.00374994 -0.00597811 -0.00676168
1781 1 9.47635 3.77782 10.9192 0.0025503 -0.000240938 0.0120049
1782 1 9.47559 6.28907 10.9613 0.00308731 -0.00080303 -0.00436193
1783 1 8.7481 4.99027 10.4033 -0.00118354 -0.00138184 -0.00478597
1784 1 7.26719 4.99835 12.5384 0.0105047 0.00527913 -0.00293843
1785 1 9.44567 3.7815 12.4916 -0.00629371 0.00462264 -0.00830164
1786 1 9.4388 6.29978 12.4765 -0.00612831 -0.00100676 -0.00164374
1787 1 11.5798 5.01354 10.9252 0.00393733 0.000350164 0.00635811
1788 1 10.1512 4.99119 12.9737 0.000319202 0.00183741 -0.00574385
1789 1 12.3494 3.7799 13.0865 -0.00581234 0.00540007 -0.00319635
1790 1 12.3187 6.3261 12.9961 2.69471e-05 0.00714799 -0.00654584
1791 1 11.6219 4.99617 12.5412 -0.00450239 -0.00951036 -0.00241908
1792 1 10.205 5.05584 14.4186 0.00268652 -0.000132466 -0.000722787
1793 1 12.3561 3.74422 14.7251 -0.00510086 -0.00693366 -0.0027393
1794 1 12.3805 6.27735 14.6914 -0.00774568 5.67569e-05 0.002638
1795 1 14.5359 5.06328 13.0294 0.00365167 0.00362093 0.00371471
1796 1 13.0976 5.02006 15.1561 0.00132854 -0.00235461 -0.00355589
1797 1 15.3519 3.81965 15.0922 0.000637682 -0.000110935 0.00438655
1798 1 15.2057 6.32018 15.08 -0.00443604 0.00145539 -1.02488e-05
1799 1 14.6253 4.99373 14.4948 0.00660034 -0.000496418 -0.00258302
1800 1 13.7845 5.1057 16.6546 0.00296564 0.000854759 -0.00955222
