ITEM: TIMESTEP
0
ITEM: NUMBER OF ATOMS
1215
ITEM: BOX BOUNDS pp pp mm
0.0000000000000000e+00 2.2689985001334318e+01
0.0000000000000000e+00 2.2689985001334318e+01
-2.2283669804811876e+00 2.8523097350159201e+01
ITEM: ATOMS id type x y z vx vy vz
1 1 22.6898 3.78166 -0.993031 0 0 0
2 1 22.6898 1.26055 -0.993031 0 0 0
3 1 1.2605 1.26055 -1.67005 0 0 0
4 1 2.52108 1.26055 -0.993203 0 0 0
5 1 22.6898 8.82388 -0.993031 0 0 0
6 1 22.6898 6.30277 -0.993031 0 0 0
7 1 1.2605 6.30277 -1.67005 0 0 0
8 1 1.2605 3.78166 -1.67005 0 0 0
9 1 2.52108 6.30277 -0.993203 0 0 0
10 1 2.52108 3.78166 -0.993203 0 0 0
11 1 3.78172 3.78166 -1.67007 0 0 0
12 1 3.78172 1.26055 -1.67007 0 0 0
13 1 5.04237 3.78166 -0.993208 0 0 0
14 1 5.04237 1.26055 -0.993208 0 0 0
15 1 6.30302 1.26055 -1.66984 0 0 0
16 1 7.56356 1.26055 -0.992636 0 0 0
17 1 22.6898 13.8661 -0.993031 0 0 0
18 1 22.6898 11.345 -0.993031 0 0 0
19 1 1.2605 11.345 -1.67005 0 0 0
20 1 1.2605 8.82388 -1.67005 0 0 0
21 1 2.52108 11.345 -0.993203 0 0 0
22 1 2.52108 8.82388 -0.993203 0 0 0
23 1 3.78172 8.82388 -1.67007 0 0 0
24 1 3.78172 6.30277 -1.67007 0 0 0
25 1 5.04237 8.82388 -0.993208 0 0 0
26 1 5.04237 6.30277 -0.993208 0 0 0
27 1 6.30302 6.30277 -1.66984 0 0 0
28 1 6.30302 3.78166 -1.66984 0 0 0
29 1 7.56356 6.30277 -0.992636 0 0 0
30 1 7.56356 3.78166 -0.992636 0 0 0
31 1 8.8239 3.78166 -1.66974 0 0 0
32 1 8.8239 1.26055 -1.66974 0 0 0
33 1 10.0844 3.78166 -0.992627 0 0 0
34 1 10.0844 1.26055 -0.992627 0 0 0
35 1 11.345 1.26055 -1.66952 0 0 0
36 1 12.6057 1.26055 -0.992567 0 0 0
37 1 22.6898 18.9083 -0.993031 0 0 0
38 1 22.6898 16.3872 -0.993031 0 0 0
39 1 1.2605 16.3872 -1.67005 0 0 0
40 1 1.2605 13.8661 -1.67005 0 0 0
41 1 2.52108 16.3872 -0.993203 0 0 0
42 1 2.52108 13.8661 -0.993203 0 0 0
43 1 3.78172 13.8661 -1.67007 0 0 0
44 1 3.78172 11.345 -1.67007 0 0 0
45 1 5.04237 13.8661 -0.993208 0 0 0
46 1 5.04237 11.345 -0.993208 0 0 0
47 1 6.30302 11.345 -1.66984 0 0 0
48 1 6.30302 8.82388 -1.66984 0 0 0
49 1 7.56356 11.345 -0.992636 0 0 0
50 1 7.56356 8.82388 -0.992636 0 0 0
51 1 8.8239 8.82388 -1.66974 0 0 0
52 1 8.8239 6.30277 -1.66974 0 0 0
53 1 10.0844 8.82388 -0.992627 0 0 0
54 1 10.0844 6.30277 -0.992627 0 0 0
55 1 11.345 6.30277 -1.66952 0 0 0
56 1 11.345 3.78166 -1.66952 0 0 0
57 1 12.6057 6.30277 -0.992567 0 0 0
58 1 12.6057 3.78166 -0.992567 0 0 0
59 1 13.8662 3.78166 -1.6695 0 0 0
60 1 13.8662 1.26055 -1.6695 0 0 0
61 1 15.1267 3.78166 -0.992003 0 0 0
62 1 15.1267 1.26055 -0.992003 0 0 0
63 1 16.3871 1.26055 -1.66945 0 0 0
64 1 17.6476 1.26055 -0.9924 0 0 0
65 1 22.6898 21.4294 -0.993031 0 0 0
66 1 1.2605 21.4294 -1.67005 0 0 0
67 1 1.2605 18.9083 -1.67005 0 0 0
68 1 2.52108 21.4294 -0.993203 0 0 0
69 1 2.52108 18.9083 -0.993203 0 0 0
70 1 3.78172 18.9083 -1.67007 0 0 0
71 1 3.78172 16.3872 -1.67007 0 0 0
72 1 5.04237 18.9083 -0.993208 0 0 0
73 1 5.04237 16.3872 -0.993208 0 0 0
74 1 6.30302 16.3872 -1.66984 0 0 0
75 1 6.30302 13.8661 -1.66984 0 0 0
76 1 7.56356 16.3872 -0.992636 0 0 0
77 1 7.56356 13.8661 -0.992636 0 0 0
78 1 8.8239 13.8661 -1.66974 0 0 0
79 1 8.8239 11.345 -1.66974 0 0 0
80 1 10.0844 13.8661 -0.992627 0 0 0
81 1 10.0844 11.345 -0.992627 0 0 0
82 1 11.345 11.345 -1.66952 0 0 0
83 1 11.345 8.82388 -1.66952 0 0 0
84 1 12.6057 11.345 -0.992567 0 0 0
85 1 12.6057 8.82388 -0.992567 0 0 0
86 1 13.8662 8.82388 -1.6695 0 0 0
87 1 13.8662 6.30277 -1.6695 0 0 0
88 1 15.1267 8.82388 -0.992003 0 0 0
89 1 15.1267 6.30277 -0.992003 0 0 0
90 1 16.3871 6.30277 -1.66945 0 0 0
91 1 16.3871 3.78166 -1.66945 0 0 0
92 1 17.6476 6.30277 -0.9924 0 0 0
93 1 17.6476 3.78166 -0.9924 0 0 0
94 1 18.9082 3.78166 -1.6696 0 0 0
95 1 18.9082 1.26055 -1.6696 0 0 0
96 1 20.1688 3.78166 -0.992426 0 0 0
97 1 20.1688 1.26055 -0.992426 0 0 0
98 1 21.4292 1.26055 -1.66985 0 0 0
99 1 3.78172 21.4294 -1.67007 0 0 0
100 1 5.04237 21.4294 -0.993208 0 0 0
101 1 6.30302 21.4294 -1.66984 0 0 0
102 1 6.30302 18.9083 -1.66984 0 0 0
103 1 7.56356 21.4294 -0.992636 0 0 0
104 1 7.56356 18.9083 -0.992636 0 0 0
105 1 8.8239 18.9083 -1.66974 0 0 0
106 1 8.8239 16.3872 -1.66974 0 0 0
107 1 10.0844 18.9083 -0.992627 0 0 0
108 1 10.0844 16.3872 -0.992627 0 0 0
109 1 11.345 16.3872 -1.66952 0 0 0
110 1 11.345 13.8661 -1.66952 0 0 0
111 1 12.6057 16.3872 -0.992567 0 0 0
112 1 12.6057 13.8661 -0.992567 0 0 0
113 1 13.8662 13.8661 -1.6695 0 0 0
114 1 13.8662 11.345 -1.6695 0 0 0
115 1 15.1267 13.8661 -0.992003 0 0 0
116 1 15.1267 11.345 -0.992003 0 0 0
117 1 16.3871 11.345 -1.66945 0 0 0
118 1 16.3871 8.82388 -1.66945 0 0 0
119 1 17.6476 11.345 -0.9924 0 0 0
120 1 17.6476 8.82388 -0.9924 0 0 0
121 1 18.9082 8.82388 -1.6696 0 0 0
122 1 18.9082 6.30277 -1.6696 0 0 0
123 1 20.1688 8.82388 -0.992426 0 0 0
124 1 20.1688 6.30277 -0.992426 0 0 0
125 1 21.4292 6.30277 -1.66985 0 0 0
126 1 21.4292 3.78166 -1.66985 0 0 0
127 1 8.8239 21.4294 -1.66974 0 0 0
128 1 10.0844 21.4294 -0.992627 0 0 0
129 1 11.345 21.4294 -1.66952 0 0 0
130 1 11.345 18.9083 -1.66952 0 0 0
131 1 12.6057 21.4294 -0.992567 0 0 0
132 1 12.6057 18.9083 -0.992567 0 0 0
133 1 13.8662 18.9083 -1.6695 0 0 0
134 1 13.8662 16.3872 -1.6695 0 0 0
135 1 15.1267 18.9083 -0.992003 0 0 0
136 1 15.1267 16.3872 -0.992003 0 0 0
137 1 16.3871 16.3872 -1.66945 0 0 0
138 1 16.3871 13.8661 -1.66945 0 0 0
139 1 17.6476 16.3872 -0.9924 0 0 0
140 1 17.6476 13.8661 -0.9924 0 0 0
141 1 18.9082 13.8661 -1.6696 0 0 0
142 1 18.9082 11.345 -1.6696 0 0 0
143 1 20.1688 13.8661 -0.992426 0 0 0
144 1 20.1688 11.345 -0.992426 0 0 0
145 1 21.4292 11.345 -1.66985 0 0 0
146 1 21.4292 8.82388 -1.66985 0 0 0
147 1 13.8662 21.4294 -1.6695 0 0 0
148 1 15.1267 21.4294 -0.992003 0 0 0
149 1 16.3871 21.4294 -1.66945 0 0 0
150 1 16.3871 18.9083 -1.66945 0 0 0
151 1 17.6476 21.4294 -0.9924 0 0 0
152 1 17.6476 18.9083 -0.9924 0 0 0
153 1 18.9082 18.9083 -1.6696 0 0 0
154 1 18.9082 16.3872 -1.6696 0 0 0
155 1 20.1688 18.9083 -0.992426 0 0 0
156 1 20.1688 16.3872 -0.992426 0 0 0
157 1 21.4292 16.3872 -1.66985 0 0 0
158 1 21.4292 13.8661 -1.66985 0 0 0
159 1 18.9082 21.4294 -1.6696 0 0 0
160 1 20.1688 21.4294 -0.992426 0 0 0
161 1 21.4292 21.4294 -1.66985 0 0 0
162 1 21.4292 18.9083 -1.66985 0 0 0
163 1 22.6667 2.52717 -0.0177676 -0.00225413 -0.0114239 0.000998126
164 1 0.0042351 3.72264 2.67605 0.00467483 -0.0069577 0.000153853
165 1 0.00172058 1.30879 2.69614 0.000535122 0.00687917 0.00228519
166 1 1.28303 2.48751 0.903818 0.00192344 0.00427682 -0.00112794
167 1 22.6035 22.6484 -0.0350693 -0.0049387 -0.00878522 0.00396465
168 1 1.27769 1.27498 1.75778 -0.00046208 0.00594164 -0.00767182
169 1 2.47265 22.6608 0.0275556 0.00377703 -0.005403 -0.00539865
170 1 1.20462 22.6775 0.889071 0.00195715 -0.00894541 -0.0011341
171 1 2.54692 1.24491 2.66912 -0.000831196 0.000439766 0.00596241
172 1 3.75418 22.687 0.877256 0.00196381 -0.00411225 0.00282286
173 1 22.6639 7.57724 -0.0381885 0.00729742 0.00103248 -0.000983498
174 1 0.0231549 8.8409 2.63787 0.00695304 0.00675459 0.00093903
175 1 0.00904743 6.27276 2.67235 -0.00486854 0.00253705 0.00144648
176 1 1.23396 7.60122 0.846867 -0.000295168 0.0056931 0.000698728
177 1 22.678 5.03759 0.00473563 0.0044404 -0.0106012 -0.00938671
178 1 1.27936 6.30558 1.77218 0.000884599 0.00220118 -0.00361659
179 1 1.24677 3.76828 1.7809 -0.00227082 -0.00401278 0.00948401
180 1 2.51744 5.05712 0.00807791 0.00592987 -0.000843572 0.00637617
181 1 1.23903 5.08086 0.87685 -0.000861786 -0.00641237 -0.0072689
182 1 2.56374 6.3105 2.63584 -0.00858631 -0.0128426 -0.000660282
183 1 2.58421 3.77486 2.65496 0.00106861 -0.00897618 -0.0025919
184 1 3.72582 5.03076 0.876886 -0.0132887 0.00575673 -0.000303195
185 1 2.48869 2.47414 0.0156654 -0.000116154 -0.00977836 0.00180022
186 1 3.79896 3.79679 1.77558 -0.0022122 -0.000398423 0.00489977
187 1 3.75742 1.26645 1.78489 0.00784232 -0.00308565 -0.00410428
188 1 5.05733 2.47593 -0.0314363 -0.00344533 -0.00606789 -0.00649459
189 1 3.78175 2.48704 0.873279 0.00273646 -0.00114774 -0.000768604
190 1 5.02558 3.7686 2.58892 -0.00249716 -0.00353558 0.00467199
191 1 5.01986 1.27431 2.67533 0.00540326 0.00742148 -0.000821033
192 1 6.29126 2.42511 0.838122 -0.000168887 0.00679035 -0.00710306
193 1 5.04211 22.6709 -0.0120445 0.00717498 0.0109948 -0.00266811
194 1 6.30467 1.20129 1.79254 -0.00152092 0.00264058 0.00415838
195 1 7.52983 22.6327 0.0117129 0.00594613 -0.0022207 0.00658973
196 1 6.25631 22.6696 0.836963 -0.00120212 -0.00430577 -0.0109193
197 1 7.51655 1.18338 2.6651 -0.000468724 -0.00325345 0.00424388
198 1 8.84816 0.0246127 0.838449 0.00330267 -0.00274125 -0.00998638
199 1 0.0757383 12.6402 -0.0422982 -4.61031e-05 0.00464336 -0.00489264
200 1 22.6771 13.9108 2.59943 0.0023495 -0.00221066 0.00500263
201 1 22.6731 11.3569 2.68454 0.00605035 0.00191566 -0.00433488
202 1 1.25212 12.615 0.906463 0.00665824 -0.00877499 -0.00648088
203 1 0.0159407 10.135 0.0296199 0.00508226 0.00235491 0.00366151
204 1 1.27254 11.3204 1.81853 0.00700158 0.00295817 0.0046321
205 1 1.29705 8.83396 1.77029 -0.000526094 -0.000548925 0.00164032
206 1 2.53067 10.1435 0.0330459 0.000430413 -0.00113575 -0.00163697
207 1 1.32438 10.1309 0.92473 -0.00313713 0.000135059 -0.00339397
208 1 2.57319 11.3751 2.68454 0.000640801 -0.00463351 0.00514501
209 1 2.53195 8.83637 2.62603 -0.00394738 0.00966799 -0.00145486
210 1 3.80408 10.145 0.892284 -0.00447687 -0.0062797 0.00746013
211 1 2.51983 7.52477 0.0183237 0.00135719 0.00877919 0.00613717
212 1 3.80002 8.84736 1.78345 -0.00250234 0.00460444 0.00169744
213 1 3.7898 6.27579 1.76046 0.00204482 -0.00211007 -0.00866249
214 1 5.0391 7.58448 0.0428531 -0.00171918 -0.00431276 -0.00407683
215 1 3.78205 7.52749 0.854901 -0.00453906 -0.00378732 -0.0044513
216 1 5.10353 8.83998 2.60822 -0.00375982 -0.00397918 -0.000425703
217 1 5.08943 6.28302 2.64288 0.00267885 0.00305305 0.00381238
218 1 6.32091 7.53871 0.851081 0.00578238 -0.00107714 -0.00301285
219 1 5.00874 5.01813 0.0063134 0.000527699 -0.00334136 0.000205831
220 1 6.36461 6.29161 1.75335 7.37245e-05 -0.000595314 0.00391118
221 1 6.34079 3.7262 1.6882 0.00720838 -0.00246668 0.000278535
222 1 7.56714 5.04813 -0.0133305 -0.00717931 -0.0119804 0.00197176
223 1 6.34147 5.03592 0.817622 0.00804017 0.0111203 -0.002196
224 1 7.59617 6.2727 2.62863 -0.00898251 -0.00713617 0.00167362
225 1 7.57628 3.78437 2.59989 -0.00207958 -0.00414553 -0.00592881
226 1 8.82784 4.99103 0.859024 -0.0110772 -0.00411645 0.00436525
227 1 7.55025 2.47684 0.00933095 -0.00629116 -0.00555053 0.0032785
228 1 8.813 3.74875 1.79059 -0.00070173 0.00667315 -0.00391949
229 1 8.78376 1.20836 1.7491 -0.00136006 -0.00223534 -0.00317613
230 1 10.0603 2.49966 -0.00902752 -0.00361215 -0.00437976 -0.00633011
231 1 8.83604 2.43591 0.908294 -0.00161578 -0.00394011 -0.00503721
232 1 10.1159 3.80242 2.67654 -0.00600691 0.00441414 0.00691109
233 1 10.0564 1.22992 2.69164 0.00320017 0.0040921 -0.00989064
234 1 11.3142 2.56751 0.879038 0.00285494 -0.000725109 -0.000621162
235 1 10.088 0.00474461 -0.0273987 0.0142294 -0.00318271 -0.00231199
236 1 11.3119 1.2544 1.78404 0.00571571 0.00927885 -0.00953972
237 1 12.5613 0.0684114 0.00306117 -0.00599821 0.000391458 0.0021376
238 1 11.336 22.6832 0.834346 0.0063396 0.00163786 0.000252
239 1 12.5816 1.25685 2.6514 -0.00247729 0.00238514 -0.00206666
240 1 13.8599 0.00088399 0.924158 0.00526874 0.00169358 -0.00395022
241 1 22.6746 17.6572 0.0234348 0.00561636 -0.000307195 0.00112853
242 1 22.6297 18.9128 2.62098 0.00544374 -0.00766924 -0.00223278
243 1 0.0195877 16.3952 2.66119 0.00637511 0.0011176 0.00243856
244 1 1.2372 17.6626 0.843416 -0.00354874 0.00713131 0.00437251
245 1 0.0187268 15.1564 -0.0443947 0.00488371 -0.00121521 -0.00626778
246 1 1.279 16.4307 1.73593 -0.0011391 -0.00289193 0.0102265
247 1 1.27467 13.8901 1.77288 -0.00623821 0.00308991 -0.00673811
248 1 2.58531 15.1316 -0.00145318 -0.00249675 0.00233811 -0.00934205
249 1 1.30464 15.1314 0.863844 -0.00263951 0.00147281 0.00196486
250 1 2.47495 16.4638 2.68759 0.00222766 0.00207117 0.0108279
251 1 2.5303 13.9199 2.68915 0.00118648 0.00286807 -0.00168299
252 1 3.80425 15.1179 0.875663 -0.00531636 0.00435989 -0.00287791
253 1 2.5791 12.6529 0.0336846 0.00183009 0.00132271 -0.00286853
254 1 3.85227 13.8292 1.84562 0.00846367 0.000617903 -0.000350395
255 1 3.8348 11.3706 1.76493 0.00491951 0.00207774 -0.00375997
256 1 5.08552 12.6152 0.0144333 -0.000531348 -0.00224994 0.00336062
257 1 3.85347 12.632 0.861078 -0.00361372 0.000690157 0.00221583
258 1 5.12175 13.8156 2.6717 0.000311183 0.000966784 -0.00978686
259 1 5.12651 11.33 2.63225 -0.00326551 0.00809078 0.00140575
260 1 6.36357 12.5464 0.896798 0.0012446 -0.00692867 -0.00270771
261 1 5.06295 10.0972 -0.0359976 0.0143119 -0.001645 -0.0062018
262 1 6.38304 11.2738 1.8073 -0.00463826 -0.00321927 0.000447519
263 1 6.343 8.80458 1.7704 -0.0035095 0.00191193 0.00239773
264 1 7.5887 10.0762 0.0221838 0.00702442 0.00210836 0.00485054
265 1 6.36502 10.0735 0.845808 -0.00839412 0.00123922 0.00315378
266 1 7.6474 11.2949 2.7354 -0.00379753 -0.00505761 0.00405191
267 1 7.60308 8.8338 2.61076 -0.00753195 -0.00177438 0.00134845
268 1 8.87809 10.0964 0.86212 -0.00104485 -0.00158863 0.00329097
269 1 7.58183 7.55834 -0.00876449 0.00639656 0.000932729 0.00349514
270 1 8.87089 8.83024 1.75626 0.00125556 0.00165329 -0.00125415
271 1 8.89451 6.27339 1.8012 -0.00356696 -0.00128777 -0.00952831
272 1 10.0913 7.63269 -0.041617 0.00455244 -0.00101312 0.00288435
273 1 8.86607 7.53758 0.864432 -0.0133973 -0.00754187 0.0051594
274 1 10.101 8.75595 2.6388 -0.00103746 -0.00378407 -0.00280899
275 1 10.164 6.35427 2.66492 -0.00648523 0.00192413 -0.00793321
276 1 11.3073 7.59048 0.861072 0.000945092 -0.00395653 -0.00222477
277 1 10.1036 5.02707 0.0294151 -0.00191167 0.000219014 0.00373086
278 1 11.3531 6.2752 1.7919 0.00363721 0.000981523 -0.000279149
279 1 11.3385 3.80068 1.78466 0.00217399 0.000764546 0.000194737
280 1 12.6292 5.03409 -0.00846606 -0.000129282 -0.00388159 0.00251661
281 1 11.395 5.07036 0.877768 0.00580517 -0.00897218 -0.00143418
282 1 12.6722 6.29406 2.76037 0.00197007 0.0058223 -0.00922368
283 1 12.5941 3.75694 2.6564 0.00241174 0.00125843 -0.00126476
284 1 13.9021 5.02355 0.920834 0.00760866 0.00493975 -0.00805187
285 1 12.5825 2.57973 -0.0280487 -0.0071312 -0.00342876 -0.00225001
286 1 13.8878 3.74915 1.80021 0.000843594 0.00429931 -0.0033201
287 1 13.8441 1.25964 1.80924 0.00130095 0.00189543 -0.00222812
288 1 15.1407 2.51846 0.0286451 0.00959064 -0.00276072 -0.00769575
289 1 13.8424 2.51955 0.863792 0.00286195 0.00799768 0.00105676
290 1 15.1437 3.75475 2.65132 -0.00240543 0.00248259 0.0016966
291 1 15.1068 1.24062 2.6825 -0.00293856 -0.0029101 0.00557778
292 1 16.4174 2.52237 0.93503 0.00810343 0.00162745 -0.00600265
293 1 15.1268 0.0405482 0.037361 0.00578833 0.0032979 0.00252645
294 1 16.3939 1.22085 1.78509 -0.00962574 -0.000563251 -0.00850606
295 1 17.6425 22.6838 0.00814694 0.00997952 -0.00064643 0.00210879
296 1 16.365 22.6317 0.858589 0.000240097 -0.00600699 -0.00275979
297 1 17.6608 1.15912 2.63165 -0.00592037 0.00409864 0.000654643
298 1 18.8808 22.6893 0.878589 -0.00204027 -0.00275382 0.00769334
299 1 0.000311066 21.4086 2.71406 0.0019186 0.00313817 0.008767
300 1 0.0241992 20.1473 -0.0115079 0.0012706 -0.00279039 0.00950693
301 1 1.26831 21.4227 1.76175 0.00122919 0.00430654 -0.00340293
302 1 1.14533 18.9373 1.76163 0.000924617 -0.00476941 -0.0034164
303 1 2.48554 20.1344 -0.0321185 0.000365227 0.00428946 -0.00393247
304 1 1.22947 20.1797 0.852729 -0.00488264 -0.000358301 -0.00548721
305 1 2.54296 21.4313 2.65316 -0.00583997 -0.00309638 0.00402957
306 1 2.4376 18.9116 2.6542 -0.000185577 0.00587242 -0.00320714
307 1 3.72883 20.2093 0.896717 -0.00447395 -0.00493003 -0.00366285
308 1 2.54143 17.6215 -0.00496284 0.00822149 -0.00699748 -0.000982047
309 1 3.78905 18.8731 1.78179 0.00767486 0.000463076 7.3316e-05
310 1 3.81311 16.3355 1.77005 0.00328378 -0.0007847 -0.00113201
311 1 5.04737 17.6636 -0.074131 0.000640714 -0.0100179 -0.00194375
312 1 3.79401 17.6071 0.864944 -0.00238276 -0.00460374 0.000195369
313 1 5.03041 18.8949 2.69683 -0.000470926 0.0026453 0.00104202
314 1 5.07054 16.3696 2.67461 0.0021746 0.00372993 -0.000341973
315 1 6.31885 17.6246 0.841198 -0.00632234 -0.00195526 0.00360676
316 1 5.05291 15.1218 0.0071327 0.00303189 0.000366599 -0.00370556
317 1 6.3695 16.3147 1.75043 -0.00429004 -0.000539873 0.0021463
318 1 6.3346 13.8068 1.82053 0.00364931 -0.00155301 -0.000806129
319 1 7.62134 15.0996 0.0574799 0.00306646 0.00455696 -0.00437118
320 1 6.35234 15.1232 0.881487 -0.00755748 0.00436304 -0.00571673
321 1 7.59521 16.3354 2.68866 0.00243303 -0.0045795 0.00594571
322 1 7.59123 13.7786 2.68782 0.00612963 0.0044759 -0.00438065
323 1 8.90201 15.1065 0.890774 0.00747808 -0.00763962 -0.00186866
324 1 7.57925 12.5992 0.0390995 -0.00292215 -0.00196361 -0.00234804
325 1 8.83229 13.8141 1.80705 0.0030738 0.00268336 0.00217988
326 1 8.86377 11.2669 1.80313 -0.00604111 -0.000444073 -0.00236291
327 1 10.1268 12.6229 0.00868218 -0.000985143 -0.00437528 -0.00211711
328 1 8.86576 12.6381 0.908927 -0.00536773 0.00426234 -0.00330205
329 1 10.0708 13.7968 2.68931 0.00213858 0.00413321 0.00606054
330 1 10.1569 11.3194 2.63617 0.00124256 0.00143333 -0.00826484
331 1 11.3844 12.6126 0.876911 0.00564711 0.0062092 0.000153466
332 1 10.0778 10.0666 -0.010452 0.0034229 0.00513231 0.0109129
333 1 11.3885 11.2814 1.7958 -0.000341169 -0.0024846 0.00409356
334 1 11.359 8.80858 1.7589 0.00248556 -0.0037514 -0.00196895
335 1 12.6197 10.1157 -0.0200945 -0.00267062 0.00326575 0.00293017
336 1 11.3869 10.0472 0.834907 0.0056753 -0.00619674 0.00459235
337 1 12.6675 11.3449 2.66971 -0.00638399 0.00446004 0.00500595
338 1 12.6321 8.78925 2.67772 -0.0107777 0.000853196 0.00826144
339 1 13.8694 10.0506 0.875663 -0.0111093 0.000936059 -0.00208075
340 1 12.5862 7.61597 0.00435693 0.00379076 0.00234233 -0.00240378
341 1 13.8546 8.7817 1.77564 0.000473146 0.00280253 0.0012347
342 1 13.8875 6.26194 1.81012 0.0027874 -0.00070561 2.33225e-05
343 1 15.1262 7.51394 0.0102865 -0.000324266 0.0034564 0.000930009
344 1 13.8439 7.53456 0.905305 -0.00844115 -1.08218e-06 -0.000155518
345 1 15.1791 8.81066 2.71232 -0.00372194 -0.00361982 0.000813654
346 1 15.2095 6.2713 2.68404 -0.0059827 0.00663651 0.00412531
347 1 16.3388 7.50097 0.885588 0.00874443 0.00390081 -0.00482061
348 1 15.1612 4.98744 0.0218725 0.00322671 -0.00116797 0.00139771
349 1 16.4428 6.27078 1.82041 0.000727179 -0.00173648 0.00346361
350 1 16.3986 3.72319 1.77296 0.00280667 -0.000346947 -0.000129393
351 1 17.7031 5.03324 0.0133738 0.000725942 -0.00182453 0.00208414
352 1 16.4148 5.02733 0.901046 -0.00099219 -0.00017482 0.000629792
353 1 17.7535 6.3155 2.7256 -0.00290918 0.00476408 0.00268733
354 1 17.6931 3.8112 2.6253 -0.00725627 -0.00188173 0.000864411
355 1 18.9084 5.07048 0.91731 0.000370215 -0.00809861 0.00991018
356 1 17.6458 2.54712 -0.0288124 -0.00209965 -0.00218442 -0.00364672
357 1 18.9239 3.76995 1.78982 -0.00115136 -0.00620453 0.000546906
358 1 18.9568 1.2728 1.76476 0.00964043 0.000266628 0.00542097
359 1 20.203 2.49436 0.0135427 -0.00741553 0.00776291 -0.00325589
360 1 18.9155 2.566 0.838584 0.00973602 0.00201753 -0.00282172
361 1 20.1728 3.80168 2.71223 -0.00843075 -0.00521474 0.00664893
362 1 20.2133 1.24545 2.67776 -0.00157344 -0.000507122 -0.00172987
363 1 21.4525 2.54677 0.823038 -0.00280901 0.00288498 -0.00311822
364 1 20.1399 22.6784 0.0102552 -0.00260591 0.00178225 0.00453538
365 1 21.4419 1.21966 1.82344 -6.08883e-05 0.00109476 0.00165605
366 1 21.4153 22.6816 0.8664 -0.0019332 -0.00217799 -0.00191927
367 1 3.82212 21.4201 1.76339 -0.000821259 0.00447464 0.000909524
368 1 5.04202 21.4025 2.67439 -0.00534914 -0.00364318 -0.000300321
369 1 5.00538 20.1401 -0.00534497 0.00455365 -0.000704288 0.00618473
370 1 6.25957 21.4261 1.82687 -0.00107117 0.00267756 -0.0102652
371 1 6.25441 18.8369 1.77416 0.0065701 -0.00426527 0.00125092
372 1 7.56764 20.1677 -0.0088383 0.00338729 0.00190673 -0.000390927
373 1 6.25027 20.1424 0.924436 -0.00185486 0.00239048 0.00941152
374 1 7.5457 21.4278 2.65396 -0.00355067 -0.00531909 0.00298246
375 1 7.54453 18.9116 2.70256 0.00192837 -0.00766283 -0.00627648
376 1 8.83936 20.1745 0.849898 0.0026399 0.00173171 0.00802936
377 1 7.56873 17.6746 -0.01825 -0.00554795 0.00334675 0.00318257
378 1 8.81156 18.8804 1.79716 -0.000272285 0.000491841 0.00814813
379 1 8.87383 16.3593 1.80844 0.0111389 0.00144575 0.00644148
380 1 10.1019 17.6506 -0.00358832 0.00164556 -0.00499264 0.000286238
381 1 8.82868 17.6545 0.937962 -0.00361517 0.00612815 0.00396985
382 1 10.0658 18.9233 2.66438 0.00441569 -0.00825076 0.00558584
383 1 10.0866 16.3484 2.67312 -0.00765697 -0.00617339 0.000349881
384 1 11.3581 17.6413 0.907039 0.00810931 0.00493294 -0.00873877
385 1 10.1589 15.1311 -0.0561114 0.00432189 0.000629368 0.0033085
386 1 11.4154 16.3511 1.82044 -0.0018891 -0.00458334 0.00822342
387 1 11.4143 13.8645 1.78976 -0.000331924 -0.000750137 -0.00105903
388 1 12.5905 15.1177 -0.0255638 0.00566876 0.00179982 0.00224739
389 1 11.3817 15.114 0.859981 -0.00939564 -0.00375758 -0.00270387
390 1 12.6142 16.3913 2.7015 0.000398533 -0.00545983 -0.00201964
391 1 12.6764 13.8691 2.68059 0.00315291 -0.00348318 -0.00646023
392 1 13.9053 15.1457 0.904541 -0.00548922 -0.00779633 -0.00489485
393 1 12.6337 12.6538 0.0419213 -0.00377464 -0.00372804 0.000253061
394 1 13.9159 13.8806 1.76678 0.0069864 0.00210314 -0.000212847
395 1 13.8749 11.3465 1.75566 -0.000395095 0.00822314 0.000585972
396 1 15.134 12.6224 -0.000674402 -0.00287383 0.00314392 0.00524774
397 1 13.9463 12.6177 0.867609 -0.0030233 0.00212725 0.00690657
398 1 15.179 13.8894 2.67464 0.000430837 0.00666721 -0.0122845
399 1 15.1562 11.349 2.69687 -0.00204183 0.00901134 -0.000526774
400 1 16.3786 12.6267 0.933341 -0.00238325 0.00691059 -0.00509828
401 1 15.1379 10.0697 0.00663749 0.00503982 0.00585203 0.00125541
402 1 16.4235 11.3944 1.75269 -0.00267531 0.0042846 0.000419305
403 1 16.3755 8.80727 1.75265 0.00558636 -8.62471e-05 -0.00149143
404 1 17.6766 10.0481 0.0243568 -0.00127342 -0.00652895 -0.00100919
405 1 16.4028 10.105 0.905408 -0.0050203 -0.0127694 0.00017393
406 1 17.6791 11.4094 2.65833 -0.00160537 0.00262508 0.00438154
407 1 17.6978 8.81324 2.63814 0.00684191 0.00304813 0.00487807
408 1 18.9298 10.0517 0.861002 0.0100381 -0.00635287 0.00113526
409 1 17.5814 7.54019 0.00707558 -0.00571287 -0.00447861 -0.00466965
410 1 18.9946 8.76051 1.76448 0.00357012 0.00695189 0.00237687
411 1 19.0041 6.32099 1.83532 -0.00321039 -0.000357001 0.00373996
412 1 20.1845 7.5401 0.0176112 0.00366871 -0.00193414 0.0121357
413 1 18.9033 7.57497 0.868366 -0.00852882 -0.00266775 -0.000821567
414 1 20.218 8.83411 2.68274 -0.00225379 -0.00525113 -0.000276947
415 1 20.1944 6.32167 2.74023 0.000655208 -0.00759111 0.00064669
416 1 21.4456 7.56843 0.900955 0.00321371 -0.0012241 0.00741375
417 1 20.2561 5.02674 0.0507024 0.000879772 0.00203314 0.0118492
418 1 21.5028 6.2761 1.76921 -0.00901183 0.00868964 0.00287256
419 1 21.4281 3.74736 1.84344 0.0101017 0.00576709 0.00401375
420 1 21.4516 5.01571 0.958425 0.00511866 0.00163078 -0.00425854
421 1 8.79043 21.4065 1.72113 0.00534619 0.00456755 -0.0136023
422 1 10.0863 21.4047 2.59894 0.00209292 0.00436942 -0.0024032
423 1 10.1013 20.1827 0.0173419 0.00322154 0.00101982 0.00577585
424 1 11.388 21.4687 1.74191 0.0017854 0.00593298 -0.0045276
425 1 11.4022 18.9094 1.77546 -0.00482807 0.0047384 -0.00179156
426 1 12.5772 20.1782 0.0253362 -0.0053112 0.00149476 0.00276887
427 1 11.3501 20.1106 0.889385 0.00430951 -0.00487791 0.00158947
428 1 12.5806 21.4204 2.62348 -0.00268973 -0.00744442 0.00950153
429 1 12.653 18.9301 2.68669 -0.00300402 0.00286169 0.00306233
430 1 13.8482 20.1484 0.842206 -0.0136198 0.000662544 0.00503782
431 1 12.5925 17.6481 -0.00469791 0.00204806 -0.00242454 0.00778792
432 1 13.8768 18.8883 1.80162 0.000123871 0.00950245 -0.00678366
433 1 13.8531 16.4088 1.79578 0.0104517 -0.00343789 8.90562e-05
434 1 15.1502 17.6262 0.0169962 -1.41769e-05 -0.00547687 0.00685319
435 1 13.8677 17.6215 0.884637 -0.00598986 4.68319e-05 0.00575554
436 1 15.1372 18.8736 2.71055 0.0018724 0.00105521 0.000529875
437 1 15.1977 16.4002 2.75663 -0.0107739 -0.00542019 0.00172049
438 1 16.3797 17.685 0.851905 -0.0115797 0.0100044 -0.00208327
439 1 15.1632 15.18 -0.0295446 0.00055597 0.000186732 0.00744668
440 1 16.4358 16.4347 1.78193 -0.00215281 0.00057051 -0.00250928
441 1 16.4205 13.8938 1.7552 -5.77087e-05 0.000586216 -0.00227937
442 1 17.6074 15.1685 0.00779722 0.00723227 0.00169456 -0.00767246
443 1 16.4036 15.196 0.910516 -0.000109081 -0.00237449 -0.00559537
444 1 17.728 16.3752 2.69736 0.0067337 -0.00426418 -0.00471793
445 1 17.7014 13.8788 2.68854 0.00630968 -0.000515061 -0.0049799
446 1 18.8563 15.128 0.872411 -0.001283 0.00219581 -0.00212409
447 1 17.6286 12.6164 -0.0132299 0.0037563 0.00677118 -0.00138886
448 1 18.9848 13.8369 1.82111 -0.00524045 -0.000388318 0.000419427
449 1 18.9125 11.3308 1.81619 -0.0111086 -0.00550253 0.000496214
450 1 20.2278 12.6293 0.0459872 -0.00195539 -0.00773334 0.00356689
451 1 18.9475 12.6042 0.918479 0.0104102 -0.00773255 -0.000917147
452 1 20.1702 13.8815 2.68877 -0.000231192 0.0042151 0.00286715
453 1 20.217 11.3543 2.72137 0.00478792 0.00163609 -0.000195336
454 1 21.4738 12.6159 0.860459 -0.00577356 0.00163112 -0.00793404
455 1 20.1974 10.0947 -0.00358082 0.00157813 0.0108777 -0.00421909
456 1 21.4447 11.3745 1.79557 0.00864635 0.00948975 0.000860483
457 1 21.4763 8.84564 1.78601 -0.00539486 -0.000944202 0.000898535
458 1 21.4815 10.1068 0.879552 0.0122574 -0.00369057 -0.00456359
459 1 13.8531 21.4213 1.76069 0.00227484 -0.00394146 0.00539674
460 1 15.1293 21.4501 2.63753 -0.000857608 0.000496533 0.0101331
461 1 15.1016 20.1602 0.0443484 0.00149747 -0.000663692 -0.003899
462 1 16.3799 21.4577 1.79991 0.0028664 -0.00743553 -0.00769515
463 1 16.3858 18.859 1.7798 -0.000563546 0.00539233 -0.0041686
464 1 17.6681 20.1755 0.00235879 -0.00251822 -0.00453402 0.00305704
465 1 16.3866 20.1719 0.896651 -0.00355562 -0.00584887 -0.000982156
466 1 17.6475 21.4672 2.64924 -0.00116583 0.00110616 -0.00052787
467 1 17.6578 18.9534 2.69499 0.00296122 0.000875827 -0.00288657
468 1 18.9252 20.1799 0.838602 -0.00972433 -0.0054912 0.00681158
469 1 17.6386 17.709 0.00694133 -0.00218843 0.00130822 0.00137313
470 1 18.8963 18.954 1.82423 -0.00634586 -0.0061708 -0.00497968
471 1 18.9138 16.4128 1.72472 -0.0029287 0.00503942 0.00308571
472 1 20.1992 17.6387 -0.00730239 0.00445568 0.00432186 -0.0098993
473 1 18.9589 17.657 0.904363 -0.00255801 0.00379304 0.000478763
474 1 20.1624 18.9137 2.61698 -0.000508482 0.00388917 0.00917128
475 1 20.1703 16.3874 2.66927 0.00163701 0.00511015 -0.0016375
476 1 21.4739 17.5827 0.886993 0.00548535 0.000589876 -0.00140585
477 1 20.1633 15.1953 0.00843394 -0.00595755 0.0111423 0.00124488
478 1 21.4162 16.3448 1.82607 0.00676972 0.00133414 0.00580871
479 1 21.4017 13.8601 1.78493 0.0050826 -0.00766604 0.000624887
480 1 21.4406 15.0943 0.800622 -0.000559106 0.000925255 -0.00633347
481 1 18.9205 21.4616 1.84412 -0.000940899 -0.00210518 0.00700765
482 1 20.2142 21.4208 2.74818 0.00246793 -0.00193784 0.000383345
483 1 20.1923 20.1179 -0.0225276 -0.00641151 -0.00194173 -0.00644251
484 1 21.457 21.4128 1.78869 0.000624623 -0.00377685 -0.00686744
485 1 21.4014 18.9277 1.74999 -0.0032446 -0.00460454 -0.00718155
486 1 21.4397 20.1629 0.871544 -0.000366508 0.00257279 -0.000856165
487 1 22.6421 2.49095 3.63053 0.00203848 0.0067066 0.00439953
488 1 22.6548 3.78562 6.26165 0.00280284 0.000615422 0.00262951
489 1 0.000510412 1.31345 6.26302 0.00766295 4.57622e-05 -0.00619543
490 1 1.25438 2.54076 4.46267 -0.00151099 0.0025703 -0.000553542
491 1 22.6677 22.6588 3.61677 0.0009303 0.00573692 0.0010418
492 1 1.23292 1.30481 5.36396 -0.00322868 0.00322829 -0.00880332
493 1 2.45901 22.6822 3.58928 0.00312304 -0.00474505 -0.00749066
494 1 1.24193 22.6685 4.46171 0.00197648 0.00251326 0.0046736
495 1 2.53961 1.29448 6.26467 -0.00156936 0.0150636 0.00182074
496 1 3.75232 0.0636952 4.44268 0.00066118 0.00424014 0.00752368
497 1 22.6673 7.56516 3.5487 -0.00527397 -0.0127403 -0.00482344
498 1 22.6691 8.79349 6.23992 -0.00420769 0.00201965 -0.00961916
499 1 0.00744912 6.23983 6.30406 -0.000941295 0.0022473 0.00384565
500 1 1.25076 7.52686 4.47695 -0.00111152 0.0048917 0.00211174
501 1 0.0239535 5.00761 3.571 -0.00386371 8.15629e-05 0.00598695
502 1 1.21139 6.27138 5.34996 -0.00323287 -0.00134425 0.00150016
503 1 1.25446 3.82299 5.37662 -0.00130856 -0.0055213 -0.0027375
504 1 2.57284 5.05218 3.55327 -0.00479629 0.00128545 -0.00267027
505 1 1.28563 5.05519 4.4836 0.00126249 0.00327095 -0.00796228
506 1 2.51312 6.32346 6.25716 -0.00323336 0.00185409 -0.00163334
507 1 2.56752 3.82814 6.30201 -0.00159679 -0.00408055 -0.00250963
508 1 3.80132 5.02606 4.46738 -0.00324632 -0.0027639 0.00166134
509 1 2.49619 2.53807 3.47416 -0.00169517 -0.00159027 0.00150604
510 1 3.75709 3.79898 5.33825 -0.00790821 0.00587372 0.00132761
511 1 3.82255 1.27518 5.35003 -0.0050743 0.00543168 -0.00442756
512 1 5.03138 2.57535 3.51406 -0.00529224 -0.00490947 0.000217259
513 1 3.75499 2.57954 4.42119 -0.00164304 0.00158707 0.00426042
514 1 5.06316 3.7949 6.28048 -0.00244373 0.00482488 0.00429911
515 1 5.1094 1.23408 6.25526 0.0079285 0.00200414 -0.00429445
516 1 6.31398 2.58211 4.39741 -0.00601372 0.00252079 -0.000494816
517 1 5.0257 0.00399199 3.54675 0.00553965 -0.000774917 -0.0131463
518 1 6.26761 1.31711 5.32985 0.000750641 -0.0030523 -0.00141604
519 1 7.529 22.6548 3.56641 -0.000245409 0.00467108 -0.00235411
520 1 6.24832 0.0470747 4.4414 -0.00144797 0.00804726 -0.00163892
521 1 7.52179 1.20929 6.25572 0.00577636 0.0092982 -0.00185379
522 1 8.79134 22.6703 4.43244 0.00656777 0.00284401 0.00366015
523 1 0.0103188 12.6662 3.53388 -0.000191508 -0.00620732 -0.000444035
524 1 0.0161225 13.858 6.23682 -0.000463903 -0.0043909 -0.00550029
525 1 0.00753785 11.3247 6.17655 -0.00900705 0.00940009 0.00438957
526 1 1.24239 12.6531 4.38276 0.00423882 0.00112771 0.00362731
527 1 0.00461525 10.094 3.55099 -0.001916 -0.0123943 0.00321658
528 1 1.24483 11.3344 5.24183 -0.00304178 -0.00790015 -0.00182576
529 1 1.31734 8.78892 5.31578 0.00364688 -0.00296573 -0.0033988
530 1 2.55286 10.1015 3.54596 0.0106196 -0.000531509 0.00846443
531 1 1.2749 10.0827 4.47302 -0.00259357 -0.00179093 -0.00119568
532 1 2.52617 11.3503 6.25839 0.00865487 -0.00140611 3.17719e-06
533 1 2.49747 8.82166 6.25317 0.00223289 -0.0044541 -0.00814294
534 1 3.82375 10.0381 4.46094 -0.00273002 -0.00155214 0.00189491
535 1 2.59136 7.55388 3.5241 -0.00188448 -0.00704356 0.00169564
536 1 3.75089 8.82811 5.35635 -0.00427558 0.00152383 -0.0078318
537 1 3.77179 6.29018 5.38755 1.31015e-05 0.00229097 -0.00217334
538 1 5.05611 7.59194 3.52996 -0.00312585 0.00591029 -0.00430133
539 1 3.81308 7.5963 4.46878 -0.00744053 -0.0050177 0.00543667
540 1 5.08562 8.82789 6.28139 0.00163491 0.0107815 -0.00531322
541 1 5.05229 6.35209 6.27217 -0.00973209 0.00417598 -0.000237512
542 1 6.31566 7.54948 4.41214 -0.00487155 -0.00130007 -0.00129324
543 1 5.08185 5.06676 3.51474 9.49214e-05 0.0019191 0.00567157
544 1 6.2927 6.30052 5.33547 0.00368582 0.00632979 0.000306643
545 1 6.28338 3.80555 5.30285 -0.000454419 0.00283587 0.00618188
546 1 7.59988 5.05688 3.51607 -0.00250517 0.00389846 -0.00572082
547 1 6.31548 5.07769 4.41811 0.00515907 -0.00731205 -0.00094237
548 1 7.56552 6.27811 6.26669 0.00728967 0.00045225 -0.00322976
549 1 7.6108 3.71725 6.25882 -0.0058604 0.0040763 0.00332801
550 1 8.84322 5.04581 4.48215 -0.00451675 -0.00542036 0.00451582
551 1 7.56895 2.52583 3.54728 0.00165997 0.000104323 -0.000867857
552 1 8.78079 3.76171 5.35992 -0.00342694 0.0102968 0.005053
553 1 8.7991 1.20983 5.37295 -0.000907301 0.00141937 0.00119117
554 1 10.0447 2.52221 3.56639 0.00114608 0.00640828 0.00521352
555 1 8.76689 2.5256 4.48234 -0.0050049 -0.00157734 -0.00618684
556 1 10.0514 3.81089 6.21903 0.00194519 -0.00484398 -0.00476045
557 1 10.0688 1.29723 6.20373 -0.00365724 -0.00398477 -0.000739578
558 1 11.302 2.5012 4.43807 -0.00218853 0.00088723 0.000253391
559 1 10.0602 22.6016 3.57476 0.0034455 0.00178196 -0.00616765
560 1 11.3603 1.29244 5.36304 0.000831015 0.00796146 -0.0103075
561 1 12.6108 22.6136 3.53938 0.000635448 -0.00319045 0.00740067
562 1 11.3738 22.6768 4.42104 -0.0120595 -0.00372087 0.00135723
563 1 12.6434 1.30088 6.21915 0.00378553 0.00100314 -0.000801557
564 1 13.908 22.6627 4.42838 -0.000504915 -0.00556058 -0.00049449
565 1 0.0101158 17.6737 3.56555 -0.00428935 0.00440908 -0.0018684
566 1 3.60821e-05 18.9468 6.2803 -0.00648196 -0.00108495 0.00549548
567 1 22.6884 16.3676 6.24289 0.00526439 -0.000605933 -0.00965197
568 1 1.23888 17.6758 4.5136 0.00450271 -0.00284078 -0.00870295
569 1 22.6883 15.1955 3.54753 0.00316917 0.00679413 0.00564457
570 1 1.30179 16.3638 5.33733 -0.0093361 -0.00212012 -0.0023127
571 1 1.22769 13.908 5.36431 -0.00249304 0.000821308 -0.00623357
572 1 2.58068 15.1577 3.50651 0.00109565 0.000842428 -0.00222802
573 1 1.29427 15.1638 4.45265 0.000116993 0.00545343 0.00573209
574 1 2.60576 16.3602 6.24818 -0.00548977 0.0042657 0.00284581
575 1 2.52652 13.9004 6.25631 -0.00274318 -0.00293253 0.00705786
576 1 3.81661 15.1103 4.42263 -0.00315759 0.00375132 -0.00831445
577 1 2.52791 12.6188 3.52518 0.00268681 -0.00338715 0.00288278
578 1 3.77611 13.8429 5.33586 -0.000531003 0.00610377 0.00395129
579 1 3.78708 11.2629 5.37811 -0.00361537 -0.00374921 0.00557083
580 1 5.06948 12.6095 3.59651 -0.00668499 0.00273621 0.00203335
581 1 3.83936 12.5971 4.47855 -0.00203932 -0.00270335 0.00336027
582 1 5.06034 13.8309 6.24977 -0.00399407 -0.00595287 -0.0053856
583 1 5.03354 11.3004 6.28506 -0.00145291 0.00335023 0.0027188
584 1 6.31569 12.5556 4.5232 0.00735233 0.00635973 0.00921916
585 1 5.10765 10.0723 3.56649 -0.00493816 -0.00383329 0.00306542
586 1 6.33744 11.272 5.36868 -0.00646748 -0.00175719 0.00241953
587 1 6.29702 8.73702 5.32101 -0.00084656 -0.00846938 0.00420634
588 1 7.62173 10.0128 3.56583 0.00771981 0.00791286 0.00272492
589 1 6.36907 10.0347 4.43645 0.00593405 -0.00201555 0.000131868
590 1 7.59706 11.2959 6.26108 -0.00540411 -0.00100097 -0.00938415
591 1 7.63736 8.78948 6.24764 -0.00470249 0.000446105 -0.0016485
592 1 8.8722 10.0923 4.44592 -0.00558165 -0.00515281 0.00417813
593 1 7.55743 7.58668 3.49789 -0.000559809 -0.0101399 -0.00151296
594 1 8.81707 8.81421 5.38298 -0.00209276 -0.0107061 0.00898204
595 1 8.79001 6.32189 5.34118 0.00312903 -0.00583548 -0.00575413
596 1 10.1111 7.57818 3.5447 0.00633406 -0.00387412 0.00416431
597 1 8.84999 7.56801 4.46754 0.0027556 -0.00568013 -0.00811336
598 1 10.0978 8.77848 6.22679 -0.00384039 -0.00966333 -0.00110915
599 1 10.0469 6.29825 6.24673 -0.000265953 -0.003406 -0.00648204
600 1 11.3832 7.57005 4.40674 -0.00242249 0.00118919 0.00233689
601 1 10.1353 5.07549 3.58209 0.0132868 0.00503533 0.000254958
602 1 11.3605 6.3444 5.33775 0.00287466 -0.00323708 0.00623515
603 1 11.3587 3.8379 5.32408 -0.004149 -0.00398346 -0.00293061
604 1 12.66 5.01358 3.59427 -0.000260669 -0.000426146 -0.00543767
605 1 11.3968 5.06995 4.461 0.00632003 0.0123523 0.00245061
606 1 12.6021 6.29484 6.28317 -0.0118822 0.00558749 0.00238935
607 1 12.6394 3.74798 6.22684 0.00225789 0.00176102 0.00498656
608 1 13.9314 5.02493 4.43327 -0.00467214 0.000423578 0.000764441
609 1 12.6194 2.49531 3.53267 -0.00192125 0.00117144 0.00466773
610 1 13.8752 3.7247 5.32128 -0.00298895 -0.0123526 0.0057259
611 1 13.883 1.23646 5.32598 -0.00185118 0.00789467 -0.00159414
612 1 15.1883 2.49152 3.5684 -0.00339514 0.00911921 -0.0109748
613 1 13.88 2.44856 4.45076 -0.0107604 -0.000931411 0.00128518
614 1 15.1125 3.72145 6.28992 -0.00387389 -0.00178562 0.000181734
615 1 15.1531 1.23234 6.26909 -3.11179e-05 0.00253318 -0.00139485
616 1 16.4237 2.47938 4.41997 -0.00183842 -0.00446717 -0.00440814
617 1 15.1773 0.00853702 3.54025 0.00309712 0.00162636 0.00438098
618 1 16.4059 1.27722 5.42348 0.00464814 0.00417223 0.000865623
619 1 17.6959 0.00744564 3.56872 0.00332583 -0.000376422 0.00911475
620 1 16.3858 22.6811 4.47815 0.00268873 0.00769186 0.0140553
621 1 17.6591 1.29248 6.2729 -0.00765333 -0.00397797 -0.00461932
622 1 18.9079 22.6808 4.47399 0.00615119 -0.00980726 -0.00157879
623 1 0.0184556 21.4452 6.28286 -0.00404054 -0.00256692 0.00397345
624 1 22.624 20.108 3.64063 0.00172854 -0.00962594 0.000411934
625 1 1.23267 21.4197 5.35506 0.00436311 0.000785176 -0.00605448
626 1 1.25829 18.8968 5.41322 0.00308522 -0.00508613 0.00119926
627 1 2.52145 20.1809 3.56733 -0.00160269 -0.00363967 -0.00540371
628 1 1.26991 20.1768 4.51341 -0.000586442 0.00201828 -0.00390139
629 1 2.53189 21.3971 6.22242 0.00485485 -0.000113908 -0.0033677
630 1 2.53616 18.8416 6.27166 0.00589116 0.00363171 -0.0057636
631 1 3.77761 20.1133 4.44463 0.00629518 -0.000591889 0.00333869
632 1 2.51112 17.6705 3.59413 0.00297719 -0.000953264 -0.0018824
633 1 3.81303 18.8389 5.36265 0.00201177 -0.00113355 -0.00692355
634 1 3.80335 16.3984 5.37122 0.00194714 -0.00534773 0.000724608
635 1 5.04515 17.6283 3.53883 0.0083532 -0.00204531 -0.000253347
636 1 3.80659 17.6153 4.43882 -0.00101136 -0.00338987 0.000108058
637 1 5.0826 18.8632 6.22666 0.00353053 -0.00345395 -0.000994134
638 1 5.07422 16.3509 6.22915 0.006275 -0.00720573 0.0021124
639 1 6.29306 17.636 4.42977 2.53887e-05 -0.00379223 0.00778842
640 1 5.06939 15.1305 3.56772 0.00330351 -0.0128464 0.00440097
641 1 6.2983 16.3865 5.36749 0.00897911 0.000440739 -0.000907388
642 1 6.37104 13.8087 5.40204 -0.00108498 0.0024606 -0.00663723
643 1 7.56121 15.1022 3.59436 0.00727198 -0.00765619 0.00125594
644 1 6.3722 15.0733 4.49157 -0.00117148 -0.00259307 0.00148487
645 1 7.62253 16.3056 6.23707 1.95472e-05 -0.00471006 0.00791335
646 1 7.56636 13.8067 6.2727 -0.000600506 -0.00468668 -0.000777622
647 1 8.79381 15.0547 4.41698 -0.00112509 0.00366536 0.00182048
648 1 7.57111 12.5298 3.64162 -0.00695787 -0.000353277 -0.000661356
649 1 8.8266 13.8215 5.32019 0.00843954 -0.00507806 0.00682358
650 1 8.89792 11.2912 5.40485 0.00827218 -0.00196772 -6.02444e-06
651 1 10.1155 12.5749 3.56528 0.00650745 -0.00538718 -0.00187317
652 1 8.81793 12.5351 4.46632 0.00495863 0.00957645 -0.00146765
653 1 10.031 13.8493 6.18695 -0.00419944 0.00171848 -0.000500736
654 1 10.1244 11.3249 6.35892 -0.00655233 -0.00332272 0.00149794
655 1 11.381 12.5952 4.51557 -0.00824081 0.00261768 -0.00475033
656 1 10.112 10.059 3.5593 0.000599329 -0.00642629 0.000412864
657 1 11.3841 11.3181 5.38478 -0.0073981 -0.00329478 0.00317195
658 1 11.3579 8.85543 5.3385 -0.00498898 -0.00490853 0.000938696
659 1 12.662 10.0384 3.56939 0.000957178 -0.00429479 -0.00383363
660 1 11.3423 10.0649 4.48037 5.43008e-05 -0.00541414 -0.00250944
661 1 12.6259 11.2782 6.2413 -0.00629332 -0.00599462 0.00373793
662 1 12.6006 8.78277 6.21273 -0.00165935 8.10024e-05 -0.00129977
663 1 13.8894 10.0751 4.42338 0.00719261 -0.00197241 0.00455328
664 1 12.6854 7.52426 3.6061 -0.00467217 -0.00722755 0.00344758
665 1 13.9048 8.79206 5.343 -0.00072486 -0.000517371 -0.00589418
666 1 13.8971 6.27679 5.38598 -0.0024195 0.00162151 0.00145579
667 1 15.1589 7.52429 3.57572 -0.00105643 0.00338932 -0.0131068
668 1 13.9819 7.5496 4.4953 0.0017659 -0.00318657 -0.00494022
669 1 15.1351 8.78231 6.30198 -0.00157058 -0.00230306 -0.00825093
670 1 15.0972 6.26429 6.32209 0.00258349 0.0035782 -0.00149598
671 1 16.4047 7.49496 4.50819 -0.0081992 0.00592621 0.00116629
672 1 15.1392 5.01427 3.54567 -0.00438737 -0.000777626 0.00534162
673 1 16.4212 6.26833 5.46642 -0.00378325 -0.0056303 0.00649482
674 1 16.4001 3.81568 5.36166 0.00516871 0.00317151 0.00267008
675 1 17.6724 5.04301 3.56976 -0.000503729 -0.00185428 0.00198072
676 1 16.3779 5.00682 4.46368 -0.00743038 0.00868093 0.00226005
677 1 17.7391 6.31662 6.2483 0.00472817 -0.00804727 0.00058302
678 1 17.67 3.74973 6.27246 -0.00219678 0.000568326 0.00131326
679 1 18.8992 5.01899 4.53837 -0.0117994 -0.00287897 0.00383469
680 1 17.6739 2.48234 3.49841 -0.00704629 0.00182816 -0.000534671
681 1 18.932 3.72689 5.4271 0.00320442 -0.00991676 0.00365407
682 1 18.9125 1.2617 5.44505 -0.00187215 -0.00891979 -0.00403673
683 1 20.188 2.53475 3.60376 0.00116281 -0.000966155 -0.00188563
684 1 18.9457 2.47175 4.47069 0.00205209 -0.00274057 -0.00358378
685 1 20.1862 3.72811 6.36804 -0.00814181 -0.00143635 0.00241047
686 1 20.1531 1.1958 6.37918 0.00307335 -0.00638213 0.00216294
687 1 21.4203 2.51028 4.48902 0.0126197 0.00192201 0.00382733
688 1 20.2128 0.0208832 3.62359 0.000173554 0.000739427 -0.000369658
689 1 21.397 1.20804 5.39837 0.00606139 -0.0112038 0.0109971
690 1 21.4018 22.6666 4.50489 0.000962116 0.0053595 -0.00515919
691 1 3.74935 21.4131 5.36742 -0.00425831 -0.00465557 -0.00638959
692 1 5.01619 21.375 6.23905 0.00129841 -0.0027929 0.000152883
693 1 5.01378 20.1281 3.60394 -0.00324034 -0.00894231 0.00439176
694 1 6.2782 21.3926 5.35184 -0.00113714 -0.00350724 -0.0039828
695 1 6.32411 18.903 5.30359 0.00691837 -0.00547657 0.00222568
696 1 7.50768 20.146 3.5466 -0.00328565 -0.0096812 0.00369561
697 1 6.28279 20.1409 4.46338 0.00396548 -0.00615771 0.00246763
698 1 7.55645 21.358 6.21864 0.00124477 -0.000250903 -0.000910924
699 1 7.64265 18.8949 6.20718 -0.00228772 0.00170433 0.00680746
700 1 8.80905 20.1821 4.45395 -0.0100462 0.00102274 -0.00845067
701 1 7.534 17.6295 3.56671 -0.00683561 -5.72779e-05 -0.00358331
702 1 8.86415 18.8439 5.27393 0.00149907 -0.00927108 -0.0137539
703 1 8.83925 16.3353 5.29488 0.000421824 -0.0049047 0.00620344
704 1 10.1169 17.6279 3.55676 -0.00545899 -0.00124399 -0.00539052
705 1 8.83291 17.6246 4.4024 -0.00673884 0.0103063 0.0066964
706 1 10.097 18.9461 6.2278 0.000130708 -0.00363309 -0.00452834
707 1 10.1226 16.3822 6.22115 0.00308315 -0.00113487 -0.00386637
708 1 11.315 17.5988 4.47569 -0.00512869 0.00198141 -0.000215525
709 1 10.0825 15.0429 3.61454 -0.00772558 0.00634137 0.000996632
710 1 11.3463 16.3991 5.41119 -0.0031277 -0.00896702 0.000336548
711 1 11.3383 13.8592 5.35416 -0.00202683 0.0045824 0.0110363
712 1 12.6611 15.1205 3.6213 -0.00372084 -0.000821884 -0.000136965
713 1 11.3431 15.1014 4.45178 -0.000544239 0.0034894 0.00339538
714 1 12.6617 16.38 6.35457 0.00359559 0.00302814 -0.00733601
715 1 12.652 13.8929 6.30742 0.00394674 0.00651509 -0.00200656
716 1 13.941 15.0836 4.4662 -0.0072194 0.00382571 0.00137433
717 1 12.6348 12.6115 3.61786 -0.00637131 -0.000486179 0.00552593
718 1 13.9156 13.9006 5.40614 -0.00333792 8.1925e-05 -0.00477155
719 1 13.8738 11.3314 5.3288 0.00140092 0.00179991 0.00166922
720 1 15.1432 12.6106 3.54399 0.00415046 -0.00743054 0.00344673
721 1 13.9099 12.5457 4.44194 0.00727446 0.00481287 0.00686233
722 1 15.2037 13.8558 6.25208 0.00344885 -0.0045192 -0.00464061
723 1 15.1083 11.2768 6.24565 -0.0130078 0.000514535 -0.00342756
724 1 16.4066 12.626 4.43907 -0.002678 -0.00284097 0.0156607
725 1 15.1656 10.0354 3.54312 0.00351384 0.00447132 -0.00769428
726 1 16.3534 11.3356 5.34803 0.00382844 -0.00599058 -0.00163873
727 1 16.4284 8.81779 5.33972 -0.00702177 0.00347913 0.00776824
728 1 17.6893 10.089 3.59552 0.00538436 -0.00788778 -0.00382017
729 1 16.3829 10.0761 4.48317 0.00347031 0.00368736 -0.000594455
730 1 17.6987 11.3883 6.24994 -0.00471079 -0.00364279 -0.0013728
731 1 17.627 8.82897 6.27644 0.00555522 -0.00174953 0.000975992
732 1 18.9234 10.0656 4.49474 0.00023825 0.00515595 0.00453644
733 1 17.7456 7.58954 3.599 0.0109186 0.00910774 -0.00240589
734 1 18.9305 8.75796 5.41102 -0.0133561 -0.0112672 0.0127572
735 1 18.972 6.29631 5.42187 0.00652396 0.00450702 -0.00852717
736 1 20.169 7.60896 3.59552 0.00642248 -0.000171532 -0.00574805
737 1 18.9378 7.54206 4.42305 0.00196602 0.00384765 0.000971841
738 1 20.2309 8.77482 6.25804 -0.00209547 0.0096895 0.00547683
739 1 20.2156 6.28471 6.29496 -0.000780844 -0.00940127 0.00505985
740 1 21.4725 7.53584 4.46137 0.00133106 0.00405923 -0.0068354
741 1 20.1496 5.09289 3.59582 -0.00956167 0.00697923 -0.00741993
742 1 21.4368 6.26735 5.38372 -0.00390458 0.00398329 0.00738025
743 1 21.4181 3.7832 5.39521 -0.00488576 0.00435424 0.00264836
744 1 21.4843 5.0208 4.50743 0.00642383 0.00686475 0.0049672
745 1 8.78348 21.4571 5.34397 -0.0036173 0.00285582 0.00241328
746 1 10.0859 21.4292 6.17692 -0.00878603 -0.0018752 -0.00858709
747 1 10.0835 20.1326 3.51465 -0.00227123 -0.00372659 -0.00591436
748 1 11.3571 21.4106 5.29425 -0.00683802 -0.00448519 -0.00587008
749 1 11.3697 18.9308 5.35754 -0.00368398 -0.00340859 0.00273872
750 1 12.5934 20.1667 3.56425 0.000897964 0.00480535 0.00234611
751 1 11.4038 20.1581 4.43738 -0.00261964 0.00609183 0.00152522
752 1 12.6108 21.4239 6.18825 0.00144098 0.00218017 0.00658529
753 1 12.6384 18.9029 6.26013 -0.000225055 -0.00115759 0.00590244
754 1 13.9035 20.1627 4.43263 -0.00198525 0.00981278 -0.00101088
755 1 12.6 17.6431 3.63416 -0.00793752 0.00342841 0.00239132
756 1 13.8905 18.8973 5.35524 -0.00881289 -0.000506241 -0.00583551
757 1 13.9624 16.3865 5.43577 -0.00900043 -0.00630745 0.00839543
758 1 15.1561 17.6126 3.63719 -0.00184029 0.00345265 0.000898152
759 1 13.8768 17.6315 4.45615 -0.00743409 0.00838248 0.000349484
760 1 15.1825 18.9389 6.2506 -0.00872428 0.0055652 -0.00601165
761 1 15.1854 16.3648 6.30169 0.00107524 0.00292374 0.00218476
762 1 16.3816 17.6111 4.49167 0.00572473 0.00385131 0.00398931
763 1 15.151 15.0944 3.53224 0.0034495 0.0100594 0.0027904
764 1 16.4525 16.3822 5.34545 0.00163619 -0.00552883 0.01068
765 1 16.459 13.8327 5.33312 0.000416971 0.00967289 0.00331104
766 1 17.7185 15.1648 3.57466 0.00202272 2.69586e-05 -0.00685377
767 1 16.452 15.1108 4.45134 -0.00507604 -0.00841632 0.00534128
768 1 17.7567 16.3982 6.2924 -0.00640588 -0.00612827 -0.00677651
769 1 17.6996 13.8792 6.27463 -0.00169426 0.00771293 -0.000472516
770 1 18.9758 15.1637 4.51295 0.00744915 0.00348598 -0.00152838
771 1 17.6887 12.6018 3.56115 -0.0012928 0.00976243 0.000112452
772 1 18.9731 13.8616 5.40308 -0.00438063 -0.00343364 -0.00578524
773 1 18.9261 11.3537 5.38641 0.0126362 0.00103042 -0.00899198
774 1 20.1845 12.6251 3.60581 0.0012212 -0.000961893 -0.00231034
775 1 18.927 12.575 4.48478 0.00408946 0.00649351 0.00267878
776 1 20.2129 13.8599 6.27485 0.00136553 0.00265248 0.00803028
777 1 20.2066 11.2991 6.24874 -0.010716 0.00141601 -0.00468582
778 1 21.4319 12.6705 4.45074 -0.00485133 -0.00397905 0.000831659
779 1 20.1745 10.0574 3.59097 -0.00660962 0.00655928 0.0106434
780 1 21.399 11.3506 5.35069 0.00890094 0.00555318 0.00155382
781 1 21.4557 8.7947 5.34824 0.000135777 0.00342855 0.00306841
782 1 21.4272 10.0769 4.47306 -0.000730824 0.00197301 -0.000831816
783 1 13.8828 21.3975 5.38787 -0.00497894 0.00465576 -0.00151995
784 1 15.1367 21.3495 6.24951 -0.00286951 -0.00930845 -0.00139075
785 1 15.1409 20.1817 3.58725 -0.00589136 0.00543113 -0.00840152
786 1 16.3668 21.3692 5.32948 0.00162556 0.00168817 0.00696068
787 1 16.3976 18.894 5.33205 0.00300913 0.00327698 -0.00118267
788 1 17.6155 20.188 3.5843 -0.0022842 0.00143389 0.0072733
789 1 16.4105 20.1056 4.49211 0.000972426 -0.00314029 0.00456022
790 1 17.6441 21.412 6.29042 0.00432915 0.00335746 -0.000718192
791 1 17.6515 18.9308 6.29581 -0.00960292 -0.00656338 -0.0022382
792 1 18.8648 20.1987 4.46845 -0.00324998 0.00499585 0.0111914
793 1 17.6897 17.6582 3.58882 0.000658867 0.00118924 -0.000571967
794 1 18.9103 18.9232 5.40696 -0.00517545 -0.000798092 0.00650718
795 1 18.9615 16.4603 5.37274 -0.00214393 -0.00205891 0.00191979
796 1 20.1819 17.7183 3.59481 0.00148202 -0.000653562 0.00501912
797 1 18.9419 17.6585 4.47623 -0.00144141 -0.0093323 0.00286427
798 1 20.1247 18.9151 6.29042 -0.00283926 -0.000846044 0.00385837
799 1 20.1876 16.4028 6.27695 -0.000812516 0.00523981 9.81231e-05
800 1 21.4754 17.7151 4.49129 -0.000277762 -0.00362771 -0.00160166
801 1 20.1691 15.0854 3.54589 -0.00023862 0.0023758 0.00787795
802 1 21.4042 16.3845 5.39717 0.000957718 0.000794699 0.00217254
803 1 21.455 13.8507 5.34525 0.00429845 -0.00365021 -0.00448575
804 1 21.4184 15.1433 4.47278 0.00409683 0.00415572 0.00249012
805 1 18.9078 21.4266 5.42483 0.00700014 -0.0042397 -0.00480349
806 1 20.161 21.413 6.30603 0.000775236 -0.00355118 -0.0060972
807 1 20.1679 20.1388 3.58265 0.0017536 0.00627162 0.00471098
808 1 21.3747 21.4122 5.4211 -0.00176833 0.0019943 -0.00201436
809 1 21.4109 18.911 5.37802 -0.0047653 -0.00191473 -0.00322749
810 1 21.4073 20.1343 4.48427 -0.000291551 -0.00466438 0.00047445
811 1 0.0100796 2.58288 7.14458 -0.00438017 -0.00069767 -0.00748307
812 1 0.0333352 3.803 9.88094 0.00235823 0.00124017 -0.00679837
813 1 0.0618549 1.26945 9.89767 0.000363625 -0.0039843 0.00194042
814 1 1.2432 2.5501 8.00643 0.00093986 0.00046936 0.00202611
815 1 0.0365693 0.0249449 7.13921 0.00786462 0.00301159 -0.00614868
816 1 1.29914 1.25502 8.84488 -0.0121031 0.00310253 0.00415194
817 1 2.55057 0.0234342 7.09618 0.00198379 0.00236947 0.00265004
818 1 1.29722 0.00785444 8.02024 -0.000799344 0.000863861 -0.00177085
819 1 2.50916 1.3022 9.94557 0.00295164 -0.00423861 0.00104233
820 1 3.74355 22.6844 8.08284 0.000779983 0.00165056 0.00856727
821 1 22.6499 7.5577 7.22068 0.00350246 0.000833761 0.00483672
822 1 0.0632704 8.79504 9.87993 -0.000613167 0.00326752 0.00377385
823 1 0.0394833 6.2839 9.85594 0.000720574 -0.00503068 0.00551036
824 1 1.24332 7.57467 8.05766 -0.000134957 -0.0118724 0.008505
825 1 22.651 5.04676 7.1932 0.00278831 0.00918333 0.000899792
826 1 1.22893 6.27035 8.8555 -0.00178155 0.00284143 0.0179219
827 1 1.21818 3.78841 8.82739 -0.008036 -0.00339028 -0.00109708
828 1 2.5667 5.08745 7.16261 -0.0039589 0.000849429 0.00313911
829 1 1.23909 5.04033 7.94602 -0.0030206 0.00417187 0.00274815
830 1 2.41258 6.32406 9.80922 -0.00281996 -0.00576443 -0.00160449
831 1 2.40928 3.82508 9.87698 0.00175057 6.636e-05 -0.00448317
832 1 3.80563 5.06484 8.05598 0.00982487 0.0126862 -0.000356241
833 1 2.57168 2.55985 7.18347 0.00563725 0.00169094 0.0055648
834 1 3.73678 3.73935 9.06901 -0.0019386 -0.000565835 -0.00172521
835 1 3.76179 1.28683 9.03845 0.0033735 -0.00724052 -0.0125213
836 1 5.04722 2.53598 7.14962 0.00428129 0.00267122 -0.00663782
837 1 3.8357 2.55417 8.09921 -0.00375274 0.00476302 0.0030035
838 1 5.11196 3.79427 9.87514 -0.0105336 -0.00096561 -0.00400852
839 1 5.04875 1.2868 9.86277 0.00912474 0.00519797 0.00189939
840 1 6.28209 2.48138 8.01782 -0.00377553 -0.000702359 -0.00325054
841 1 5.023 0.0336365 7.13114 0.00227817 0.0095244 -0.0061826
842 1 6.26065 1.20262 8.85198 -0.00618451 -0.0040858 0.00207866
843 1 7.55556 22.6412 7.13434 0.00144081 0.0019093 -0.00132214
844 1 6.27278 0.00747132 8.00318 -0.0032877 0.0151691 -0.014573
845 1 7.42825 1.22825 9.92855 0.00405995 -0.00463119 0.00276751
846 1 8.79493 22.6304 8.09654 0.000615033 0.00453109 -0.00565014
847 1 22.6615 12.578 7.18675 0.00152893 -0.000609657 -0.00510616
848 1 0.0900705 13.8748 9.84009 0.00455228 0.00166586 0.00849455
849 1 0.111013 11.2748 9.8339 -0.000673323 0.00769635 0.00533982
850 1 1.29788 12.5634 7.98387 0.00473659 0.00550056 0.00337653
851 1 0.0445042 10.0679 7.12069 -0.00100578 -0.00226343 -0.00702404
852 1 1.30024 11.3345 8.85126 0.00203166 -0.00755695 -0.00191905
853 1 1.23168 8.87822 8.86801 -0.000258367 0.0018583 0.00244942
854 1 2.50216 10.0972 7.1747 -0.0011139 -0.00950933 -0.00973881
855 1 1.23781 10.133 8.01799 -0.000419942 -0.0062187 -0.008229
856 1 2.41788 11.3302 9.87011 -0.00284909 0.00443438 0.000500579
857 1 2.41399 8.87479 9.90496 0.00286367 0.00235899 -0.0106057
858 1 3.7593 10.1276 8.16458 0.00942654 -0.000216425 -0.00473949
859 1 2.50348 7.56961 7.12571 -0.00545811 0.00853933 0.00490886
860 1 3.76269 8.89029 9.0117 -0.0041109 0.000897859 0.00180793
861 1 3.81987 6.33986 8.96641 0.000998245 -0.000442772 0.00381101
862 1 5.09836 7.61568 7.12631 -0.00804337 -0.00510396 -0.00130108
863 1 3.78185 7.63329 8.05242 0.00292475 -0.00493092 0.0119404
864 1 5.07587 8.86168 9.90903 -0.00462643 -0.00884708 -0.00319842
865 1 5.15123 6.3304 9.90103 0.00136282 -0.00359443 -0.000629231
866 1 6.32473 7.57481 8.05684 0.00134159 0.0018404 0.00627096
867 1 5.03687 5.0529 7.14589 -0.000823157 0.00469536 0.002207
868 1 6.31357 6.33635 8.868 -0.00327095 0.00379512 -0.000903461
869 1 6.27823 3.76038 8.77893 -0.00877325 -2.85277e-05 0.00148768
870 1 7.62665 4.99641 7.17709 -0.00250154 -0.00255956 -0.00173469
871 1 6.32578 5.05133 7.96605 -0.00330393 -0.00469863 0.00530092
872 1 7.49398 6.2802 9.85504 0.00332771 -0.00404085 0.00644359
873 1 7.47394 3.69206 9.85751 0.00197349 0.00119021 0.00334512
874 1 8.84308 4.98778 8.11485 0.00373622 -0.000605092 -0.00122492
875 1 7.52306 2.46148 7.15109 -0.00220569 -0.00512844 0.00975461
876 1 8.81548 3.70046 8.99853 -0.00120318 0.00371125 -8.82896e-05
877 1 8.79269 1.23253 9.00388 0.00183315 0.00168417 -0.00167203
878 1 9.99558 2.51701 7.11415 -0.00632397 -0.00276548 -0.00376387
879 1 8.80348 2.48127 8.05613 -0.00170463 -0.00944091 -0.000989648
880 1 10.1162 3.72075 9.85412 0.00598408 0.000626796 0.00437112
881 1 10.1634 1.25509 9.78928 -0.0014131 -0.0015035 0.00572396
882 1 11.3389 2.51496 7.9731 -0.000265425 -0.00318882 -0.00292324
883 1 10.0681 22.6757 7.09252 0.00318841 -0.00446646 0.00391939
884 1 11.3465 1.18711 8.78145 0.00151088 -0.00397898 -0.00154943
885 1 12.6271 0.00772145 7.09189 0.0102492 0.00274525 0.00433124
886 1 11.368 22.6715 7.93411 -0.00413531 -0.00474939 0.000233752
887 1 12.5367 1.23994 9.90313 0.00269648 -0.00196047 0.000919083
888 1 13.8562 22.6768 8.11037 -0.00400004 0.00463666 -0.00455813
889 1 0.0293057 17.6238 7.19213 0.0125949 0.0016705 -0.00825853
890 1 0.159111 18.9187 9.84489 0.000428687 -0.00343581 0.00344613
891 1 0.0612791 16.3911 9.9059 -0.00196579 -0.00689093 0.00208087
892 1 1.30721 17.662 7.97035 -0.00394522 0.0109245 -0.000492949
893 1 22.6635 15.0981 7.13523 -0.00361173 -0.00976433 -0.0112508
894 1 1.22702 16.3715 8.87764 0.00424201 0.00227155 0.00656016
895 1 1.29387 13.8356 8.85993 0.000324543 -0.000970815 0.00233364
896 1 2.6056 15.1116 7.19846 0.00332192 0.00224505 -0.00924523
897 1 1.34378 15.0921 8.01386 0.00300769 0.00166 0.00942026
898 1 2.51369 16.4201 10.0064 0.000224441 -0.00174469 0.00512764
899 1 2.44956 13.8711 9.95478 -0.00144768 -0.00261656 -0.00687948
900 1 3.83568 15.1591 8.14567 -0.01175 0.00611277 0.0149151
901 1 2.54544 12.6189 7.10832 0.00880448 0.00404496 -0.0072327
902 1 3.76042 13.836 9.06031 -0.00817227 0.0017264 -0.00320598
903 1 3.77965 11.3589 9.08449 0.00441616 0.00139504 0.00616551
904 1 4.99842 12.5946 7.10462 -0.00322047 0.0079521 -0.00425816
905 1 3.80121 12.6753 8.11394 1.20931e-05 -0.00146125 -0.0033458
906 1 5.04493 13.8431 9.90009 0.00732065 -0.00148545 -0.00515982
907 1 5.10765 11.3482 9.94607 -0.00112779 -0.000991354 0.00276598
908 1 6.26822 12.5566 8.01284 0.00736836 -0.00383525 -0.00928237
909 1 5.0574 10.0593 7.17356 -0.00737791 0.00134072 -0.000614956
910 1 6.30175 11.3209 8.83461 0.00110965 0.000474546 0.00135387
911 1 6.27078 8.80126 8.86936 0.00139092 0.00170172 -0.0062857
912 1 7.62133 10.0489 7.1988 0.00012634 -0.00954265 -0.00089369
913 1 6.34218 10.0239 8.02305 0.00136226 -0.00261307 0.012248
914 1 7.50311 11.3156 9.82477 -0.00417444 -0.00417341 0.00363125
915 1 7.47011 8.7554 9.8649 0.00204299 -0.0036775 0.003376
916 1 8.85274 10.1459 8.12215 0.00115326 -0.00747657 0.00556268
917 1 7.58854 7.54206 7.17169 0.000686479 -0.00575175 0.00212263
918 1 8.77059 8.72432 8.99045 -0.000156238 0.00405851 -0.00149968
919 1 8.75704 6.22744 9.09229 0.00510148 0.00168027 -0.0026088
920 1 10.0523 7.55178 7.11896 -0.00861808 0.00556674 0.0143593
921 1 8.81084 7.51253 8.13207 -0.00455778 -0.00471552 0.00714148
922 1 10.025 8.74166 9.8962 -0.00510329 0.00152229 -0.00651947
923 1 10.1028 6.22094 9.95605 0.00507034 -0.000189753 0.00506085
924 1 11.3473 7.50085 8.05616 -0.000344697 -0.00405822 -0.00345972
925 1 10.0955 5.05085 7.11001 -0.00480911 -0.00642102 -0.00366085
926 1 11.2628 6.25349 8.82867 0.000610333 -0.00678258 -0.0049818
927 1 11.3183 3.77771 8.77642 0.000833213 -0.000194357 -0.00904478
928 1 12.6413 5.04037 7.17632 -0.00148878 -0.0006423 0.00386102
929 1 11.4196 5.00171 7.98272 0.000815736 0.00131002 -0.00452326
930 1 12.5039 6.23507 9.88015 -0.00646875 -0.002339 0.00228397
931 1 12.501 3.73431 9.8362 0.00817227 -0.00140098 0.000948854
932 1 13.8879 5.00425 8.12374 -0.00466431 0.00803159 0.00250327
933 1 12.6384 2.5156 7.10341 0.00064111 -0.00369919 -5.85992e-05
934 1 13.8149 3.73274 9.03165 -0.00372111 0.00332827 -0.00447354
935 1 13.8681 1.2404 9.04219 -0.000797454 0.00190569 -0.00177472
936 1 15.0823 2.48717 7.20745 0.00486714 0.00205074 0.00731356
937 1 13.805 2.52963 8.14399 -0.00723706 -0.00277007 0.00713545
938 1 15.1536 3.70429 9.86469 0.00865351 0.00435301 -0.00503513
939 1 15.1101 1.22019 9.95668 2.50946e-05 -0.00605199 -0.000439072
940 1 16.3749 2.53132 8.07716 -0.00125627 0.00754729 0.00357902
941 1 15.1556 22.6637 7.16756 -0.00411837 -0.00265782 0.001768
942 1 16.3949 1.2625 8.90416 0.00596453 -0.00175877 0.00432326
943 1 17.6677 22.645 7.175 -0.00138763 -0.00161343 -0.00742699
944 1 16.3607 0.0275084 8.04762 -0.0113341 0.00092911 0.0092475
945 1 17.6108 1.21578 9.93601 0.0027356 0.000900262 -0.00043885
946 1 18.9147 22.6142 8.13911 -0.00523795 0.00137426 0.000992647
947 1 0.134334 21.4002 9.85112 0.000103835 -0.00052877 0.00383443
948 1 0.0195782 20.1476 7.15837 0.0063449 0.00345382 0.00927547
949 1 1.32042 21.4271 8.79834 0.00358427 0.00143278 0.00523613
950 1 1.2923 18.8935 8.81301 0.00793844 -5.58113e-05 -0.00256863
951 1 2.57644 20.1122 7.16129 0.00543824 -0.00864709 0.000957373
952 1 1.31343 20.1628 8.00667 0.0110475 0.00204559 0.00130086
953 1 2.50299 21.4125 9.92073 0.0121242 0.00373057 -0.00260857
954 1 2.48973 18.882 9.93708 0.00125918 -0.00488852 -0.00408656
955 1 3.79389 20.1194 8.1271 -0.00112306 -0.00139011 0.00727169
956 1 2.52581 17.5696 7.14866 -0.00400068 -0.0088299 0.00724039
957 1 3.79175 18.8747 9.01262 -0.00211753 -0.000797751 0.000937109
958 1 3.8657 16.4305 9.05012 -0.00320577 -0.00999104 0.00364095
959 1 5.08508 17.6048 7.17055 0.00965167 -0.00313104 0.00198848
960 1 3.81157 17.6252 8.05336 -0.00122043 0.00577663 0.00334793
961 1 5.10422 18.9403 9.88147 -0.00226009 0.00505422 0.00508137
962 1 5.13559 16.4516 9.84382 -0.00341202 0.00255004 0.0117961
963 1 6.32009 17.5894 7.98637 0.00126992 -0.0055402 -0.00618912
964 1 5.09201 15.0804 7.13966 -0.0061323 -0.000232009 0.00227265
965 1 6.34328 16.4274 8.85243 0.0119353 -0.00759501 -0.000353686
966 1 6.26918 13.857 8.84982 -0.00323466 0.0045675 -0.00438014
967 1 7.55404 15.0436 7.15205 0.00771077 -0.00890373 0.00894968
968 1 6.34478 15.1118 8.02094 -0.00253085 0.00451874 -0.000561997
969 1 7.50543 16.4362 9.90734 0.00374851 -0.00323595 0.00355391
970 1 7.42498 13.8637 9.89213 -0.00177201 -0.00340204 -0.000905943
971 1 8.81321 15.08 8.07803 -0.00271978 -0.00434943 0.00298318
972 1 7.60578 12.5937 7.27175 0.00264534 -0.00391113 -0.000377532
973 1 8.80015 13.8025 9.02921 -0.00200655 -0.00889414 0.00479811
974 1 8.79297 11.337 9.08282 0.00051027 0.00894085 8.51005e-05
975 1 10.0942 12.634 7.15557 0.000597621 0.00263705 0.00333215
976 1 8.83252 12.5516 8.13738 0.00211093 -0.000647048 -0.00328001
977 1 10.1446 13.8511 9.95025 -0.00370245 0.00924053 0.00632229
978 1 10.154 11.2647 9.93531 0.000912876 -0.00353164 -0.00341752
979 1 11.39 12.5688 8.0042 -0.00444008 0.000741869 0.00143953
980 1 10.1202 10.0724 7.15717 -0.00284837 0.00459591 -0.000915297
981 1 11.3252 11.2552 8.90726 0.00119108 -0.00717208 -0.00436491
982 1 11.2957 8.74463 8.83673 0.0097889 -0.000458243 -0.00269311
983 1 12.6588 10.056 7.19305 0.00642594 -0.000771535 -0.00271274
984 1 11.3844 9.99157 8.02325 -0.00784651 0.000909701 0.00379279
985 1 12.5312 11.3331 9.95316 0.00230268 -0.0139772 0.00202867
986 1 12.3898 8.75519 9.89871 0.00860965 0.00959308 0.00934688
987 1 13.8621 10.0822 8.16349 0.00358974 0.00537196 -0.00643996
988 1 12.5813 7.5284 7.14923 0.00137267 -0.00174952 -0.00249538
989 1 13.7778 8.83693 9.06992 0.00272165 0.000180535 0.00171792
990 1 13.8121 6.25149 8.98061 0.00788203 -0.00618624 0.00323835
991 1 15.0725 7.58226 7.15681 0.00250302 0.00207959 0.00289867
992 1 13.803 7.56344 8.09941 0.00548768 -0.00236398 -0.00153471
993 1 15.1976 8.78534 9.93104 0.0029605 -0.00843199 7.94768e-05
994 1 15.1742 6.28728 9.82337 1.209e-05 0.00553484 0.00302118
995 1 16.378 7.50405 8.0294 4.28114e-05 -0.00514491 -0.0116299
996 1 15.1294 5.00475 7.18925 -0.00959419 0.00605689 -0.00683751
997 1 16.4165 6.25514 8.89873 0.00121126 -0.00723262 0.0012951
998 1 16.4545 3.76133 8.90723 -0.00163597 0.000972417 0.00371386
999 1 17.6954 4.98162 7.14987 0.000306847 0.00715994 -0.000178663
1000 1 16.4483 5.01592 8.05923 -0.00662184 -0.000182107 0.00177763
1001 1 17.5854 6.2715 9.92955 0.00181361 -0.000299272 0.00589909
1002 1 17.6153 3.70324 9.96683 0.00535113 0.0106619 -0.00326825
1003 1 18.9248 4.98069 8.08143 0.00371524 -0.000350215 -0.00573865
1004 1 17.6432 2.51167 7.20311 0.00531673 0.00401476 -0.00108802
1005 1 18.9067 3.72111 9.03685 -0.00117176 -0.00414152 -0.00107252
1006 1 18.8962 1.18698 9.07565 0.00320669 -1.43481e-05 -0.00514693
1007 1 20.1828 2.43017 7.28573 0.0041307 -0.00219308 -0.00407761
1008 1 18.9574 2.44076 8.13509 0.00123503 -0.00183934 -0.00725009
1009 1 20.2384 3.75168 10.0169 -0.00516947 0.00113471 -0.0101476
1010 1 20.1802 1.26737 10.062 0.00731954 -0.0028171 0.00204377
1011 1 21.4404 2.49223 8.21469 0.00754182 -0.000739221 0.00241286
1012 1 20.1543 22.6554 7.27466 -0.0021271 0.0045566 0.0115234
1013 1 21.5243 1.23603 9.07188 -0.00322779 0.00112159 -0.000219989
1014 1 21.4995 22.6791 8.13069 0.00183613 -0.00226715 -0.00186766
1015 1 3.77889 21.455 9.01572 0.00882474 0.00227968 -0.000468824
1016 1 5.08607 21.4774 9.87939 -0.00267824 -0.00532987 -0.00617788
1017 1 5.02634 20.1113 7.16168 0.00280105 -0.0079392 0.00934114
1018 1 6.22244 21.4371 8.79381 0.00445661 0.000320948 -0.00649201
1019 1 6.27304 18.8892 8.80286 0.00352822 -0.00159975 -0.00126233
1020 1 7.52081 20.1383 7.08131 0.00601483 0.00843281 0.00379081
1021 1 6.28196 20.168 7.93438 0.00791509 -0.00377882 -0.00440604
1022 1 7.42398 21.3646 9.82932 0.00143173 0.00838177 0.00568722
1023 1 7.46402 18.9441 9.87567 -0.00226083 -0.00372443 -0.00271564
1024 1 8.74129 20.1121 8.09878 -0.00981677 0.000222625 -0.00613497
1025 1 7.56846 17.6223 7.11006 -0.00278208 0.00737243 0.0106547
1026 1 8.72283 18.9561 9.03247 0.0051923 0.00658 0.00171443
1027 1 8.80883 16.3983 9.01563 0.00037186 8.79803e-06 0.00694108
1028 1 10.0944 17.6339 7.11458 -0.00739492 0.000639767 0.00237662
1029 1 8.78845 17.6578 8.05325 0.005293 0.0034179 -0.00205625
1030 1 10.1056 18.9684 9.87099 -0.00375183 0.00148824 -0.010154
1031 1 10.1002 16.3664 9.87999 0.00641636 0.00490554 -0.00512926
1032 1 11.3104 17.6668 8.00816 -0.00460793 -0.00280594 0.00443842
1033 1 10.0595 15.1204 7.14537 -0.00560172 0.00177076 -0.00213649
1034 1 11.2872 16.4292 8.89023 -0.00136679 -0.00610827 -0.00754459
1035 1 11.296 13.8333 8.87409 0.00542057 -0.00409706 -0.0103631
1036 1 12.611 15.1354 7.17877 -0.00931504 0.00529176 0.00600038
1037 1 11.274 15.1861 8.07304 -0.00449658 0.000746681 -0.000271226
1038 1 12.4542 16.3752 9.91069 -0.000593873 0.000980729 0.000682976
1039 1 12.5419 13.8596 9.95864 -0.0103823 0.00656162 -0.00311014
1040 1 13.8815 15.0812 8.14525 0.00696933 -0.0079026 0.0056986
1041 1 12.613 12.6043 7.17922 -0.00795484 -0.00508196 0.000378974
1042 1 13.8211 13.8795 9.0141 -0.0016355 -0.0151115 -0.0113135
1043 1 13.8514 11.3261 9.01335 -0.00397483 -0.00398193 0.000812472
1044 1 15.1039 12.5689 7.16058 -0.00466703 0.00366337 -0.00252711
1045 1 13.8475 12.6095 8.06215 0.005018 -0.00624682 -0.00561286
1046 1 15.2093 13.8765 9.79936 -0.00494725 -0.00718108 0.004848
1047 1 15.1797 11.3308 9.89328 -0.00141409 0.000171078 -0.00100483
1048 1 16.3672 12.6373 8.00403 -0.000741794 0.00358899 0.00181538
1049 1 15.1335 10.0111 7.13665 -0.0059035 0.00223838 0.00244088
1050 1 16.3502 11.3924 8.85706 0.00516096 -0.00216671 -0.00262412
1051 1 16.4078 8.77184 8.90584 0.0043168 0.00125004 0.00117635
1052 1 17.6394 10.0618 7.12953 0.00252692 0.00104415 -0.00624827
1053 1 16.365 10.0821 8.05139 0.000198999 -0.00114191 -0.00401018
1054 1 17.6578 11.3851 9.90507 0.00262039 -0.00940832 0.00095097
1055 1 17.6028 8.82642 9.85617 0.0019668 -0.00455636 0.00913828
1056 1 18.9216 10.0757 8.08579 0.000621247 -0.00129526 -0.000823748
1057 1 17.6879 7.5639 7.18087 0.0028357 0.00815487 -0.00744035
1058 1 18.9336 8.86392 8.9954 -0.00912818 0.00279069 -0.00297145
1059 1 18.8518 6.2624 8.9794 -0.00240735 -0.00401511 0.00416902
1060 1 20.2025 7.51783 7.22701 -0.00507955 0.00360283 0.00881227
1061 1 18.9384 7.59014 8.08327 -0.00156113 0.00274272 0.00193027
1062 1 20.1352 8.76848 10.0387 -0.000192636 -0.00356875 0.000873211
1063 1 20.1164 6.26957 9.98347 0.00368814 -8.21937e-05 -0.00387049
1064 1 21.4111 7.56313 8.10796 0.00953039 -0.00633126 0.00486538
1065 1 20.1747 4.9591 7.23858 -0.00466174 0.000755432 -0.00321776
1066 1 21.4519 6.26153 8.98253 -0.00115215 0.005864 0.00220086
1067 1 21.5353 3.7709 9.03949 0.00288364 -0.00998271 0.00455983
1068 1 21.4478 5.02258 8.11266 0.00447774 0.00104528 -0.00322193
1069 1 8.81177 21.3805 8.98452 0.00623502 0.00469831 0.00179934
1070 1 10.1544 21.4344 9.86081 -0.00111063 0.00318833 0.00839653
1071 1 10.038 20.1612 7.11556 0.00235203 0.00155576 0.0111226
1072 1 11.2725 21.4981 8.78178 -0.00294852 0.00297062 0.0053487
1073 1 11.3037 18.8793 8.80358 -0.000426305 0.0026028 0.0050227
1074 1 12.6057 20.2137 7.15392 -0.000428514 -0.00624729 0.00501164
1075 1 11.2757 20.1383 7.95843 -0.00200906 0.00310587 0.00361017
1076 1 12.5318 21.4371 9.87934 -0.00404342 0.00550272 -0.00141392
1077 1 12.4856 18.916 9.89458 -0.00575198 0.000267368 0.00683844
1078 1 13.8353 20.1751 8.09694 -0.00299602 0.00204775 -0.00757494
1079 1 12.6249 17.6289 7.19687 0.00334128 0.00348874 -0.00178994
1080 1 13.8104 18.9315 8.97836 -0.00925229 -0.00494213 -0.00389792
1081 1 13.8384 16.4064 9.03046 -0.00564177 -0.00511598 0.00259958
1082 1 15.2098 17.6246 7.18534 -0.00127512 -0.0059686 -0.000165074
1083 1 13.8591 17.6358 8.10008 0.00309786 -0.00606809 -0.000847588
1084 1 15.1986 18.9289 9.84936 -0.00259827 0.00448839 -0.00532089
1085 1 15.0949 16.3204 9.85705 0.00149319 -0.000895326 -0.00379347
1086 1 16.4409 17.6599 8.05756 -0.00648076 -0.00419375 -0.00443321
1087 1 15.1756 15.0798 7.20152 -0.00284722 -0.00364122 -0.00102276
1088 1 16.3857 16.4464 8.91643 -0.00731287 0.00946063 -0.0102635
1089 1 16.4414 13.8608 8.84715 -0.0117551 -0.00125239 0.00229124
1090 1 17.7669 15.1445 7.1239 0.00241074 0.00803604 -0.000818673
1091 1 16.4583 15.1471 8.04048 0.00783191 0.000240022 -0.00542735
1092 1 17.5649 16.3074 9.855 0.011063 0.00220999 -0.00323382
1093 1 17.6345 13.9177 9.84654 -0.00197312 -0.00240989 -0.0019478
1094 1 18.953 15.1176 8.12221 0.000519856 0.00334088 -0.00206445
1095 1 17.6899 12.6084 7.08458 0.00085219 0.000569042 -0.00398248
1096 1 18.95 13.863 8.96252 -0.00817107 0.00377128 -0.00308664
1097 1 18.9832 11.337 8.98223 0.00586898 -0.00121093 -0.00460325
1098 1 20.1756 12.5758 7.18939 -0.00357986 0.00224551 0.00201907
1099 1 18.9096 12.5901 8.16137 0.0060074 0.00550457 -0.00991167
1100 1 20.1703 13.8732 9.96318 -0.00365881 -0.000749876 -0.00269021
1101 1 20.2309 11.3367 9.96971 -0.00216955 -0.00360936 0.00456077
1102 1 21.3959 12.6072 8.13843 0.00733841 0.00162799 9.17742e-05
1103 1 20.1857 10.0535 7.18667 -0.000903094 0.00944032 -0.00333297
1104 1 21.5101 11.3689 8.97012 0.00287791 0.0102782 -0.001358
1105 1 21.5079 8.84439 8.98368 -0.00352978 -0.00182711 -0.00906728
1106 1 21.4509 10.0891 8.08478 0.000849693 0.00725653 -0.00612572
1107 1 13.8316 21.4774 9.0242 0.00420192 -0.000337138 0.00302186
1108 1 15.1708 21.4901 9.84477 0.00812163 -0.00032926 0.00788785
1109 1 15.1207 20.1904 7.19988 -0.00902628 -0.00624495 0.0103075
1110 1 16.3569 21.4389 8.83801 -0.000505598 -0.00701975 -0.00288927
1111 1 16.3968 18.8874 8.8334 0.00524404 0.000559523 -0.00542253
1112 1 17.6645 20.1454 7.17252 -1.81155e-05 0.00559555 -0.0067072
1113 1 16.406 20.1555 8.00343 0.00321483 -0.000429077 -0.00872981
1114 1 17.5137 21.3914 9.81398 -0.00450212 -0.008835 0.00195968
1115 1 17.5873 18.8739 9.9411 0.000934826 -0.00233811 0.00206225
1116 1 18.913 20.1205 8.15683 -0.000547294 0.00356707 -0.00175859
1117 1 17.6686 17.6144 7.23487 0.00058576 0.000976719 0.00290855
1118 1 18.9087 18.8851 9.04976 -0.00461476 0.000547624 -0.00156747
1119 1 18.888 16.3607 9.06947 0.000550735 0.00828558 -0.00142476
1120 1 20.1753 17.6778 7.24183 0.0024314 0.00127637 0.000403638
1121 1 18.9316 17.6186 8.16562 0.00430255 0.0103652 0.00372217
1122 1 20.1931 18.8897 10.0234 -0.00798251 -0.00154653 -0.000687451
1123 1 20.1762 16.4111 10.1074 -0.000790429 -0.00391725 -0.000695692
1124 1 21.4608 17.6562 8.16123 -0.0067474 -0.00234809 -0.000722225
1125 1 20.2047 15.1686 7.18941 0.00366798 0.00767933 0.000364067
1126 1 21.4418 16.3913 9.0254 0.00366671 -0.00828562 -0.00197258
1127 1 21.3859 13.8945 8.98654 -0.000840172 0.00493798 -0.00558151
1128 1 21.4771 15.1721 8.0556 0.00306569 -0.00147377 -0.00783941
1129 1 18.8558 21.3736 9.02508 0.0091035 0.00222226 -0.000736816
1130 1 20.2054 21.4314 10.0502 0.00387341 0.00211735 0.0012989
1131 1 20.1768 20.1311 7.22411 -0.00175858 -0.00250901 -0.00103826
1132 1 21.4878 21.4192 8.95916 0.00392392 0.00388123 -0.00189514
1133 1 21.4329 18.9324 9.03581 -0.00591455 0.00308835 -0.000271911
1134 1 21.453 20.1427 8.11504 -0.000750778 0.00478818 0.00455766
1135 1 0.462489 2.50838 10.6993 0.00408796 0.00810316 -0.00304186
1136 1 0.505075 22.6634 10.6031 0.00383809 -0.00202931 -0.00317957
1137 1 2.04122 0.00552509 10.5397 0.00363033 0.00955878 0.00291009
1138 1 0.413584 7.51439 10.5829 -0.00653602 -0.00204126 -0.00134448
1139 1 0.546625 5.07329 10.6285 0.000396144 -0.00124903 0.00123273
1140 1 2.13711 5.10852 10.6303 0.00242318 -0.00233839 0.0042829
1141 1 2.04136 2.55495 10.6667 -0.00543244 0.000691483 0.00280242
1142 1 5.50286 2.48458 10.6574 0.00294947 -0.00480033 0.0130772
1143 1 5.50909 22.6707 10.6178 -0.00148183 0.00294252 0.00399001
1144 1 7.02534 22.6088 10.6467 0.00310922 0.00586324 -0.00330195
1145 1 0.468869 12.5692 10.5741 -0.000453752 -0.00466603 -0.00635887
1146 1 0.419008 10.0915 10.6132 -0.00158427 -0.002585 -0.00838547
1147 1 1.92083 10.1196 10.6566 -0.00136669 0.00426128 0.000115772
1148 1 1.87125 7.54095 10.5437 -0.00318588 -0.0118173 0.00157747
1149 1 5.49168 7.62331 10.7564 0.00900808 -0.000644472 0.00876538
1150 1 5.57473 5.03182 10.6128 0.00480256 -0.00203063 0.00305274
1151 1 7.1164 4.94581 10.6355 -0.00707583 -0.00208136 -0.00362513
1152 1 7.04197 2.48347 10.6907 -0.0104661 -0.00204883 0.00165216
1153 1 10.567 2.46753 10.5186 0.00142262 -0.00336067 0.000844179
1154 1 10.5313 0.00709228 10.547 0.000867878 7.99877e-05 0.00554244
1155 1 12.055 22.6722 10.6937 -0.003533 -0.00829679 0.00243328
1156 1 0.554579 17.667 10.6147 0.00261763 0.00223361 -0.00776548
1157 1 0.446706 15.0886 10.7072 0.00484414 -0.00326407 -0.00287082
1158 1 2.04238 15.1487 10.6968 0.00923193 -0.00242454 0.00275776
1159 1 1.92707 12.6018 10.6346 0.00257119 0.00226676 -0.00134458
1160 1 5.50257 12.5485 10.6457 -0.00201818 0.00182881 0.00446807
1161 1 5.53994 10.1009 10.6519 0.00752638 -0.00178198 -0.00525932
1162 1 7.05704 10.0147 10.6669 -0.00596574 0.00232897 0.00670823
1163 1 7.05709 7.53294 10.687 0.0103964 0.00430847 0.00511823
1164 1 10.4742 7.52974 10.7325 0.00141159 -0.00434214 -0.00366538
1165 1 10.5679 4.98719 10.6975 -0.00201006 0.00324761 0.00373042
1166 1 12.0958 4.93664 10.7368 0.00835296 -0.00353448 0.00144309
1167 1 12.0377 2.51896 10.5164 0.00720946 0.00244027 -0.00574925
1168 1 15.5821 2.54474 10.7394 0.00198552 0.00186319 -0.00449913
1169 1 15.5334 22.6303 10.7065 -0.00144044 -0.00467028 0.00210001
1170 1 17.0496 22.6294 10.6849 -5.01812e-05 -0.000125918 0.00302131
1171 1 0.56476 20.1459 10.58 0.00905947 -0.00430969 0.00424274
1172 1 2.05777 20.1707 10.6642 -0.00649339 0.0040546 -0.00230139
1173 1 2.0362 17.705 10.6341 0.000777366 -0.00019712 -0.00421588
1174 1 5.43707 17.6563 10.7238 -0.00566478 -0.00309453 0.000856471
1175 1 5.51867 15.1492 10.6075 -0.0063802 -0.000807255 0.0105092
1176 1 7.03231 15.1343 10.613 -0.00579383 0.00186217 -0.00468135
1177 1 7.05714 12.5679 10.6639 5.38152e-05 -0.00343338 -0.00247713
1178 1 10.618 12.5633 10.7232 -0.00364567 0.00472316 0.00059556
1179 1 10.4984 10.0321 10.7509 0.00243435 -0.00101263 0.00641516
1180 1 12.058 9.99971 10.7436 0.00104085 -0.00657924 0.00238192
1181 1 12.057 7.45236 10.6053 8.50725e-05 0.00275133 -0.0074499
1182 1 15.5959 7.53231 10.6723 0.00603124 -0.00588955 -0.00719219
1183 1 15.6055 4.99455 10.5733 0.00834224 0.00683357 -0.00200765
1184 1 17.113 4.98423 10.633 -0.00290056 -0.00098579 -0.00347564
1185 1 17.1925 2.44059 10.7321 0.00180528 -0.00201306 -0.00320373
1186 1 20.2581 2.6166 10.7555 0.00608416 0.000291122 -0.000293355
1187 1 20.2009 22.6825 10.6587 -0.00438112 -0.00777186 0.00769416
1188 1 5.52509 20.2045 10.6243 -0.000526601 -0.00218897 -0.00566226
1189 1 6.99675 20.232 10.6164 0.00107421 0.00234191 -0.0011617
1190 1 7.05866 17.6776 10.7203 -0.00367897 0.0049884 -0.00321702
1191 1 10.5059 17.6891 10.6202 0.00100179 -0.000960563 -0.001747
1192 1 10.4864 15.1147 10.6017 -0.0067623 -0.00478922 -0.00236754
1193 1 12.0085 15.0846 10.6845 -0.00559166 0.00683081 -0.00734196
1194 1 12.2039 12.5936 10.7225 0.00306655 -0.00325362 -0.00680487
1195 1 15.6938 12.622 10.6576 -0.0145197 -0.00265743 -0.00200149
1196 1 15.7117 10.0914 10.7524 0.00358845 0.00392251 0.00767536
1197 1 17.2956 10.0842 10.6399 -0.00558914 -0.00011305 0.000657561
1198 1 17.1613 7.53204 10.7207 0.00415903 0.00193648 -0.000460927
1199 1 20.2008 7.51913 10.6408 0.00176528 0.00828075 0.00361968
1200 1 20.1626 5.04556 10.6979 0.00544978 -0.00253474 -0.00230754
1201 1 10.6173 20.2224 10.6418 0.000279816 0.00511611 0.00176125
1202 1 12.1015 20.1471 10.6326 0.00403659 0.00031111 0.0047447
1203 1 12.0387 17.6347 10.6447 0.00332165 -0.00908064 0.00556505
1204 1 15.5645 17.5976 10.5869 -0.000101894 -0.00918996 -0.000663059
1205 1 15.6459 15.1493 10.4956 -0.00319148 -0.00504364 -0.00567186
1206 1 17.097 15.1759 10.5528 -0.000543483 -0.000318462 0.00874498
1207 1 17.2591 12.615 10.5172 -0.00120233 0.00448406 -0.00449395
1208 1 20.2042 12.6139 10.6418 0.000343566 0.00559239 0.00301468
1209 1 20.2508 10.0844 10.5953 0.00160465 0.00354921 0.00572676
1210 1 15.5872 20.2138 10.6016 0.000854524 0.00507227 -0.00503729
1211 1 17.0982 20.1448 10.5694 0.00171126 0.00394139 0.00596307
1212 1 17.1717 17.6339 10.6551 -0.00246734 -0.00103073 0.00314321
1213 1 20.1055 17.6673 10.715 0.000836231 0.00378414 -0.00216092
1214 1 20.2027 15.0887 10.7491 -0.003082 0.00131343 -0.00347906
1215 1 20.2082 20.1521 10.6631 0.00104769 0.00101724 0.00852869
