ITEM: TIMESTEP
0
ITEM: NUMBER OF ATOMS
1215
ITEM: BOX BOUNDS pp pp mm
0.0000000000000000e+00 2.2689985001334318e+01
0.0000000000000000e+00 2.2689985001334318e+01
-2.2283669804811876e+00 2.8523097350159201e+01
ITEM: ATOMS id type x y z vx vy vz
1 1 4.7103e-14 3.78166 -0.987098 0 0 0
2 1 22.69 1.26055 -0.987098 0 0 0
3 1 1.26055 1.26055 -1.69198 0 0 0
4 1 2.52111 1.26055 -0.987098 0 0 0
5 1 22.69 8.82388 -0.987098 0 0 0
6 1 2.69015e-14 6.30277 -0.987098 0 0 0
7 1 1.26055 6.30277 -1.69198 0 0 0
8 1 1.26055 3.78166 -1.69198 0 0 0
9 1 2.52111 6.30277 -0.987098 0 0 0
10 1 2.52111 3.78166 -0.987098 0 0 0
11 1 3.78166 3.78166 -1.69198 0 0 0
12 1 3.78166 1.26055 -1.69198 0 0 0
13 1 5.04222 3.78166 -0.987098 0 0 0
14 1 5.04222 1.26055 -0.987098 0 0 0
15 1 6.30277 1.26055 -1.69198 0 0 0
16 1 7.56333 1.26055 -0.987098 0 0 0
17 1 22.69 13.8661 -0.987098 0 0 0
18 1 1.18831e-14 11.345 -0.987098 0 0 0
19 1 1.26055 11.345 -1.69198 0 0 0
20 1 1.26055 8.82388 -1.69198 0 0 0
21 1 2.52111 11.345 -0.987098 0 0 0
22 1 2.52111 8.82388 -0.987098 0 0 0
23 1 3.78166 8.82388 -1.69198 0 0 0
24 1 3.78166 6.30277 -1.69198 0 0 0
25 1 5.04222 8.82388 -0.987098 0 0 0
26 1 5.04222 6.30277 -0.987098 0 0 0
27 1 6.30277 6.30277 -1.69198 0 0 0
28 1 6.30277 3.78166 -1.69198 0 0 0
29 1 7.56333 6.30277 -0.987098 0 0 0
30 1 7.56333 3.78166 -0.987098 0 0 0
31 1 8.82388 3.78166 -1.69198 0 0 0
32 1 8.82388 1.26055 -1.69198 0 0 0
33 1 10.0844 3.78166 -0.987098 0 0 0
34 1 10.0844 1.26055 -0.987098 0 0 0
35 1 11.345 1.26055 -1.69198 0 0 0
36 1 12.6055 1.26055 -0.987098 0 0 0
37 1 22.69 18.9083 -0.987098 0 0 0
38 1 22.69 16.3872 -0.987098 0 0 0
39 1 1.26055 16.3872 -1.69198 0 0 0
40 1 1.26055 13.8661 -1.69198 0 0 0
41 1 2.52111 16.3872 -0.987098 0 0 0
42 1 2.52111 13.8661 -0.987098 0 0 0
43 1 3.78166 13.8661 -1.69198 0 0 0
44 1 3.78166 11.345 -1.69198 0 0 0
45 1 5.04222 13.8661 -0.987098 0 0 0
46 1 5.04222 11.345 -0.987098 0 0 0
47 1 6.30277 11.345 -1.69198 0 0 0
48 1 6.30277 8.82388 -1.69198 0 0 0
49 1 7.56333 11.345 -0.987098 0 0 0
50 1 7.56333 8.82388 -0.987098 0 0 0
51 1 8.82388 8.82388 -1.69198 0 0 0
52 1 8.82388 6.30277 -1.69198 0 0 0
53 1 10.0844 8.82388 -0.987098 0 0 0
54 1 10.0844 6.30277 -0.987098 0 0 0
55 1 11.345 6.30277 -1.69198 0 0 0
56 1 11.345 3.78166 -1.69198 0 0 0
57 1 12.6055 6.30277 -0.987098 0 0 0
58 1 12.6055 3.78166 -0.987098 0 0 0
59 1 13.8661 3.78166 -1.69198 0 0 0
60 1 13.8661 1.26055 -1.69198 0 0 0
61 1 15.1267 3.78166 -0.987098 0 0 0
62 1 15.1267 1.26055 -0.987098 0 0 0
63 1 16.3872 1.26055 -1.69198 0 0 0
64 1 17.6478 1.26055 -0.987098 0 0 0
65 1 22.69 21.4294 -0.987098 0 0 0
66 1 1.26055 21.4294 -1.69198 0 0 0
67 1 1.26055 18.9083 -1.69198 0 0 0
68 1 2.52111 21.4294 -0.987098 0 0 0
69 1 2.52111 18.9083 -0.987098 0 0 0
70 1 3.78166 18.9083 -1.69198 0 0 0
71 1 3.78166 16.3872 -1.69198 0 0 0
72 1 5.04222 18.9083 -0.987098 0 0 0
73 1 5.04222 16.3872 -0.987098 0 0 0
74 1 6.30277 16.3872 -1.69198 0 0 0
75 1 6.30277 13.8661 -1.69198 0 0 0
76 1 7.56333 16.3872 -0.987098 0 0 0
77 1 7.56333 13.8661 -0.987098 0 0 0
78 1 8.82388 13.8661 -1.69198 0 0 0
79 1 8.82388 11.345 -1.69198 0 0 0
80 1 10.0844 13.8661 -0.987098 0 0 0
81 1 10.0844 11.345 -0.987098 0 0 0
82 1 11.345 11.345 -1.69198 0 0 0
83 1 11.345 8.82388 -1.69198 0 0 0
84 1 12.6055 11.345 -0.987098 0 0 0
85 1 12.6055 8.82388 -0.987098 0 0 0
86 1 13.8661 8.82388 -1.69198 0 0 0
87 1 13.8661 6.30277 -1.69198 0 0 0
88 1 15.1267 8.82388 -0.987098 0 0 0
89 1 15.1267 6.30277 -0.987098 0 0 0
90 1 16.3872 6.30277 -1.69198 0 0 0
91 1 16.3872 3.78166 -1.69198 0 0 0
92 1 17.6478 6.30277 -0.987098 0 0 0
93 1 17.6478 3.78166 -0.987098 0 0 0
94 1 18.9083 3.78166 -1.69198 0 0 0
95 1 18.9083 1.26055 -1.69198 0 0 0
96 1 20.1689 3.78166 -0.987098 0 0 0
97 1 20.1689 1.26055 -0.987098 0 0 0
98 1 21.4294 1.26055 -1.69198 0 0 0
99 1 3.78166 21.4294 -1.69198 0 0 0
100 1 5.04222 21.4294 -0.987098 0 0 0
101 1 6.30277 21.4294 -1.69198 0 0 0
102 1 6.30277 18.9083 -1.69198 0 0 0
103 1 7.56333 21.4294 -0.987098 0 0 0
104 1 7.56333 18.9083 -0.987098 0 0 0
105 1 8.82388 18.9083 -1.69198 0 0 0
106 1 8.82388 16.3872 -1.69198 0 0 0
107 1 10.0844 18.9083 -0.987098 0 0 0
108 1 10.0844 16.3872 -0.987098 0 0 0
109 1 11.345 16.3872 -1.69198 0 0 0
110 1 11.345 13.8661 -1.69198 0 0 0
111 1 12.6055 16.3872 -0.987098 0 0 0
112 1 12.6055 13.8661 -0.987098 0 0 0
113 1 13.8661 13.8661 -1.69198 0 0 0
114 1 13.8661 11.345 -1.69198 0 0 0
115 1 15.1267 13.8661 -0.987098 0 0 0
116 1 15.1267 11.345 -0.987098 0 0 0
117 1 16.3872 11.345 -1.69198 0 0 0
118 1 16.3872 8.82388 -1.69198 0 0 0
119 1 17.6478 11.345 -0.987098 0 0 0
120 1 17.6478 8.82388 -0.987098 0 0 0
121 1 18.9083 8.82388 -1.69198 0 0 0
122 1 18.9083 6.30277 -1.69198 0 0 0
123 1 20.1689 8.82388 -0.987098 0 0 0
124 1 20.1689 6.30277 -0.987098 0 0 0
125 1 21.4294 6.30277 -1.69198 0 0 0
126 1 21.4294 3.78166 -1.69198 0 0 0
127 1 8.82388 21.4294 -1.69198 0 0 0
128 1 10.0844 21.4294 -0.987098 0 0 0
129 1 11.345 21.4294 -1.69198 0 0 0
130 1 11.345 18.9083 -1.69198 0 0 0
131 1 12.6055 21.4294 -0.987098 0 0 0
132 1 12.6055 18.9083 -0.987098 0 0 0
133 1 13.8661 18.9083 -1.69198 0 0 0
134 1 13.8661 16.3872 -1.69198 0 0 0
135 1 15.1267 18.9083 -0.987098 0 0 0
136 1 15.1267 16.3872 -0.987098 0 0 0
137 1 16.3872 16.3872 -1.69198 0 0 0
138 1 16.3872 13.8661 -1.69198 0 0 0
139 1 17.6478 16.3872 -0.987098 0 0 0
140 1 17.6478 13.8661 -0.987098 0 0 0
141 1 18.9083 13.8661 -1.69198 0 0 0
142 1 18.9083 11.345 -1.69198 0 0 0
143 1 20.1689 13.8661 -0.987098 0 0 0
144 1 20.1689 11.345 -0.987098 0 0 0
145 1 21.4294 11.345 -1.69198 0 0 0
146 1 21.4294 8.82388 -1.69198 0 0 0
147 1 13.8661 21.4294 -1.69198 0 0 0
148 1 15.1267 21.4294 -0.987098 0 0 0
149 1 16.3872 21.4294 -1.69198 0 0 0
150 1 16.3872 18.9083 -1.69198 0 0 0
151 1 17.6478 21.4294 -0.987098 0 0 0
152 1 17.6478 18.9083 -0.987098 0 0 0
153 1 18.9083 18.9083 -1.69198 0 0 0
154 1 18.9083 16.3872 -1.69198 0 0 0
155 1 20.1689 18.9083 -0.987098 0 0 0
156 1 20.1689 16.3872 -0.987098 0 0 0
157 1 21.4294 16.3872 -1.69198 0 0 0
158 1 21.4294 13.8661 -1.69198 0 0 0
159 1 18.9083 21.4294 -1.69198 0 0 0
160 1 20.1689 21.4294 -0.987098 0 0 0
161 1 21.4294 21.4294 -1.69198 0 0 0
162 1 21.4294 18.9083 -1.69198 0 0 0
163 1 0.0458006 2.5362 0.0143624 -0.00561608 0.00626286 -0.000818194
164 1 22.679 3.85067 2.67204 -0.00554349 -0.000874792 0.011825
165 1 0.000646719 1.25011 2.6155 -0.000818578 0.00214362 0.00208309
166 1 1.28541 2.55978 0.896033 0.000118521 -0.00756956 -0.00393537
167 1 0.00833254 0.0086057 -0.0135962 -0.00390405 -0.0100485 0.00770265
168 1 1.28998 1.27487 1.76389 0.00180042 -0.002322 0.0031929
169 1 2.47437 22.6805 -0.0109314 -0.00742118 -0.00475068 0.00716925
170 1 1.2624 0.00122533 0.852773 0.000566805 -0.00162195 0.00662121
171 1 2.54237 1.27402 2.64188 0.00513596 -0.00425839 0.00169005
172 1 3.78102 0.0214406 0.879879 -0.00526316 -0.00322528 -0.00510092
173 1 22.6883 7.56233 0.0199628 -0.00227779 0.0115293 0.00137265
174 1 22.6764 8.86169 2.70271 0.000236536 0.000973788 0.00219488
175 1 22.6369 6.29393 2.67262 -0.00430652 0.00397721 -0.00160681
176 1 1.20038 7.60021 0.888243 -0.00551337 0.00977874 0.0024002
177 1 0.0138447 5.05687 -0.00865874 -0.00623176 0.0025501 -0.00362874
178 1 1.20056 6.3822 1.77123 -0.00246764 0.00991831 -0.00104857
179 1 1.25898 3.83803 1.77073 0.00409269 0.00387375 -0.00127077
180 1 2.52949 5.06168 0.0129406 0.00254844 0.00238124 0.00705659
181 1 1.23325 5.08609 0.843682 -7.5596e-05 -0.00164057 -0.00115535
182 1 2.49161 6.29043 2.67477 0.00247045 -0.000856193 0.00410387
183 1 2.58333 3.79396 2.67163 0.00608797 0.00438308 -0.00330328
184 1 3.7863 5.06007 0.86993 0.00850265 -0.000136934 -0.00562073
185 1 2.52067 2.54648 0.0320407 0.00262914 0.00889638 -0.0038722
186 1 3.83417 3.76269 1.80578 -0.00198537 0.000699834 0.000658116
187 1 3.76699 1.24005 1.76294 -0.00436852 -0.00578506 0.0023379
188 1 5.01328 2.45876 -0.0104774 -0.000149878 0.00405659 -0.000313496
189 1 3.79621 2.48665 0.852237 -0.00149654 -0.000390948 -0.00214173
190 1 5.09782 3.77888 2.63228 0.00156625 0.00362729 -0.00258068
191 1 5.06776 1.24399 2.63896 -0.00868443 0.00106952 -0.00224552
192 1 6.33847 2.53414 0.908064 0.00182257 -0.00203919 -0.00380341
193 1 5.03363 22.6571 -0.058047 0.00659867 -0.00369176 -0.00436429
194 1 6.32275 1.22241 1.75939 -0.00650668 0.00339507 0.00252306
195 1 7.57158 22.6662 -0.0242721 0.00416119 -0.00546216 0.000873489
196 1 6.29445 22.6726 0.825578 0.00098802 -0.00647718 -0.00162525
197 1 7.59931 1.1905 2.67806 0.000781487 -0.00325208 0.00688106
198 1 8.85573 22.6777 0.874862 -0.00257333 0.00524589 0.00445927
199 1 0.0145989 12.6386 0.0258762 0.0020683 -0.000601848 0.00295517
200 1 0.0440518 13.9326 2.66831 0.00655942 -0.00199474 0.00187625
201 1 0.0808424 11.3963 2.67111 -0.00310215 0.00560819 0.00192377
202 1 1.26303 12.667 0.862219 -0.00449925 0.00185372 -0.00387431
203 1 22.6494 10.108 -0.0158587 -0.00577673 -0.00146309 -0.00600875
204 1 1.2432 11.3603 1.79244 0.00747919 0.00234606 -0.00232914
205 1 1.24365 8.86556 1.79726 0.00216656 0.00248603 0.00550496
206 1 2.5189 10.0615 0.0305247 -0.0057273 -0.00277771 -0.00360466
207 1 1.20393 10.0976 0.851225 0.00112885 -0.00148093 0.000513344
208 1 2.5296 11.3729 2.66301 -0.000605229 0.0111587 -0.0056701
209 1 2.54111 8.82042 2.65867 -0.000185543 -0.00422147 -0.00292995
210 1 3.78085 10.0085 0.921819 -0.000178764 -0.00105086 0.00582227
211 1 2.47744 7.60435 -0.00710888 -0.00423574 -0.00364923 0.00567369
212 1 3.79065 8.81452 1.80115 0.00257497 -0.00755899 -0.0019937
213 1 3.79283 6.3082 1.77829 -0.000421966 -0.00500289 -0.00245899
214 1 5.04174 7.57793 0.000594854 -0.0034896 0.00124025 0.0029745
215 1 3.73089 7.54859 0.853256 0.00296281 -0.00197628 0.00358349
216 1 4.99701 8.85028 2.70638 -0.000850292 -0.00332396 -0.00318
217 1 5.0337 6.33047 2.69631 0.0112925 -0.00836135 0.000706242
218 1 6.24633 7.55343 0.891604 0.00343381 -0.00382373 -0.00878512
219 1 5.05954 5.02575 0.0366185 -0.00338813 -0.0021467 0.000490274
220 1 6.28501 6.33082 1.77698 -0.00117382 0.00864086 8.98856e-05
221 1 6.33271 3.76377 1.80038 0.00974211 -0.000209249 -0.0040091
222 1 7.59868 5.0355 0.0210634 -0.00478075 -0.00215937 0.00291623
223 1 6.359 5.08352 0.94915 -0.000785745 -0.0120589 0.00418418
224 1 7.55031 6.35174 2.6549 0.00863079 -0.00634308 -0.00104008
225 1 7.59442 3.73659 2.76655 -0.000377054 0.00314084 -0.00167208
226 1 8.81653 5.03016 0.859046 0.00289629 0.00011466 0.00186152
227 1 7.58683 2.55316 0.0611618 -0.00302225 -0.00584788 0.00228516
228 1 8.82979 3.79507 1.8169 -0.0023566 0.00585304 -0.00619094
229 1 8.83956 1.25653 1.78587 0.00171455 0.00377754 0.00259548
230 1 10.017 2.49398 -0.0114693 0.00151197 0.00332988 0.00406446
231 1 8.82811 2.51198 0.866756 0.000469118 -0.00395252 -0.00416336
232 1 10.1092 3.77366 2.65688 -0.00417708 0.00319981 -0.00896789
233 1 10.1476 1.29274 2.64772 -0.00200503 0.00525103 0.00922626
234 1 11.3451 2.51611 0.849054 0.00390028 0.00327926 -0.0043532
235 1 10.1259 0.0185994 0.0109307 0.0154258 0.00976191 0.00490242
236 1 11.3759 1.25817 1.79086 0.00639287 0.00576695 -0.000502043
237 1 12.626 0.0200547 -0.0247401 0.00843696 0.000916936 0.00524447
238 1 11.3915 0.0377356 0.845087 -0.00641194 -0.0101144 0.000848853
239 1 12.6744 1.25519 2.69265 5.75581e-05 -0.000910377 -0.00368109
240 1 13.9135 0.0123036 0.826598 0.00287992 0.00763713 0.00778964
241 1 22.6725 17.6592 -0.0388021 -0.00185595 -0.000265755 0.00859236
242 1 0.0154347 18.9336 2.72069 -0.00160149 -0.00317678 -2.21692e-05
243 1 22.6829 16.448 2.72446 -0.00182641 0.00535367 -0.00637367
244 1 1.21956 17.6266 0.858011 0.00306938 -0.00745324 0.000600446
245 1 22.6705 15.1269 -0.0484012 0.00153892 -0.00210021 -0.00796505
246 1 1.25758 16.4062 1.75604 0.00249275 0.00323913 0.00475886
247 1 1.26381 13.8979 1.70851 0.00469361 -0.000305187 -0.00290039
248 1 2.52807 15.1458 -0.0118617 -0.00447732 0.00451878 -0.00572457
249 1 1.29096 15.1151 0.848727 -0.0128006 -0.00979659 0.00821856
250 1 2.4466 16.4 2.66312 0.00842159 0.0055726 -0.00233892
251 1 2.52945 13.9081 2.68224 -0.00369875 5.34334e-05 0.00187081
252 1 3.75387 15.1483 0.836219 -0.00484614 -0.00725433 -0.000644906
253 1 2.55787 12.6439 -0.00316905 -0.00689059 -6.87913e-05 -0.00303136
254 1 3.72847 13.8823 1.80014 -0.00934231 -0.00299484 0.0050353
255 1 3.73818 11.3408 1.76113 -0.000323171 0.000110148 -0.00636161
256 1 5.04544 12.5727 -0.00147229 -0.00361706 -0.00216188 0.00453697
257 1 3.79393 12.6593 0.850454 -0.00513409 -0.00191113 -0.00455932
258 1 5.02436 13.8521 2.66673 -0.00034812 0.000256014 -0.000818514
259 1 5.00589 11.3715 2.62523 0.00143034 -0.00157549 0.00790718
260 1 6.32798 12.5617 0.872589 -0.00726233 0.000196153 0.00322206
261 1 5.001 10.0498 0.00317306 0.00758604 -0.00535269 -0.00304234
262 1 6.28144 11.3149 1.77756 -0.000142227 -0.00132494 0.000470904
263 1 6.26636 8.83725 1.78021 -0.00157452 -0.00241725 -0.00309791
264 1 7.54535 10.1057 -0.00643684 -0.00869614 0.00304133 0.000785491
265 1 6.2969 10.0809 0.869178 0.00606965 -0.000432729 0.00933104
266 1 7.50802 11.3398 2.65241 0.000264478 -0.00163699 0.000424595
267 1 7.52237 8.79899 2.66065 0.00827764 0.00133553 0.00494285
268 1 8.83081 10.0556 0.826637 0.00713322 -0.00233152 0.00756295
269 1 7.53745 7.54507 -0.00321118 -0.000486404 -0.0020122 -0.00309847
270 1 8.73656 8.80715 1.75804 0.00222753 -0.000575933 0.0156168
271 1 8.80001 6.29676 1.71824 0.00294225 0.0018287 0.0043818
272 1 10.0785 7.56998 0.0167789 0.00618867 0.00727631 -0.00288961
273 1 8.74802 7.57503 0.870149 -0.00371066 -0.0011286 -0.00279354
274 1 10.0251 8.75821 2.64391 -0.00409796 0.00664943 0.00456839
275 1 10.1042 6.2801 2.59387 -0.000567879 0.00230858 -0.00144507
276 1 11.3223 7.56028 0.834499 -0.0011859 0.00213297 -0.0089831
277 1 10.0984 5.04899 0.0241744 0.000614785 -0.00149472 -0.00608468
278 1 11.3524 6.33432 1.77149 0.00664403 -0.00587745 0.00820258
279 1 11.3829 3.71906 1.80449 -0.00407084 -0.000994955 0.00350809
280 1 12.6328 5.04796 -0.0187369 -0.00466698 0.00715419 0.00464452
281 1 11.4137 5.03407 0.866383 -8.31371e-05 0.00503665 -0.00725853
282 1 12.542 6.31156 2.69724 0.00355207 0.00213149 0.00184264
283 1 12.6559 3.78522 2.66579 -0.00045006 -0.00050604 -5.80381e-05
284 1 13.9023 5.06799 0.845104 -0.00647717 0.00211403 -0.000622844
285 1 12.5976 2.51035 0.00787699 -0.00196552 0.00683836 0.00397668
286 1 13.878 3.7619 1.74545 0.00231442 0.00739041 -0.00224052
287 1 13.8812 1.25073 1.76297 -0.00185419 0.00408295 0.00440953
288 1 15.1233 2.49994 -0.020001 -0.00486764 0.00193096 0.00384932
289 1 13.8758 2.5176 0.858301 -0.00905886 0.00914268 0.0163252
290 1 15.1718 3.85219 2.68275 -0.00404024 -0.000858698 0.00297605
291 1 15.1757 1.246 2.62585 -0.0099012 -0.00608275 0.00539273
292 1 16.3456 2.50907 0.878968 0.010439 0.00270457 0.00230211
293 1 15.1928 22.6819 -0.0317953 -0.0086749 0.00201377 0.000887937
294 1 16.4197 1.29741 1.79464 -0.00224439 0.00151014 0.00586486
295 1 17.6761 22.6618 0.0372726 0.00238833 -0.0080013 0.00255537
296 1 16.3709 22.6867 0.857248 0.00410342 -0.00202638 0.00155431
297 1 17.6725 1.241 2.69106 -0.00888163 -0.00882767 -0.00434777
298 1 18.8931 22.6755 0.883457 0.00642385 0.00205818 -0.0100371
299 1 0.00273396 21.4823 2.66061 -0.00605746 -0.00457642 -0.000580542
300 1 0.0413522 20.1109 -0.0404513 -0.000691349 -0.00489939 0.00440313
301 1 1.24423 21.4315 1.78381 -0.00260146 -0.00189915 -0.00108019
302 1 1.25124 18.8624 1.77522 -0.00111119 0.00997803 -0.00570001
303 1 2.50455 20.165 -2.30461e-05 0.00624566 0.0154356 -0.00298356
304 1 1.25707 20.1307 0.919598 -0.0115516 0.00537302 -0.000579283
305 1 2.47273 21.4389 2.65878 9.0617e-05 0.00190472 0.0107886
306 1 2.51209 18.9 2.76351 0.00177784 0.00545681 -0.00568537
307 1 3.73531 20.1577 0.901117 0.00338898 -0.000674167 -6.65918e-05
308 1 2.47523 17.629 -0.0115601 -0.00154698 0.00263138 0.0052506
309 1 3.7261 18.9238 1.83231 -0.0043412 -0.00780818 0.00371977
310 1 3.74094 16.4002 1.78409 -0.00489146 0.00762235 0.000185524
311 1 4.98039 17.6079 -0.0193594 -0.00680115 0.00116417 -0.00836752
312 1 3.71425 17.6115 0.91883 0.00513934 0.000877125 0.00890647
313 1 4.99596 18.8839 2.71955 -0.00887744 0.00108231 0.00274888
314 1 5.06103 16.3602 2.69169 -0.00748744 0.00191431 0.00440476
315 1 6.24762 17.564 0.842869 0.00430207 -0.00272253 0.00964934
316 1 5.04894 15.1057 0.0145405 -0.00437143 0.00468456 0.00684519
317 1 6.28499 16.3645 1.79396 0.00664525 0.00857213 0.00056355
318 1 6.33455 13.7878 1.76115 2.73182e-05 -0.00225552 0.00509055
319 1 7.52084 15.1026 0.00127861 0.00284269 -0.00926715 0.00339748
320 1 6.29671 15.1239 0.925875 0.00392399 -0.000758378 0.00176608
321 1 7.56314 16.423 2.70445 -0.00437867 -0.00814956 -0.00211097
322 1 7.53455 13.9136 2.68657 0.00896659 0.00345792 -0.0022783
323 1 8.77952 15.1615 0.912403 0.00291866 0.00426871 -0.011532
324 1 7.59221 12.5388 0.0065318 0.0013468 0.00232484 -0.00516096
325 1 8.84304 13.8935 1.76371 0.00480338 -0.00450836 0.00409837
326 1 8.78279 11.3434 1.73362 0.000688674 0.00565389 0.0030523
327 1 10.0927 12.6204 0.0106034 0.00410816 -0.00463385 0.00151003
328 1 8.80311 12.6093 0.850677 -0.00299543 -0.000861556 0.00212631
329 1 10.0984 13.8947 2.68303 0.00539126 -0.00591785 -0.00820519
330 1 10.0301 11.402 2.61911 0.00159257 -0.00365541 -0.000623475
331 1 11.2948 12.6214 0.940174 0.0101763 0.00428543 0.00613648
332 1 10.0674 10.1387 -0.0150265 0.00306988 0.0011712 0.00365643
333 1 11.3087 11.3737 1.78078 -0.00830943 0.0131555 -0.00273615
334 1 11.2659 8.87443 1.77683 -0.00451477 0.00784168 -0.00200936
335 1 12.577 10.149 -0.0239688 -0.00468539 -0.00183845 -0.00677048
336 1 11.2685 10.1391 0.889738 0.00810955 0.000883538 -0.00491769
337 1 12.5761 11.3697 2.70607 -0.00285277 0.00219778 -0.00103414
338 1 12.5099 8.84247 2.65043 0.000512545 5.68127e-05 -0.00489206
339 1 13.8557 10.0796 0.868379 0.00196596 0.000748331 -0.00462807
340 1 12.5637 7.53794 0.0239538 -0.0030178 0.00525069 -0.000481871
341 1 13.7634 8.8173 1.75294 -0.0012353 0.00494354 -0.00428922
342 1 13.8311 6.28224 1.80311 0.00904107 0.00209821 0.00399255
343 1 15.1577 7.54564 0.0103415 0.00762289 -0.000915407 -0.00327079
344 1 13.7904 7.54123 0.910016 -0.000504877 0.00287824 -0.00205076
345 1 15.0685 8.82963 2.62953 -0.00626524 -0.000231889 -0.00260171
346 1 15.0714 6.31475 2.66113 0.00338176 -0.00427798 0.00439323
347 1 16.363 7.54877 0.880496 0.0059665 0.00197748 -0.000466474
348 1 15.1558 5.02918 0.0168149 0.00238926 -0.00154511 -0.00847868
349 1 16.3928 6.31158 1.76526 -0.00269904 0.00741275 -0.00039433
350 1 16.3904 3.76295 1.77402 -0.00886891 0.010041 -0.00365346
351 1 17.6579 5.03282 0.0168885 -0.00187036 0.0047717 0.00118118
352 1 16.3758 5.09004 0.833498 0.00475881 -0.00185759 -0.00124163
353 1 17.6654 6.30093 2.6694 0.00414316 0.00131599 0.00240855
354 1 17.6583 3.78756 2.64196 -0.00107293 -0.0123576 0.000939769
355 1 18.8531 5.0509 0.821125 -1.75855e-05 0.00943884 -0.00452843
356 1 17.648 2.52463 0.0164813 0.00312227 0.00305617 -0.00289555
357 1 18.8739 3.73951 1.76766 -0.00105882 0.00495036 0.00720411
358 1 18.9408 1.30051 1.77109 -0.00179843 0.00401901 -0.00254928
359 1 20.1803 2.47887 0.0152559 -0.000133134 0.00394451 0.00685163
360 1 18.8836 2.5247 0.846671 0.00478485 -0.00522951 0.00914391
361 1 20.1715 3.81971 2.66238 -4.69326e-05 -0.00661372 0.000850874
362 1 20.1514 1.35496 2.68947 0.000504355 -0.0115792 0.00757607
363 1 21.4603 2.55308 0.907548 0.00309437 -0.00585092 -0.000184442
364 1 20.1786 0.00646269 -0.0106799 0.00242726 0.00150948 -0.00109041
365 1 21.39 1.31734 1.74995 -0.00267808 0.00475661 0.000395592
366 1 21.4122 0.0604869 0.825513 -0.0056188 0.00494797 -0.000499387
367 1 3.71132 21.3884 1.78175 0.000128414 -0.00820752 0.00742839
368 1 5.01018 21.3833 2.62579 -0.00197689 -0.00383806 -0.000811202
369 1 5.03028 20.1161 -0.0116421 0.00161054 -0.00215229 -0.00572232
370 1 6.27885 21.3859 1.7523 -0.00383092 0.00385897 -0.0039713
371 1 6.27656 18.8449 1.72285 0.0031547 -0.00705009 -0.00809397
372 1 7.54276 20.1527 0.00849497 0.000347663 0.0102992 0.00433096
373 1 6.27384 20.1306 0.829278 0.00732099 0.00945015 0.00361414
374 1 7.57411 21.3802 2.61316 -0.006764 0.00293154 -0.00608311
375 1 7.5266 18.8641 2.65651 -0.00138979 0.00201177 -0.00126475
376 1 8.80965 20.1315 0.845764 -0.00217018 -0.0111849 -0.00372534
377 1 7.63166 17.6594 -0.00483119 0.00419931 -0.00580842 4.54779e-05
378 1 8.77376 18.9438 1.76889 -0.0049413 -0.00343789 -0.00354115
379 1 8.82806 16.4388 1.82172 -0.0091844 -0.000151501 -0.00273624
380 1 10.1085 17.6556 0.0105116 0.00236895 0.00718946 -0.00382485
381 1 8.88367 17.6923 0.893111 -0.00536922 0.00277876 0.00283734
382 1 10.057 18.9539 2.68899 -0.002471 -0.00408611 -0.00651929
383 1 10.0792 16.4015 2.68606 -0.00194517 0.00632267 -0.00740575
384 1 11.3197 17.6217 0.864015 0.00600742 -0.010945 0.00379363
385 1 10.0772 15.1342 0.0352812 0.00288612 -0.00193029 -0.00323359
386 1 11.3212 16.3966 1.8124 -0.00728673 0.00173602 -0.00108145
387 1 11.3219 13.9057 1.79364 0.0042559 0.00216881 -0.0028781
388 1 12.5889 15.1293 -0.0374403 0.00355321 -0.000885245 -0.00289353
389 1 11.3091 15.1586 0.855805 -0.00475236 2.55812e-05 0.0012434
390 1 12.5782 16.432 2.67419 0.00193552 -0.00452222 -0.000257313
391 1 12.5915 13.9138 2.65862 0.00537092 0.00694521 0.0033244
392 1 13.8427 15.1298 0.828046 0.0146757 -0.000172661 0.00663722
393 1 12.5984 12.5929 0.00517055 -0.000651571 0.00804958 -0.00364859
394 1 13.8882 13.8833 1.77689 -0.00170668 0.0118323 0.0040425
395 1 13.8193 11.308 1.7384 -0.00367385 -0.00203101 -0.00503654
396 1 15.1361 12.6538 0.00329066 -0.000773046 -0.00474469 -0.00288496
397 1 13.8201 12.6023 0.864999 0.00507093 0.00548787 0.0041483
398 1 15.0904 13.8246 2.63169 -0.00242229 -0.00363817 0.00479617
399 1 15.0872 11.3537 2.64927 0.00418275 -0.00325797 0.00550941
400 1 16.4046 12.6082 0.829125 0.00483798 0.0017253 -0.000538103
401 1 15.0937 10.07 0.0458806 -0.00488949 -0.000688253 -0.000160779
402 1 16.3583 11.3504 1.76401 -0.00666035 0.00557052 0.00857839
403 1 16.315 8.86809 1.72478 0.000910601 -0.00408064 -0.00202818
404 1 17.6518 10.0665 -0.017954 -0.00499984 -0.00389498 -0.00436999
405 1 16.3387 10.0924 0.85291 -0.00738124 -0.00251324 -0.00192966
406 1 17.6104 11.3453 2.65792 -0.0013363 0.0106907 0.000356242
407 1 17.6407 8.84123 2.6663 0.00520892 0.00970896 -0.00708681
408 1 18.8986 10.0994 0.86736 0.00319681 -0.00122763 0.00395876
409 1 17.6463 7.59384 -0.0219027 0.00931205 -0.00261402 0.0031746
410 1 18.9274 8.84364 1.80512 0.0062283 0.00189794 -0.00391082
411 1 18.9705 6.29512 1.81646 0.000565068 7.8774e-05 -0.00402632
412 1 20.1532 7.56205 0.0297344 -0.00086754 0.00502793 -0.000530219
413 1 18.8686 7.59409 0.901165 -0.000743054 -0.00596521 0.0021521
414 1 20.1774 8.84612 2.70779 -0.00476999 0.0029023 0.00218566
415 1 20.1522 6.30268 2.73371 0.00446544 0.00549702 0.000260107
416 1 21.437 7.59811 0.920469 -0.00608921 0.00426297 0.00149225
417 1 20.1659 4.99759 -0.0814474 0.00400271 0.00615194 0.0115522
418 1 21.3991 6.31629 1.80251 -0.00165337 -0.00329336 -0.00376012
419 1 21.4841 3.89488 1.73861 -0.00651118 -0.00472359 -0.00537368
420 1 21.4249 5.1242 0.853008 0.00267493 0.0063862 0.00501018
421 1 8.81485 21.4092 1.78381 -0.00257694 0.00518233 0.002722
422 1 10.0654 21.4691 2.66491 0.00416234 0.0117743 0.00131126
423 1 10.1036 20.1208 -0.0283392 -0.00660895 -0.00128337 0.00424389
424 1 11.3147 21.4321 1.77939 -0.00363699 -0.00162561 -0.000877278
425 1 11.2792 18.9152 1.77647 -0.00271187 -0.00603755 0.00307052
426 1 12.5607 20.1325 0.0225477 -0.00184961 -0.00287265 0.00546852
427 1 11.355 20.208 0.859056 -0.0014611 -0.00074723 -0.0043699
428 1 12.6234 21.4324 2.61337 0.00391788 -0.00122605 0.00130167
429 1 12.5664 18.9157 2.68344 -0.00216722 0.0018895 -0.00390348
430 1 13.8844 20.181 0.87044 0.000975648 0.00286364 -0.00411522
431 1 12.5989 17.6841 -0.0506269 -0.000795413 -0.00504088 0.00284247
432 1 13.8581 18.9678 1.74634 0.000998985 -0.00645729 -0.00058897
433 1 13.8407 16.43 1.77357 -0.00419311 -0.00368862 0.00241421
434 1 15.1109 17.6403 0.0196328 0.00108724 0.00466409 -0.00383794
435 1 13.8583 17.6989 0.861753 0.00717295 0.00448107 0.00891749
436 1 15.1782 18.9061 2.59852 -0.00682543 -0.00149068 -0.00845952
437 1 15.1122 16.3964 2.61817 -0.00881982 0.00747995 -0.000780026
438 1 16.3876 17.6318 0.818383 -0.00424366 -0.00231129 0.00234854
439 1 15.099 15.0926 -0.00368587 -0.000768545 -0.00201854 0.00665994
440 1 16.3417 16.3869 1.75136 -0.00189069 0.00224863 0.0131803
441 1 16.3052 13.8244 1.75615 0.00297437 -0.0078546 -0.00463303
442 1 17.6324 15.1275 -0.00653625 0.00430226 0.0084044 0.00851461
443 1 16.3518 15.1012 0.860895 0.0038557 -0.00371496 -0.00927531
444 1 17.6561 16.3661 2.62572 -0.00758735 -0.00375774 -0.00124862
445 1 17.611 13.8836 2.63303 -0.00282649 -0.00351632 -0.000580273
446 1 18.965 15.0823 0.853745 0.00197476 9.57103e-05 0.00428957
447 1 17.714 12.5615 -0.0324184 -0.000750468 0.000216024 -0.00604185
448 1 18.9239 13.8628 1.7386 0.0107767 -0.000649682 0.00150173
449 1 18.9071 11.3337 1.76923 0.00642031 -0.000290336 0.00109973
450 1 20.1874 12.6002 -0.0177166 -0.0137936 0.000142113 0.00142151
451 1 18.9307 12.6026 0.905002 0.00020007 0.00540109 -0.00175959
452 1 20.1612 13.8635 2.70308 0.00364384 0.00538782 -0.00126574
453 1 20.1832 11.378 2.6594 -0.00451098 -0.00616081 -0.000850527
454 1 21.4736 12.6636 0.885625 -0.000665322 0.00313709 -0.002698
455 1 20.1494 10.0994 -0.00524269 -0.000357433 0.00113766 -0.00134076
456 1 21.4921 11.3702 1.74178 -0.00695515 -0.00347936 0.00373513
457 1 21.4352 8.84864 1.78529 -0.00301506 -0.003009 0.000312941
458 1 21.4 10.0772 0.814313 0.00253345 0.0038882 -0.0036605
459 1 13.9017 21.4148 1.70817 -0.00855274 -0.000501495 -0.000705587
460 1 15.1704 21.4149 2.61268 -0.00398 0.00129993 -0.00191309
461 1 15.1054 20.158 -0.00237004 -0.00150895 0.00296464 -0.00884119
462 1 16.4072 21.419 1.68285 -0.00521749 0.00251963 0.00456273
463 1 16.3826 18.8564 1.74708 -0.00229856 0.00860622 0.00942582
464 1 17.6236 20.1453 0.00873537 0.0027533 -0.00543133 -0.000782502
465 1 16.3838 20.1701 0.833237 -0.00168955 -0.00581456 0.00412768
466 1 17.6774 21.3349 2.60017 -0.0101017 -0.00354928 -0.00615082
467 1 17.6352 18.8578 2.70483 0.00404652 -0.000440402 0.00669728
468 1 18.9233 20.166 0.834439 0.000729303 -0.00239438 0.00137207
469 1 17.6707 17.6235 -0.0174056 0.00598907 -0.00725961 0.00219511
470 1 18.8816 18.8284 1.78547 -0.00678123 0.00344926 -0.00109054
471 1 18.9055 16.3624 1.74815 -0.013991 0.010475 0.00409485
472 1 20.1782 17.6002 -0.0578373 -0.0100722 0.00384094 -0.00418274
473 1 18.8913 17.6399 0.887662 -0.00479558 -0.00514147 -0.0055378
474 1 20.1493 18.8652 2.68272 0.00296807 0.00706336 -0.00483355
475 1 20.1512 16.3874 2.72234 0.0070607 0.00195217 0.000438945
476 1 21.3506 17.6314 0.887375 -0.000781646 0.00168003 0.00773154
477 1 20.2194 15.1135 0.0161728 0.00349848 -0.000856093 -0.00213614
478 1 21.3795 16.4179 1.85243 0.000113654 0.00200185 0.00365299
479 1 21.4659 13.9065 1.8274 0.00428913 -0.00159467 0.0059616
480 1 21.4055 15.1697 0.94303 0.00029906 -0.00199072 -0.00652896
481 1 18.9623 21.4012 1.77278 -0.0016735 0.00247579 0.00404387
482 1 20.1922 21.4561 2.6924 -0.00230153 0.00188497 0.00542031
483 1 20.172 20.1795 0.0151486 0.00313662 -0.001654 -0.00609408
484 1 21.459 21.4191 1.80321 0.00712154 -0.00368273 -0.000793846
485 1 21.4029 18.9008 1.77822 0.00236101 -0.00363862 0.00432153
486 1 21.4137 20.2062 0.882194 -0.00054562 0.0076945 -0.00968164
487 1 0.0156457 2.56629 3.47113 -0.00399551 0.00237027 0.00514371
488 1 0.0258883 3.81721 6.27205 0.00258393 0.010347 0.00329734
489 1 22.6613 1.26373 6.25638 -0.00696512 0.0023083 -0.00840808
490 1 1.25582 2.57928 4.43634 0.000696407 0.00509286 0.00236133
491 1 22.6586 0.022277 3.50877 0.0014242 -0.0070403 0.00114206
492 1 1.25879 1.33071 5.37293 -0.00519205 -0.00168679 0.00889537
493 1 2.52391 0.018766 3.56076 -0.00373875 0.000653412 -0.00634216
494 1 1.25923 0.00769936 4.46283 -0.00604957 0.00351664 0.00794923
495 1 2.48647 1.3083 6.28653 -0.00398811 0.00276795 0.000801729
496 1 3.75347 22.6502 4.45372 -0.00476386 0.00327405 0.00197956
497 1 0.00342732 7.52935 3.58566 -0.00635953 0.00294646 -0.00262934
498 1 0.0133304 8.8648 6.24101 -0.00139388 0.00109877 -0.006247
499 1 0.000232742 6.34133 6.22613 0.00302173 0.00531803 -0.00295056
500 1 1.25819 7.56124 4.45618 0.00031812 -0.0168843 -0.00540922
501 1 0.00627681 5.05015 3.56033 -0.00172516 0.00419893 -0.00118521
502 1 1.28409 6.31786 5.32337 0.00245077 0.00860854 0.00320022
503 1 1.26071 3.76695 5.33418 -0.00249817 0.00226953 -0.0062954
504 1 2.53382 5.04049 3.53259 0.00197695 0.00186102 -0.00176061
505 1 1.23139 5.03052 4.39329 0.00275861 0.000166692 -0.00975433
506 1 2.45385 6.29001 6.20476 -0.00250869 0.0012351 -0.00437374
507 1 2.5014 3.76275 6.22747 0.00536186 0.00384123 0.00592186
508 1 3.78234 5.03069 4.48331 0.000118208 0.0059817 0.00230147
509 1 2.55191 2.49813 3.59897 -0.00426031 -0.010244 -0.00391438
510 1 3.78625 3.78553 5.37941 0.00623331 0.00717163 0.00180541
511 1 3.75758 1.26199 5.32432 0.00406445 0.000970293 0.00363148
512 1 5.03545 2.48687 3.49846 0.00429111 0.00491388 -0.00403363
513 1 3.7802 2.47957 4.45241 -2.99912e-05 0.00042661 -0.00466131
514 1 5.00795 3.73947 6.27924 0.000267801 0.000917076 -0.00276538
515 1 5.04989 1.21528 6.23612 0.000326042 0.00351438 -0.0039121
516 1 6.3243 2.45407 4.47103 -0.00444432 0.00414226 -0.00317069
517 1 5.03848 22.6477 3.54656 -0.00211908 0.00540078 0.00381679
518 1 6.26432 1.20368 5.37817 -0.00296855 -0.00662973 -0.000200286
519 1 7.56397 22.6424 3.53831 -0.000955281 -0.002689 -0.00924718
520 1 6.28367 22.6886 4.40368 -0.00290949 -0.00174977 -0.00381818
521 1 7.59186 1.20357 6.22384 0.00549799 0.00105717 -0.00107711
522 1 8.83275 22.6669 4.47956 0.0128354 0.004415 0.00112844
523 1 0.0329583 12.6387 3.57165 -0.00464402 -0.000964983 0.0101494
524 1 22.6404 13.9441 6.25164 0.000877436 0.00165609 0.00332673
525 1 22.6781 11.3782 6.29394 -0.00220989 0.00397785 -0.00350019
526 1 1.28524 12.6097 4.53265 0.00482793 0.0054761 -0.00120176
527 1 0.070587 10.1019 3.53739 -0.000437362 0.00150779 0.00265496
528 1 1.24726 11.2998 5.40872 0.00137441 0.000501088 0.00397256
529 1 1.31395 8.81685 5.36508 0.00610195 0.00166746 0.0105411
530 1 2.54953 10.106 3.5999 0.00390147 0.00220198 0.00206064
531 1 1.30138 10.0822 4.53074 0.00563362 -0.0018576 0.00441916
532 1 2.51468 11.3655 6.25026 -0.00395292 -0.00106342 0.00209933
533 1 2.52173 8.82915 6.30472 -0.00753257 -0.00310975 -0.00142549
534 1 3.78576 10.0607 4.49519 0.00339326 0.00303735 -0.0131893
535 1 2.53813 7.58597 3.59206 -0.00796991 -0.00558048 -0.00105589
536 1 3.782 8.76389 5.4255 -0.0100182 0.000347833 -0.00206473
537 1 3.75128 6.30499 5.34093 -0.00259619 0.00691555 -0.00301708
538 1 5.03133 7.61171 3.59931 -0.00198427 -0.000630202 -0.00694925
539 1 3.78547 7.53528 4.42068 -0.000763053 -0.00632758 6.6893e-05
540 1 5.04448 8.79401 6.29347 0.00534925 0.00484464 -0.00111493
541 1 4.97701 6.2871 6.28712 0.00593808 0.00491552 -0.000751017
542 1 6.33772 7.57479 4.44919 -0.00688352 -0.00203015 0.00136011
543 1 5.10505 5.03857 3.58759 -0.00253251 -0.00402387 0.000760386
544 1 6.31109 6.32067 5.35267 0.00126505 -0.00748737 0.000381288
545 1 6.29759 3.74793 5.33981 0.00411509 -0.00315709 0.00120366
546 1 7.57287 5.08792 3.58661 0.00280106 0.00539636 -0.0067481
547 1 6.30474 5.05312 4.51602 0.00260413 0.00895042 0.00294948
548 1 7.57063 6.27467 6.27228 0.00451736 0.00462125 0.00521819
549 1 7.56542 3.78922 6.20916 -0.00397473 -0.0019694 -0.00619545
550 1 8.8811 5.04306 4.45012 -0.00257294 0.0073871 -0.00289737
551 1 7.58959 2.49946 3.64053 -0.00755638 -0.00966254 0.00165728
552 1 8.84241 3.83082 5.3109 0.00156889 0.000280963 0.00433834
553 1 8.87809 1.18649 5.36524 0.000612052 -0.00182994 -0.00805745
554 1 10.1307 2.49928 3.57683 0.00835286 0.0042771 0.00543894
555 1 8.83796 2.53 4.48534 -0.00470205 0.00325642 -0.00160026
556 1 10.0624 3.72715 6.25328 -0.0114141 0.00317794 -0.00512263
557 1 10.117 1.24902 6.29978 0.00193019 0.00483332 -0.00660095
558 1 11.3683 2.51878 4.50878 -0.000626646 -0.00422229 0.000907779
559 1 10.1154 22.64 3.56135 -0.00327378 0.00186457 -0.000416641
560 1 11.3271 1.28204 5.39812 0.00079269 -0.00272305 0.000907894
561 1 12.6347 22.6771 3.58606 0.0025701 -0.000934324 -0.00644486
562 1 11.3755 0.00541301 4.46329 0.000876991 -0.00458523 0.00448403
563 1 12.6136 1.30273 6.29794 -0.00382167 0.00397227 0.00582111
564 1 13.9064 22.6201 4.47222 0.00401127 0.00273704 0.00379088
565 1 22.676 17.6835 3.57505 0.00162232 -0.00436149 0.000304772
566 1 0.0414791 18.9109 6.27649 0.00727316 -0.00191617 -0.00140158
567 1 22.689 16.4496 6.2989 -0.00568322 -0.00582189 0.00215244
568 1 1.27738 17.6786 4.50339 0.00508479 -0.00431003 0.00663271
569 1 22.6707 15.2044 3.5984 0.00382029 -0.00672548 0.00221629
570 1 1.33906 16.4051 5.40435 0.00101563 -0.00169759 -0.00254988
571 1 1.30231 13.8628 5.43051 0.00347993 0.000792709 0.00660995
572 1 2.51109 15.1204 3.53715 0.00165132 0.00203824 -0.00731773
573 1 1.26375 15.1219 4.51477 -0.00506033 0.000279875 -0.00411159
574 1 2.54044 16.4038 6.23793 -0.00233851 0.00425589 -0.000884387
575 1 2.58483 13.898 6.31221 0.00382106 0.00495005 0.00405212
576 1 3.74418 15.108 4.43925 -0.00194125 -0.00228408 -0.00582532
577 1 2.54317 12.5956 3.58087 0.00150678 0.00353413 -0.00571693
578 1 3.77934 13.8735 5.37282 0.00681543 -0.00061156 -0.00631314
579 1 3.74446 11.3482 5.37244 0.00581419 -0.000511793 -0.000380453
580 1 5.02825 12.6226 3.5522 0.00569815 -0.00408 -0.00026654
581 1 3.78255 12.6333 4.50289 -0.00197441 -0.0090484 -0.00142574
582 1 4.99681 13.8943 6.24144 -0.00222101 -0.00145763 -0.00645467
583 1 5.02724 11.3492 6.29135 -0.0106361 -0.00366928 -0.00430301
584 1 6.29242 12.6073 4.43609 0.00611557 0.00027288 0.000437459
585 1 4.98925 10.097 3.60856 -0.000882885 0.00321208 0.00140318
586 1 6.27475 11.4172 5.41427 0.00422377 0.00200871 0.00174348
587 1 6.29658 8.81123 5.42925 0.00879305 -0.00522505 0.00650111
588 1 7.50893 10.1095 3.5462 0.00698525 -8.39798e-05 0.00218216
589 1 6.26508 10.0879 4.47271 -0.00648988 0.0044879 -0.00269405
590 1 7.54315 11.328 6.32848 0.000978618 -0.00250835 0.0064421
591 1 7.53479 8.84266 6.32645 -0.002579 -4.64866e-06 -0.000404697
592 1 8.76785 10.1031 4.43715 -0.00167058 0.00273629 -0.000550062
593 1 7.56164 7.53358 3.61286 0.00188156 0.000925193 0.00670983
594 1 8.81154 8.80725 5.41028 0.00608301 0.00303169 0.00321649
595 1 8.84045 6.28945 5.37986 -0.00648234 0.00560332 0.00523258
596 1 10.0577 7.47832 3.56478 0.00175595 0.00300822 0.00367599
597 1 8.83256 7.59305 4.4531 0.000820787 -0.000365829 0.00183583
598 1 10.1079 8.81602 6.21644 -0.00128433 -0.00351604 -0.00608827
599 1 10.066 6.25638 6.22724 0.000106188 -0.00939667 0.00248035
600 1 11.3395 7.51754 4.46877 0.00349184 0.000265144 0.00254818
601 1 10.1194 5.05989 3.55205 0.000382416 -0.0017811 0.0103038
602 1 11.3461 6.26046 5.40512 -0.0101562 -0.00375304 0.00220629
603 1 11.3453 3.74188 5.35254 -0.0014755 -0.00351405 -0.00353518
604 1 12.6457 4.99537 3.61848 -5.15997e-05 0.00306711 0.00712918
605 1 11.3643 5.03502 4.4574 0.00122812 -0.0055423 0.00229098
606 1 12.5675 6.28345 6.21464 -0.00688342 0.000291282 0.000878518
607 1 12.5825 3.76745 6.30243 0.00160145 -0.00636687 -0.00543071
608 1 13.8684 5.03269 4.4993 -0.00291783 -0.00547333 0.00746833
609 1 12.6867 2.51396 3.60662 -0.000644863 -0.00248214 -0.00200783
610 1 13.8999 3.80449 5.38728 0.0065231 0.00551894 0.00306547
611 1 13.8956 1.27877 5.37934 0.00111852 0.000448291 -0.0100618
612 1 15.174 2.47439 3.58139 -0.000726197 0.00131098 -0.00329366
613 1 13.872 2.48567 4.49413 -0.00229911 0.00460386 -0.00496681
614 1 15.1551 3.80301 6.23909 0.0127676 0.0025858 0.00397167
615 1 15.1235 1.24009 6.28026 -0.00710541 0.000564484 0.000181516
616 1 16.3497 2.51262 4.45516 -0.00132647 -0.00741187 -0.00484886
617 1 15.1375 22.6608 3.5339 0.00655887 -0.00219639 -0.00571746
618 1 16.3551 1.26878 5.38049 -0.00533833 0.00561434 0.00182531
619 1 17.6584 22.655 3.56285 -0.00167229 -0.00266354 0.00731494
620 1 16.3586 22.6739 4.43001 -0.00566208 0.0055706 0.00705357
621 1 17.6251 1.29294 6.21771 -0.000512001 0.00503171 0.000766377
622 1 18.8848 0.0311036 4.46164 -0.00355363 -0.00805794 -0.00147801
623 1 22.6309 21.4493 6.22781 0.0126998 0.00208472 -0.00401959
624 1 22.6531 20.2006 3.56146 0.00563438 0.00827699 0.0083211
625 1 1.23958 21.4687 5.36382 0.00750581 -0.000160263 0.00426196
626 1 1.29806 18.9515 5.36156 -0.000941479 -0.00534169 0.00030369
627 1 2.53252 20.1616 3.59511 0.00386619 0.00619704 -0.00494342
628 1 1.27027 20.2107 4.47694 0.00261824 0.00166347 -0.00140772
629 1 2.47478 21.4239 6.31472 -0.00277319 0.00345485 0.00368653
630 1 2.5102 18.952 6.23133 0.0113744 -0.00216901 0.00079867
631 1 3.76265 20.2253 4.46249 4.95996e-05 -0.00917218 -0.00280579
632 1 2.56459 17.6374 3.5788 1.05243e-06 -0.0061733 0.00130639
633 1 3.75542 18.9826 5.35495 2.27844e-05 0.00677148 -0.0012742
634 1 3.82141 16.3681 5.26862 0.0022888 -0.00394606 -0.00110109
635 1 5.03847 17.6155 3.56035 -0.00890005 0.00672772 -0.0103882
636 1 3.78851 17.6148 4.48093 -0.00343781 0.00582363 0.0082426
637 1 4.98702 18.9292 6.2559 0.00150464 -0.00449754 -0.00654995
638 1 5.03577 16.3669 6.28744 -0.00490648 0.00564496 -0.0072355
639 1 6.30681 17.6176 4.522 0.00432685 -0.00233189 0.00434608
640 1 5.05705 15.131 3.54066 -0.000140022 0.00732105 0.00716841
641 1 6.30366 16.3916 5.41242 -0.00962383 0.00173056 0.00340538
642 1 6.32977 13.8588 5.39401 0.00040846 -0.00640305 -0.00118518
643 1 7.56111 15.1711 3.6043 0.00616501 0.00286575 0.00421258
644 1 6.26991 15.1336 4.46004 -0.00595809 0.00361897 -0.00185563
645 1 7.57027 16.3409 6.29114 -0.00826463 0.00774605 -0.00778924
646 1 7.55836 13.8187 6.24755 0.00126688 0.00137874 -0.00327691
647 1 8.80123 15.1444 4.52118 0.00136991 0.00133354 0.00246319
648 1 7.52061 12.5929 3.51586 0.00169451 -0.0104665 -0.00230573
649 1 8.82444 13.8408 5.40564 -0.0053625 0.00143693 -0.00383006
650 1 8.7777 11.313 5.31361 0.00343892 0.00105 -0.00717358
651 1 9.97308 12.6669 3.54819 0.00448667 -0.0167452 -0.00793651
652 1 8.81717 12.6116 4.51878 0.0077536 0.000492511 -0.00184865
653 1 10.0893 13.834 6.2757 0.00477378 0.00662484 0.00133489
654 1 10.0499 11.2803 6.28339 -0.00293521 4.3248e-05 0.0050577
655 1 11.2626 12.6299 4.45224 0.00186089 0.00498427 0.000595276
656 1 10.0317 10.0904 3.53899 0.000336578 0.00231651 0.00631679
657 1 11.3062 11.3257 5.37664 -0.00324654 0.000473583 3.53068e-05
658 1 11.3373 8.82643 5.34675 0.00677209 -0.00586255 0.00112851
659 1 12.5701 10.1013 3.52873 -0.000305771 0.00624841 -0.00457881
660 1 11.2962 10.1089 4.446 -0.00393325 -0.00101497 0.000376214
661 1 12.5775 11.3609 6.26005 -0.00656069 -0.000918023 0.000879977
662 1 12.5711 8.86162 6.31961 -0.0045761 0.00229053 -0.0112156
663 1 13.8502 10.0468 4.43426 0.00382266 -0.00104634 -0.000639807
664 1 12.5631 7.56745 3.53582 -0.00544591 -0.00614857 0.00597356
665 1 13.8425 8.84582 5.29743 -0.0055863 -0.00616979 -0.00564557
666 1 13.8476 6.3199 5.32902 -0.00607562 0.000175651 -0.00154198
667 1 15.1145 7.56921 3.56741 -0.00605767 0.000501257 0.00127879
668 1 13.8783 7.56608 4.40166 0.00154058 0.000935541 0.00143695
669 1 15.1133 8.8066 6.19616 0.00969752 0.00116581 -0.000346857
670 1 15.0786 6.30374 6.25529 0.000405419 0.00754698 0.00243959
671 1 16.3862 7.58978 4.38145 -0.00166871 0.00100746 -0.00945426
672 1 15.1191 5.07072 3.58474 0.00212824 -0.00418737 0.00888062
673 1 16.3878 6.3469 5.32131 -0.0041656 -0.00235419 -0.00721344
674 1 16.4174 3.77239 5.31501 -0.00184219 0.00182095 -0.00440071
675 1 17.6214 5.04783 3.53447 -0.0050946 -0.000359645 0.000259623
676 1 16.3936 5.11459 4.39647 -0.00252509 -0.000616324 0.000967851
677 1 17.6717 6.28276 6.26749 -0.00663654 -0.00240043 -0.000349271
678 1 17.6335 3.8054 6.23328 0.00211366 0.000163387 -0.0067496
679 1 18.8569 5.02028 4.45701 -0.0058334 0.00235649 -0.00170671
680 1 17.6847 2.51371 3.59527 0.00677729 0.000132824 0.000927914
681 1 18.9377 3.70903 5.35422 0.00322438 -0.00220302 0.00269451
682 1 18.8726 1.22731 5.35324 -0.00540241 -0.00652081 -0.00116564
683 1 20.1689 2.55543 3.62769 -0.00364318 0.00620087 -0.00370763
684 1 18.9114 2.5259 4.4295 -0.00156938 0.000773486 -0.0012186
685 1 20.1412 3.76327 6.29964 0.00507943 0.0112657 0.00681536
686 1 20.1329 1.18443 6.22562 -0.00230848 -0.00140523 0.00519458
687 1 21.4439 2.54159 4.47508 0.000640433 0.00455108 0.00342789
688 1 20.1892 0.0338233 3.55461 -0.000604474 -0.00161611 -0.00499555
689 1 21.4122 1.2335 5.36653 -0.00278194 0.00656162 -0.00727638
690 1 21.4391 0.0381964 4.41886 -0.00497968 0.00755182 0.0058145
691 1 3.73082 21.4874 5.39262 0.00309216 -0.00316406 0.00488573
692 1 5.00649 21.3912 6.23525 0.00758452 0.00119826 0.00303633
693 1 5.02559 20.1951 3.57949 -0.00451887 -0.00752666 0.00148738
694 1 6.32147 21.4053 5.33019 -0.00518614 -0.00420491 -0.00227909
695 1 6.26196 18.944 5.3368 0.000166964 0.00196681 0.000412928
696 1 7.55205 20.1433 3.53301 0.00434418 0.00187651 -0.00602151
697 1 6.27781 20.1791 4.47242 -0.00522772 -0.00888155 -0.00121181
698 1 7.54775 21.406 6.23207 0.000419368 -0.00252991 -0.00858882
699 1 7.5106 18.9089 6.25862 -0.0112167 -0.000596623 -0.00942835
700 1 8.79586 20.1664 4.40336 0.00231851 0.00066942 0.00603874
701 1 7.56055 17.6417 3.6295 -0.0123586 0.00257479 -0.0104973
702 1 8.8356 18.9503 5.3194 -0.00650839 0.000898925 0.0112388
703 1 8.86165 16.4034 5.40425 0.00215801 0.00160357 0.00456984
704 1 10.034 17.647 3.55807 -0.000472001 3.59508e-05 0.0033429
705 1 8.84918 17.6743 4.41651 -0.0114765 0.00701613 -0.00295243
706 1 10.0888 18.9234 6.2331 0.00210334 -0.00966067 -0.00705527
707 1 10.0926 16.4033 6.30302 0.00342876 0.00413772 0.00804699
708 1 11.2927 17.6472 4.45234 0.000273872 0.00154337 -0.00208282
709 1 10.0474 15.0944 3.62462 0.000573896 0.00238711 0.00104035
710 1 11.3183 16.3971 5.36253 0.00351755 0.0106137 -0.00209114
711 1 11.3186 13.8733 5.32168 0.00541172 -0.0016855 -0.00519256
712 1 12.5756 15.1623 3.58594 0.00431026 -0.00790041 -0.00141311
713 1 11.2934 15.1267 4.50596 -0.0029283 -0.00205349 -0.00611408
714 1 12.6419 16.3757 6.18153 0.00137722 0.000731816 0.000868309
715 1 12.5524 13.8201 6.22266 0.00422223 0.00577378 -0.00134939
716 1 13.8899 15.0741 4.39638 -0.00611391 -0.00371933 -0.00170782
717 1 12.556 12.6657 3.57054 0.000180545 -0.00397657 0.000712737
718 1 13.8537 13.8749 5.33475 0.00614773 0.00318005 -0.00644111
719 1 13.8464 11.3392 5.28502 -0.00132343 -0.0040719 -0.00474803
720 1 15.0885 12.5843 3.55982 -0.00347934 -0.000244892 0.00318147
721 1 13.8561 12.6367 4.47082 -0.00240241 -0.00120115 0.00792416
722 1 15.1325 13.8272 6.22289 -0.00570795 0.0053494 0.00346768
723 1 15.1149 11.3146 6.23878 -0.00761562 -0.0066364 0.00795568
724 1 16.3129 12.5692 4.43447 0.000979599 0.000102997 0.002854
725 1 15.0465 10.0955 3.49535 -0.00164351 0.00184423 0.00350746
726 1 16.3905 11.2799 5.36498 0.0168319 0.00283163 -0.00262169
727 1 16.3197 8.80546 5.31806 -0.000382715 -0.00325649 0.00606525
728 1 17.6059 10.0347 3.55171 -0.00155329 0.00225337 -0.00534302
729 1 16.3752 10.0302 4.45539 0.007178 -0.00104245 -0.000360405
730 1 17.7066 11.3746 6.28613 -0.00105059 0.00383257 0.00188149
731 1 17.5912 8.79927 6.23794 -0.00582212 0.00600196 0.00272116
732 1 18.8319 10.1391 4.43524 0.00511094 0.0028666 -0.00469435
733 1 17.6507 7.55112 3.55015 -0.000519625 -0.00209161 0.000821595
734 1 18.9098 8.89907 5.34133 -0.00348368 -0.00111467 0.00108181
735 1 18.857 6.26592 5.3709 0.00860822 0.00679241 0.000812893
736 1 20.1614 7.59923 3.60312 -0.0116584 0.00625884 0.00124295
737 1 18.8828 7.56632 4.4864 -0.000289903 -0.000147836 0.00379031
738 1 20.0919 8.87548 6.24417 -0.00585062 0.00144749 -0.00132406
739 1 20.0764 6.28183 6.26007 0.00110506 -0.00369967 0.00761935
740 1 21.3792 7.57503 4.54849 0.00431057 0.00699954 0.00394938
741 1 20.1853 5.06861 3.57192 0.00580212 5.32171e-05 -0.00051414
742 1 21.4021 6.29846 5.37114 -0.00169807 -0.005272 0.0010005
743 1 21.4285 3.76885 5.3611 0.00195968 -0.00604866 0.00367496
744 1 21.408 5.04921 4.46437 -0.000566814 -0.0044334 -0.00161934
745 1 8.81517 21.4293 5.35557 -0.000665567 0.00280641 -0.0065104
746 1 10.0823 21.4407 6.27475 0.00534691 0.00249257 -0.00186045
747 1 10.0854 20.2064 3.5794 -0.00430482 0.00144533 -0.00786756
748 1 11.3658 21.4136 5.38164 -0.0104881 0.00745558 0.00429503
749 1 11.313 18.9524 5.36173 -0.00373619 -0.00477402 0.000519781
750 1 12.6015 20.1807 3.53556 -0.00279513 -0.00392525 0.00762939
751 1 11.3276 20.2285 4.4494 0.00245418 0.00209567 0.00306593
752 1 12.6239 21.4225 6.26914 0.00285178 -0.00864124 0.00644973
753 1 12.5352 18.8865 6.22812 -0.00219807 0.000958137 -0.00208692
754 1 13.8455 20.149 4.41015 0.00437327 -0.00384918 -0.000824045
755 1 12.6024 17.6379 3.56917 0.00334988 -0.00622347 -0.00548455
756 1 13.8464 18.8921 5.31881 0.00770191 0.000565341 0.000511842
757 1 13.8606 16.417 5.30508 -0.000672674 0.00447446 -0.00930334
758 1 15.1387 17.6197 3.53515 0.00436504 -0.00200919 -0.00149858
759 1 13.8679 17.6357 4.45103 0.00549041 -0.000276693 -0.00124888
760 1 15.048 18.8947 6.23203 -0.00358668 -0.00762236 -0.00147818
761 1 15.1085 16.382 6.20961 0.00295745 -0.0011665 -0.000462826
762 1 16.3589 17.652 4.46574 0.00337305 -0.00130762 -0.00514702
763 1 15.1192 15.1199 3.5141 0.00697374 0.00674756 -0.00917532
764 1 16.3502 16.3602 5.33807 -0.00183618 -0.00144225 -0.000956357
765 1 16.3828 13.8416 5.33671 -0.000138288 0.00183831 -0.00587956
766 1 17.5988 15.1363 3.56711 -0.00603492 0.00557104 -0.00168684
767 1 16.3594 15.1016 4.43928 0.00538468 -0.00226466 0.00666241
768 1 17.5823 16.4123 6.22967 -0.00360903 -0.000139891 0.00397492
769 1 17.6647 13.8866 6.25646 6.01422e-05 -0.011002 -0.00213066
770 1 18.8859 15.1047 4.47558 0.00299713 -0.00260426 -0.0115275
771 1 17.62 12.6089 3.52365 -0.00249646 8.33291e-05 0.000841109
772 1 18.9136 13.9073 5.37526 -0.00286167 -0.00368831 -0.00684601
773 1 18.9168 11.4078 5.33221 -0.00450609 0.00476869 -0.00724431
774 1 20.1813 12.6108 3.53589 -0.00547428 -0.00921587 0.00159545
775 1 18.8677 12.631 4.40513 0.0010793 -0.00156843 0.00143983
776 1 20.1971 13.867 6.30266 -0.00257133 0.00901625 0.00299554
777 1 20.1504 11.3798 6.25867 -0.00685011 -0.000426436 0.00143438
778 1 21.428 12.6113 4.48832 0.00106636 -0.00408386 -0.00138392
779 1 20.158 10.144 3.57076 0.00310563 0.00768281 -0.0048326
780 1 21.4671 11.3979 5.39209 -0.00234326 0.00516744 -0.00987422
781 1 21.4384 8.90795 5.33711 0.0129903 0.0107169 -0.00356383
782 1 21.4317 10.1467 4.46188 0.00615584 0.0019172 -0.00237496
783 1 13.875 21.3609 5.40173 0.00463381 -0.00119333 0.00463487
784 1 15.1362 21.4501 6.24259 0.00106158 0.00501918 -0.00417049
785 1 15.1134 20.1771 3.53992 -0.00104546 -0.00133494 -5.01433e-05
786 1 16.3943 21.4597 5.3618 -0.00215505 -0.0058329 0.00466967
787 1 16.37 18.9475 5.3663 0.00524119 -0.000383473 -0.0045189
788 1 17.6635 20.1862 3.53421 0.00333599 -0.00318961 0.0129905
789 1 16.3889 20.1995 4.43023 0.00619868 0.00148194 0.00976173
790 1 17.6877 21.4444 6.2247 0.00426517 0.00435929 0.000846854
791 1 17.5975 18.9398 6.30033 -0.000742462 0.0028219 0.00506835
792 1 18.89 20.1838 4.42937 -0.00262794 -0.00389059 0.00333736
793 1 17.6035 17.6385 3.5669 0.00980856 -0.0095299 2.01132e-05
794 1 18.8905 18.9536 5.34947 0.00649123 -0.00514761 0.00555561
795 1 18.9003 16.3823 5.3423 0.00389355 0.00236903 -0.00332329
796 1 20.1449 17.6386 3.52476 -0.00211912 -0.00471829 0.000670127
797 1 18.8762 17.7343 4.4385 0.00303883 -0.00153761 -0.00032172
798 1 20.1416 18.9576 6.23899 0.00547671 0.00725838 0.000834662
799 1 20.1485 16.4002 6.27755 0.00823093 -0.00038935 -0.00672986
800 1 21.4719 17.678 4.44541 0.00371442 0.000627169 0.00287323
801 1 20.1421 15.1249 3.58582 0.00437699 0.00181151 -0.0099062
802 1 21.4458 16.4194 5.40384 0.00578261 0.00451233 0.0102704
803 1 21.4202 13.8943 5.39727 -0.00304092 0.0053226 0.00447612
804 1 21.4141 15.1931 4.50436 0.00253982 0.00181028 0.0063649
805 1 18.8887 21.431 5.28044 0.000282902 -0.0091535 0.0053097
806 1 20.1334 21.372 6.23261 0.00737943 -0.00157263 -0.000999552
807 1 20.1825 20.1451 3.5592 -0.00446954 0.00403968 -9.58082e-05
808 1 21.3953 21.3679 5.33445 -0.00471095 0.000726427 -0.00353008
809 1 21.402 18.8832 5.33606 -0.00542682 -0.00202409 -0.00488526
810 1 21.4344 20.1473 4.46696 -0.00269061 0.00228363 -0.00309872
811 1 22.6547 2.56823 7.21201 0.00805988 0.0143183 -0.000810411
812 1 22.6585 3.75058 9.97816 -0.00119389 -0.00633076 -0.00510469
813 1 22.6267 1.31755 9.91865 0.00751463 -0.000916266 -0.00129511
814 1 1.19912 2.57846 8.05964 0.00401871 0.00119705 -0.00460485
815 1 22.6531 0.0528863 7.16332 0.000136321 -0.000505967 0.00222664
816 1 1.2464 1.38206 8.94104 -0.00675211 -0.00351382 -0.00806081
817 1 2.53255 0.0626748 7.17976 0.00561588 -0.00689058 0.00329162
818 1 1.26585 0.072819 8.04786 0.00154914 0.00147516 0.000685376
819 1 2.56041 1.28845 9.91036 -0.00230616 0.00313241 -0.00799991
820 1 3.82592 22.6892 8.05353 0.00130514 -0.000614724 0.00140572
821 1 22.6676 7.60202 7.12091 -0.00065632 -0.00184633 0.00446688
822 1 22.6017 8.84733 9.84966 0.00272798 -0.00844317 0.00341976
823 1 22.5853 6.30976 9.91008 -0.00347565 0.0039444 -0.00414251
824 1 1.1989 7.53927 8.02813 -0.000498634 0.0113227 -0.000300432
825 1 0.00048335 5.06474 7.16044 -0.00266106 -0.000321093 0.001796
826 1 1.19609 6.30703 8.91088 0.00799706 0.000895615 0.00114231
827 1 1.1996 3.76378 8.91967 0.0105438 0.00604338 -0.000557312
828 1 2.52203 5.07059 7.11793 0.00207899 -0.00105754 0.00920427
829 1 1.2577 5.08609 8.0325 -0.00183638 0.00385273 -0.00093654
830 1 2.47379 6.33158 9.91725 0.00222408 0.00833722 0.00284418
831 1 2.53402 3.81268 9.85279 -0.00199154 0.00322102 0.00488879
832 1 3.75167 5.09165 8.04521 -0.00427467 -0.00520892 -0.00327742
833 1 2.45052 2.59244 7.13596 -0.00296722 -0.00276171 0.00280264
834 1 3.7292 3.77515 8.89819 -0.00827813 -0.00853126 -0.00014067
835 1 3.76061 1.28007 8.90347 0.000277799 0.00448183 0.00537786
836 1 5.01007 2.52097 7.1248 -0.00840492 0.000611944 0.00261726
837 1 3.72229 2.51206 8.04198 -0.00574277 -0.00162503 -0.00894045
838 1 5.0722 3.78461 9.89212 -0.00362397 -0.00177174 0.00470886
839 1 5.07598 1.29563 9.90322 -0.0010413 0.002036 0.000419225
840 1 6.33292 2.56206 7.95534 -0.00309198 -0.00546278 0.00672032
841 1 5.04878 22.6575 7.1224 -0.00679622 -0.00364335 -0.00336324
842 1 6.23921 1.28061 8.7728 0.00104642 0.0100715 -0.000134561
843 1 7.6034 22.6671 7.12555 -0.00146026 -0.0169028 0.000533193
844 1 6.30902 22.661 8.01008 0.00711721 0.00474282 0.00761366
845 1 7.48666 1.27088 9.83792 -0.000703735 -0.000758805 0.000617097
846 1 8.8633 22.6589 8.06691 0.00790923 -0.00328441 0.00252574
847 1 22.6558 12.6459 7.1837 0.000833651 0.00010601 0.00679502
848 1 0.00845666 13.9013 9.97867 -0.00515758 -0.00214425 -0.00823982
849 1 0.0184732 11.3235 9.99977 0.00458806 0.00491834 -0.0111282
850 1 1.21363 12.6062 8.07552 0.00707459 0.0011255 -0.00325542
851 1 0.0468746 10.106 7.16421 -0.00231709 -0.00339509 0.00543813
852 1 1.20773 11.381 8.99591 -0.000600421 -0.00696507 0.00335588
853 1 1.23922 8.79959 8.95044 -0.00607222 0.00297886 0.00250678
854 1 2.51851 10.0988 7.22254 -0.00184512 -0.000107861 0.00189474
855 1 1.25532 10.1092 8.10865 -0.00515085 -0.000270576 0.00492292
856 1 2.44982 11.4143 9.95492 0.00202394 0.00212843 0.00360358
857 1 2.48302 8.79863 9.99102 -0.0013272 -0.00342321 0.00575738
858 1 3.79144 10.0876 8.1239 -0.00243747 0.000289182 -0.000558588
859 1 2.48501 7.54193 7.11814 0.00386793 0.000389535 0.00279838
860 1 3.6896 8.83077 8.95054 -0.00557275 -0.000153954 -0.00844894
861 1 3.76018 6.28078 8.93122 0.00245141 0.00273054 0.000581816
862 1 5.07579 7.53054 7.20651 0.00651641 0.0070924 -0.00218334
863 1 3.73347 7.59657 8.05554 -0.0112638 0.00491888 -0.000337203
864 1 4.95498 8.84512 9.9323 0.00354548 -0.00488134 -0.000996744
865 1 5.05362 6.19532 9.8751 0.000975232 -0.00507879 0.005005
866 1 6.30223 7.56957 8.02584 -0.00827637 0.0022525 -0.00436055
867 1 5.01068 5.02817 7.15933 0.000119219 0.0075744 -0.0106309
868 1 6.2674 6.29302 8.87265 0.00124917 0.00609799 0.00989154
869 1 6.27875 3.85953 8.84771 -0.00539503 0.00509009 -0.009103
870 1 7.55927 5.05622 7.13632 0.00385042 0.00353745 -0.00363546
871 1 6.26614 5.04832 7.98913 0.00701928 -0.00880054 0.00073356
872 1 7.51036 6.35026 9.88601 0.0017648 -0.00253366 -0.00976473
873 1 7.49794 3.79751 9.88242 -0.00345185 -0.000505394 -0.00750766
874 1 8.79495 5.01079 8.10336 -0.00362467 -0.00196738 0.00589536
875 1 7.56 2.50766 7.05376 -0.00303454 -0.00157074 -0.00417723
876 1 8.77031 3.72799 8.95961 0.00303033 0.000621441 0.00388506
877 1 8.79537 1.22152 8.95559 -0.0100492 -0.00252118 0.0109492
878 1 10.1048 2.47885 7.1466 0.00794496 -0.00112948 -0.00397792
879 1 8.79444 2.51122 8.03739 -0.000555075 0.00660266 0.00615748
880 1 10.0531 3.78723 9.91826 -0.00158681 -2.68746e-06 -0.00169454
881 1 10.1099 1.22045 9.9653 -0.0014766 -0.00325246 -0.00126163
882 1 11.3559 2.53396 8.08415 0.00456448 -0.00345789 0.00677351
883 1 10.1075 22.652 7.1749 0.00234743 0.0022706 0.00126764
884 1 11.364 1.26581 8.94049 -0.00025798 0.00136892 0.00834361
885 1 12.5889 0.0326329 7.16295 -0.00638081 -0.00338336 -0.00220696
886 1 11.3887 22.601 8.08262 0.00472861 0.000485267 0.00167663
887 1 12.5605 1.21128 9.96605 0.00200886 0.00363857 0.00325571
888 1 13.8678 0.0457805 8.06145 -0.0031839 0.00475138 0.0061982
889 1 0.00346978 17.6544 7.21696 0.00939565 0.0031654 0.010081
890 1 22.6886 18.9782 9.87908 -0.00465484 -0.000593163 0.00245716
891 1 22.6726 16.356 9.92342 -0.00413525 -0.00404764 0.0070531
892 1 1.24128 17.686 8.09338 0.00559255 0.00440394 0.014179
893 1 22.6307 15.1957 7.14446 -0.00836974 -0.00750007 0.000868089
894 1 1.22173 16.3648 8.95713 -0.001559 -0.000341466 0.00693817
895 1 1.24017 13.8427 8.90541 -0.00603335 0.00246278 0.00884833
896 1 2.56797 15.1336 7.17259 0.0052088 0.00422744 0.00260346
897 1 1.2188 15.1153 8.03916 -0.00165792 -0.0018074 -0.00304256
898 1 2.51495 16.3732 9.96781 -0.00899237 -0.00207386 0.00333323
899 1 2.50196 13.9126 9.92175 -0.00395567 0.0010957 -0.00182618
900 1 3.7406 15.1576 8.06334 -0.00484349 -0.00267293 -0.00123674
901 1 2.49602 12.6122 7.14891 0.00304329 0.00528797 -0.00186906
902 1 3.79144 13.8692 8.95174 0.00588251 0.000370287 0.00957004
903 1 3.74151 11.3748 8.97227 0.00113589 0.00244183 -0.00374229
904 1 5.02039 12.5857 7.18343 0.00132415 -0.00123238 -0.00212793
905 1 3.77357 12.5958 8.04617 -0.00543701 0.000969664 -0.00590924
906 1 5.02611 13.9071 9.98241 -0.00782031 0.00641642 -0.00842556
907 1 5.02427 11.4281 9.96518 0.00183153 0.0074926 7.1465e-05
908 1 6.33329 12.5704 8.0648 -0.0110137 0.00414119 0.00613774
909 1 4.99221 10.0775 7.18972 -0.00220668 -0.012298 -0.0104353
910 1 6.26941 11.3749 8.98012 0.00589592 -7.20095e-05 0.00196598
911 1 6.21277 8.88682 8.98303 -0.00608742 -0.00122063 -0.00514279
912 1 7.54504 10.0978 7.16553 0.00602396 -0.00251514 0.0036114
913 1 6.26768 10.1188 8.10101 0.00389384 0.00230466 -0.00287783
914 1 7.55659 11.3529 9.91864 -0.00159182 -0.00883185 -0.00190435
915 1 7.56633 8.92988 9.96467 0.00307164 -0.00864053 -0.000993593
916 1 8.83688 10.0432 8.12433 0.0048432 0.00425122 0.01162
917 1 7.57184 7.49317 7.1777 -0.00421088 -0.00306138 -0.00405898
918 1 8.77675 8.79334 8.94924 0.000789254 -0.000438924 -0.00171715
919 1 8.81581 6.29878 8.96211 -0.0020748 -0.00238013 0.00379384
920 1 10.0814 7.54786 7.19993 -0.00236123 -0.00372256 0.00144948
921 1 8.85119 7.58934 8.06131 0.00117651 0.00185722 0.00480626
922 1 10.1111 8.77983 9.881 -0.00206987 -0.00265459 0.00530952
923 1 10.0805 6.36308 9.96738 0.005601 0.00955932 0.000131512
924 1 11.3485 7.5805 8.07551 0.00505669 -0.00469825 0.000296442
925 1 9.98662 5.01601 7.18879 -0.00360966 -0.0116802 0.000336806
926 1 11.3615 6.3201 8.98613 -0.00710388 0.00554664 0.00831533
927 1 11.3149 3.82145 8.96634 -0.00528452 0.00717464 0.000789434
928 1 12.5861 5.07516 7.16011 0.000608617 0.000492784 0.000585047
929 1 11.3018 5.05354 8.01523 -0.00613903 -0.00308897 -0.000872843
930 1 12.6366 6.33278 9.92131 -0.00179422 0.000649234 0.00282867
931 1 12.5746 3.73497 9.89559 0.00260774 0.00208141 0.00174596
932 1 13.9184 5.01331 8.01217 -0.00495536 -0.012085 -0.0035024
933 1 12.563 2.55825 7.13589 -0.00536273 -0.00439861 0.000809716
934 1 13.8209 3.73331 8.84616 -0.00590103 0.0048642 -0.00619466
935 1 13.8498 1.28595 8.91684 0.00135181 0.00025859 -0.00336883
936 1 15.118 2.53476 7.17071 -0.00396685 -0.00449604 -0.00228465
937 1 13.8405 2.50322 8.02357 -0.00655038 0.00249471 4.04041e-05
938 1 15.0217 3.74948 9.94031 -0.00361781 -0.000979514 -0.00550421
939 1 15.1388 1.23015 9.9295 -0.00182027 0.00644881 -0.00600733
940 1 16.4053 2.56123 8.05842 -0.00691239 0.00410719 -0.000981927
941 1 15.1304 0.0179632 7.19019 0.00087996 -0.000925845 -0.00204565
942 1 16.4468 1.316 8.94029 0.00128014 -0.00252405 0.00852428
943 1 17.6367 22.68 7.13992 -0.00230532 0.00910348 0.00167525
944 1 16.4174 0.0350658 8.08882 -0.0102023 -0.00615387 -0.000964572
945 1 17.6365 1.34521 9.89372 -0.00264827 0.00584263 0.00169428
946 1 18.9046 22.684 8.06147 0.00222111 -0.00274976 0.00189149
947 1 0.0302107 21.5087 9.89923 0.00255285 -0.00221391 -0.00222989
948 1 22.6605 20.1788 7.13625 -0.004656 0.00241785 0.00454009
949 1 1.27707 21.5069 8.87593 0.00934948 -0.00246463 0.000514279
950 1 1.22766 18.9715 8.92001 0.00107682 -0.0066026 0.0021781
951 1 2.56478 20.1628 7.18126 -0.00464355 -0.00602909 -0.00295346
952 1 1.25986 20.2644 8.0018 0.00414373 -0.00313751 0.00329596
953 1 2.54714 21.4733 9.8916 0.00497365 -0.000121281 -0.0099723
954 1 2.40142 19.0094 9.96909 -0.000194308 -0.0138726 -0.00633353
955 1 3.79876 20.1625 8.06747 -0.00319697 0.000170723 -0.00130721
956 1 2.50976 17.6369 7.13367 0.000159782 0.00463307 -0.0082932
957 1 3.74255 18.8872 8.99016 0.00320974 -0.00115743 0.00281391
958 1 3.69216 16.398 8.96861 0.00176732 -0.00237783 -0.00518293
959 1 5.02527 17.6662 7.13838 0.000659107 0.00453804 0.00291695
960 1 3.73272 17.6516 8.06874 0.00701496 -0.000519607 -0.0111838
961 1 5.06516 18.9755 9.91228 -0.00372864 0.00110442 0.00716772
962 1 5.02096 16.3985 9.99923 0.000969796 0.000533559 0.00148071
963 1 6.24824 17.647 8.05245 -0.00398763 0.000539407 0.00101498
964 1 5.04118 15.1711 7.14181 -0.00105313 -0.00312059 0.00561446
965 1 6.26765 16.4284 8.99976 0.00183988 -0.00567342 -0.000981385
966 1 6.26265 13.8677 8.94292 -0.000314666 0.0122224 0.00339203
967 1 7.52124 15.1304 7.23789 -0.00288045 -0.0035099 -0.00073459
968 1 6.2902 15.1055 8.03623 0.000937746 -0.00892307 -0.00257189
969 1 7.55238 16.3675 10.0606 0.00360716 -0.000454817 -0.0038981
970 1 7.51905 13.911 9.95653 -0.00628918 -0.00560599 -0.00090449
971 1 8.86555 15.1083 8.12101 0.0025982 -0.00242997 0.00752739
972 1 7.6195 12.6369 7.14632 0.00256841 0.00141175 -5.83889e-05
973 1 8.86471 13.8624 8.9906 0.00145293 -0.00524044 0.00286017
974 1 8.84158 11.3619 8.94031 -0.000922242 0.00687541 0.00243395
975 1 10.0763 12.5762 7.17167 0.00324769 -0.000499592 6.55979e-05
976 1 8.86967 12.6586 8.02628 0.00172628 -0.00415479 0.00313243
977 1 10.1199 13.8191 9.91752 0.00110548 -0.0011038 0.00467338
978 1 10.1136 11.3073 9.94668 0.00634279 0.0039816 0.00333601
979 1 11.3048 12.5098 8.07745 0.000432871 -0.00316147 -0.00615225
980 1 9.99339 10.0194 7.12286 -0.0096806 -0.00109407 0.00166788
981 1 11.3143 11.2913 8.95745 0.00204512 0.00135137 0.00239476
982 1 11.3559 8.77524 8.97722 -0.00103328 -0.00248042 -0.00339777
983 1 12.5953 10.1414 7.1578 -0.00634268 -0.00249022 0.00102299
984 1 11.3201 10.0418 8.04219 0.00161751 -0.000683446 -0.00120008
985 1 12.6623 11.3261 9.93531 0.00208149 -0.00571726 0.000699718
986 1 12.6027 8.81976 9.90934 -0.000902826 -0.00282731 -0.00253072
987 1 13.9278 10.076 7.95774 0.00749429 -0.00636383 -0.00135352
988 1 12.5732 7.59281 7.15137 0.004288 0.00571089 -0.00135026
989 1 13.8886 8.83042 8.84124 9.14139e-05 -0.00506663 0.00737235
990 1 13.8766 6.33081 8.86865 0.00367817 -0.00141419 0.0063681
991 1 15.1617 7.57655 7.11373 0.00179867 0.00293601 3.67711e-05
992 1 13.8733 7.55938 8.00722 -0.00425922 0.00103987 0.0022731
993 1 15.1216 8.93187 9.8391 -0.00180992 -0.00803553 0.0060957
994 1 15.0601 6.36528 9.88364 -0.000163738 -0.00590401 -0.00318341
995 1 16.4786 7.52956 8.02514 -0.000932144 0.00680726 0.007972
996 1 15.1439 5.04542 7.1471 0.000437815 0.00291832 -0.00363055
997 1 16.3681 6.30402 8.95321 -0.00489722 0.00896467 -0.00312569
998 1 16.2818 3.79815 9.00137 0.0035473 -0.00132749 -0.00376608
999 1 17.6773 5.04336 7.11893 -0.00621616 5.51374e-05 0.00381583
1000 1 16.4219 5.02849 8.10563 -0.00218681 -0.00997882 0.00117982
1001 1 17.6059 6.36486 9.96372 0.00564058 0.00190158 -0.000109458
1002 1 17.6566 3.84906 10.0097 0.00024505 9.08231e-05 -0.00222226
1003 1 18.8907 5.02439 8.03404 0.00604312 0.00023445 -0.00739766
1004 1 17.6579 2.52782 7.16207 0.00208584 -0.00636448 -0.00508603
1005 1 18.8077 3.79983 8.9094 0.00588306 -0.00694748 -0.0101166
1006 1 18.8753 1.24699 8.94627 -7.88331e-05 -0.0011632 0.0013938
1007 1 20.1585 2.44803 7.11368 0.00099138 -0.00252507 -0.00316224
1008 1 18.8944 2.47363 8.07198 -0.0111264 0.00477909 -0.00261579
1009 1 20.1133 3.7643 9.87694 0.00192715 -0.00126593 0.0126086
1010 1 20.0636 1.25496 9.9156 -0.000147926 0.00390701 0.00840721
1011 1 21.3766 2.54003 8.07224 -0.00177394 -0.00734555 0.000831708
1012 1 20.1124 22.6745 7.14339 0.00435971 0.00209664 0.000133828
1013 1 21.3677 1.31974 8.94007 0.00402422 0.00247276 0.0029
1014 1 21.4002 0.00295849 8.05455 -0.00534712 0.0125021 -0.0123454
1015 1 3.8744 21.4184 8.89832 -0.00209652 0.00284797 0.00325392
1016 1 5.10626 21.4334 9.86585 0.000712526 0.000327524 0.0127222
1017 1 5.03058 20.1687 7.10541 -0.00438227 -0.00467647 0.00201664
1018 1 6.33165 21.4063 8.89317 0.00425231 0.00401681 -0.00322171
1019 1 6.26709 18.8751 8.89656 0.00123101 2.01136e-06 0.000178242
1020 1 7.57412 20.158 7.09527 0.00558661 -0.00216575 0.00370067
1021 1 6.26542 20.1771 8.07283 -0.00364353 -0.00492086 -0.00202506
1022 1 7.57902 21.4 9.8453 -0.00166815 -0.00604149 -0.00684102
1023 1 7.52095 18.8967 9.92039 -0.00759138 0.00570249 0.00622805
1024 1 8.80873 20.1206 8.03116 0.00151396 -0.00122149 -0.00308844
1025 1 7.50884 17.6535 7.13004 0.00543919 -0.00770986 0.00041425
1026 1 8.80247 18.8822 8.91927 -0.00294798 0.00232834 0.0050986
1027 1 8.82961 16.4108 8.94509 0.00396551 -0.0070005 -0.00444467
1028 1 10.0464 17.6094 7.14954 -0.00538178 -0.00205198 0.00355635
1029 1 8.7946 17.6515 8.06554 -0.00685137 0.00557076 0.00366922
1030 1 10.0914 18.85 9.98053 0.0102985 -0.00601023 -0.00677004
1031 1 10.0809 16.4278 9.96479 0.000229044 -0.013821 -0.00142806
1032 1 11.3224 17.6231 8.00244 0.0043389 0.00293658 -0.00149129
1033 1 10.0752 15.0858 7.18854 0.00842157 -0.00833672 0.00553115
1034 1 11.3645 16.3787 8.97676 -0.00667154 -0.00140668 -0.00265984
1035 1 11.3646 13.7836 8.91222 -0.0095259 -0.00168523 0.00492471
1036 1 12.589 15.1 7.08157 -0.00362549 0.00654893 -0.00420849
1037 1 11.3865 15.1112 8.04676 0.00157523 0.00457637 0.000674884
1038 1 12.6783 16.3056 9.82738 0.00422147 0.00184458 -0.00100663
1039 1 12.6712 13.7863 9.91424 8.75633e-05 0.0058889 0.00137437
1040 1 13.8955 15.0826 7.99346 -0.00568966 0.003622 0.00599956
1041 1 12.6085 12.6092 7.14239 0.00277949 -0.00658603 -0.00549512
1042 1 13.8861 13.7892 8.9099 -0.000372511 0.00101311 -0.00215784
1043 1 13.9132 11.301 8.87166 -0.00143912 0.0012023 0.000152329
1044 1 15.0805 12.6213 7.08452 0.0019387 -0.00390069 0.00217135
1045 1 13.9168 12.575 8.00255 -0.00416673 0.00486918 -0.0112499
1046 1 15.1287 13.8559 9.90447 0.0124918 0.000567104 0.00133865
1047 1 15.1646 11.362 9.95149 -0.000751306 -0.00713686 -0.00260314
1048 1 16.3934 12.5717 8.09005 0.00211951 0.00195803 0.00467063
1049 1 15.1458 10.0824 7.05158 -0.0019467 0.0029758 -0.00472825
1050 1 16.4038 11.2702 8.88576 -0.00138816 -0.000147499 -0.000769312
1051 1 16.4607 8.82563 8.85999 -0.00357027 -0.00819799 -0.00423168
1052 1 17.667 10.0607 7.10994 -0.00272798 -0.0123307 0.00356054
1053 1 16.4158 10.0696 8.0237 -0.00517846 0.00187708 -0.000637144
1054 1 17.6815 11.2706 9.8397 0.00379963 0.00507961 0.00197839
1055 1 17.6663 8.85445 9.91677 -0.0018013 -0.00313444 0.000613863
1056 1 18.8807 10.0994 8.01393 -0.00912913 0.0102382 -0.00270943
1057 1 17.681 7.57361 7.16616 0.00483748 -0.000864663 -0.00348509
1058 1 18.8849 8.82815 8.92967 0.00399439 0.00231233 0.00260232
1059 1 18.8927 6.30895 8.91148 -0.00132218 0.00207927 0.000315191
1060 1 20.1172 7.61839 7.164 -0.000396212 0.0030153 0.000564126
1061 1 18.8711 7.60187 8.07479 0.00229818 -0.0116677 0.0138165
1062 1 20.1217 8.89077 9.90798 0.00528296 0.00653842 -0.00539615
1063 1 20.1403 6.30132 9.86695 -0.00177057 0.00183515 -0.00253727
1064 1 21.3868 7.60742 7.98547 0.00187299 0.00117008 0.00310334
1065 1 20.1775 5.01918 7.16525 0.00157934 0.00645272 -0.00605035
1066 1 21.391 6.27279 8.81489 0.00483938 0.000715073 -0.00624389
1067 1 21.3869 3.79014 8.92323 0.00213623 -0.000169748 -0.00510937
1068 1 21.4214 5.05153 8.03198 0.0051704 0.0112168 0.00151135
1069 1 8.84928 21.5032 8.90398 -0.00576854 -0.0128869 0.00421374
1070 1 10.0748 21.4703 9.96899 0.00447858 0.00418363 -0.000661899
1071 1 10.0985 20.1721 7.16941 6.36808e-05 -0.00380792 -0.00583983
1072 1 11.3591 21.4203 8.96988 -0.00119936 -0.001132 0.00371358
1073 1 11.3381 18.8507 8.94866 -0.00174387 0.000690361 0.00820775
1074 1 12.5966 20.1488 7.12732 0.00405302 0.00316208 -0.00204955
1075 1 11.338 20.1412 8.04223 -0.00523191 -0.0114309 -0.00153291
1076 1 12.5924 21.4358 9.90135 0.00249077 -0.000393582 -0.00876301
1077 1 12.6794 18.8692 9.90649 0.000155331 0.013422 -0.00694221
1078 1 13.8732 20.16 7.99892 0.00797137 -0.0124929 -0.00613367
1079 1 12.5969 17.654 7.12569 -0.00634918 -0.000978231 0.00814641
1080 1 13.9537 18.91 8.88144 -0.00108154 0.00269256 -0.00705504
1081 1 13.9496 16.3067 8.83315 0.00382377 0.000395412 -0.008304
1082 1 15.139 17.646 7.1376 -0.00370941 0.00354962 -0.000516104
1083 1 13.9102 17.6142 8.01549 0.0031799 -0.00463125 -0.00276514
1084 1 15.2257 18.9556 9.87565 0.0036148 -0.00232419 -0.00376402
1085 1 15.132 16.3395 9.93396 -0.00243766 0.00658112 -0.0074193
1086 1 16.3741 17.637 8.06262 -0.003307 -0.00468985 0.00202696
1087 1 15.1244 15.095 7.14262 -0.00398677 -0.00325836 0.0038608
1088 1 16.4011 16.3977 8.94541 -0.00461562 -0.00222277 0.00268598
1089 1 16.343 13.8759 8.88408 0.00134204 -0.00899643 0.00284716
1090 1 17.6421 15.1464 7.07605 0.0119701 -0.00180697 0.00120722
1091 1 16.3658 15.1223 8.05802 0.00482972 0.00156688 -0.00149686
1092 1 17.6911 16.3977 9.88673 -0.00093507 0.00262454 -0.00322923
1093 1 17.6797 13.8385 9.86604 -0.00280521 -0.00123511 0.00813575
1094 1 18.8875 15.1592 8.04163 0.0030191 0.00896719 0.000423389
1095 1 17.6175 12.6127 7.19646 0.00582344 -0.00131058 -0.000458924
1096 1 18.8893 13.9236 8.88385 0.010226 -0.00455295 -0.00766993
1097 1 18.918 11.3107 8.91457 0.00171321 -0.00268288 0.000610529
1098 1 20.1425 12.573 7.18812 0.00555578 0.00926347 -0.00552296
1099 1 18.8879 12.6298 8.10361 -0.00182441 -0.00353045 0.0039865
1100 1 20.1106 13.9043 9.95861 -0.00678961 0.00362978 0.00598026
1101 1 20.148 11.3383 9.94384 -0.00188821 0.000983428 -0.00279017
1102 1 21.3967 12.6185 8.11041 0.0011387 0.0012355 0.000146102
1103 1 20.1532 10.101 7.10741 -0.00194414 -0.00388419 0.00445091
1104 1 21.4031 11.3404 8.93346 -0.00332001 0.00588181 0.010135
1105 1 21.3383 8.86541 8.89095 -0.00610503 -0.00398843 0.00395524
1106 1 21.4285 10.1207 7.98473 -0.00731061 -0.000749831 -0.00193094
1107 1 13.8289 21.4855 8.86914 0.00591254 0.00433681 0.00836662
1108 1 15.1287 21.4873 9.87932 0.0096334 0.000989981 0.00521161
1109 1 15.1299 20.1458 7.13111 0.00272449 0.000927804 -0.0074531
1110 1 16.3811 21.4349 8.92978 0.00139546 -0.00375735 -0.00502584
1111 1 16.4754 18.9055 9.02322 -0.00681865 0.00926044 -0.000216866
1112 1 17.6569 20.1922 7.18559 0.0053315 0.00656694 0.00300996
1113 1 16.4363 20.1961 8.06768 -0.00393925 0.00402792 -0.00954822
1114 1 17.6663 21.4573 9.91461 -0.00566473 0.000878313 0.00063527
1115 1 17.6763 18.9106 9.95086 0.00346208 -0.00167998 -0.00964717
1116 1 18.8887 20.1428 8.06105 0.00105387 0.00600365 0.000507196
1117 1 17.6164 17.6825 7.19105 0.00465639 1.02613e-05 -0.00323166
1118 1 18.8955 18.957 8.93417 0.000131427 0.0046054 -0.00293424
1119 1 18.8811 16.4358 8.8848 -0.0069882 -0.00525956 -0.00379315
1120 1 20.1358 17.6724 7.1154 -0.00414545 0.000138005 -0.0045762
1121 1 18.8678 17.6724 8.05043 0.00567754 -0.00427771 0.00387932
1122 1 20.0866 19.007 9.91269 8.40441e-05 -0.00330044 0.00155152
1123 1 20.1128 16.4353 9.97821 0.00150524 0.00520673 0.0048436
1124 1 21.3905 17.679 8.05424 -0.0089576 0.004739 -0.000120813
1125 1 20.1579 15.134 7.17537 0.00382116 0.000901561 -0.00418807
1126 1 21.3935 16.4225 8.956 -0.00161464 -0.00488351 -0.00110539
1127 1 21.3437 13.9123 8.94209 2.86178e-05 0.00541581 0.0105521
1128 1 21.3886 15.171 8.06816 -0.00143391 -0.00654564 -0.00585179
1129 1 18.8759 21.465 8.87193 0.00334838 0.00506165 0.00228842
1130 1 20.1018 21.5386 9.83729 0.00389324 0.000829954 -0.0072573
1131 1 20.1603 20.1627 7.16282 -0.00826091 -0.00209632 0.000549573
1132 1 21.4039 21.4589 8.87738 -0.00879418 0.00259007 0.00219361
1133 1 21.4069 18.907 8.96939 0.00495073 -0.00520725 0.00112646
1134 1 21.3719 20.1657 8.11737 -0.000103361 0.00637087 0.00122656
1135 1 22.5577 2.46466 10.6644 0.00613279 0.00730358 0.000109095
1136 1 0.0368951 0.109738 10.5534 -0.00493603 -0.00170366 0.0120212
1137 1 2.50074 0.0415618 10.6417 0.0109617 0.00293038 -0.000768763
1138 1 22.1348 7.56853 10.6344 0.00255906 -0.00518287 -0.001875
1139 1 22.6111 5.05678 10.5503 0.00471203 -0.0091363 0.00218899
1140 1 2.49437 5.02206 10.5781 -0.000955679 0.00338415 -0.00729954
1141 1 2.4768 2.56823 10.6007 0.0112608 -0.0119133 0.00761899
1142 1 5.10869 2.55879 10.5234 0.00183109 -0.00136809 -0.0101091
1143 1 5.47983 0.00698175 10.6693 0.00568888 0.00528533 -0.00509631
1144 1 7.02758 22.665 10.6551 0.00161997 -0.00428869 -0.00868769
1145 1 22.6714 12.644 10.633 0.00194504 0.00121386 -0.000513313
1146 1 22.556 10.0205 10.598 -0.000723626 -0.00054108 0.00618291
1147 1 2.48045 10.1203 10.6783 -0.00279296 0.00468172 0.00171009
1148 1 2.46044 7.5849 10.6731 -0.00181845 0.00064734 0.00990778
1149 1 5.00279 7.54733 10.5367 -0.00353794 0.00330468 0.0005632
1150 1 5.04233 4.98147 10.6407 0.00846498 0.00195202 -0.0022194
1151 1 7.53798 5.10504 10.5679 0.00127525 0.00122882 0.00748773
1152 1 7.48663 2.53748 10.5327 -0.00126028 -0.00435068 -0.00070237
1153 1 10.1121 2.50824 10.5971 -0.00133482 0.00807989 0.0132173
1154 1 10.0673 0.00952293 10.7154 -0.00520409 0.00262001 0.000683945
1155 1 12.5966 22.6616 10.6447 -0.00969924 -0.00462575 -0.000345403
1156 1 0.471278 17.7531 10.7209 0.000831237 -0.00485582 0.00318383
1157 1 0.00506821 15.1312 10.5997 0.00292134 0.00256988 -0.0076147
1158 1 2.48691 15.0966 10.6383 -0.00419479 0.00220628 0.00121927
1159 1 2.62381 12.64 10.7036 -0.00338728 0.00383174 0.000440096
1160 1 5.08013 12.6719 10.7171 0.00572368 -0.00261336 -0.00266715
1161 1 5.02226 10.1122 10.6506 -0.00177776 -0.00373302 -0.00613653
1162 1 7.53685 10.131 10.6064 -0.00239536 -0.0088906 0.00232528
1163 1 7.51757 7.68719 10.6705 0.0027309 0.0094349 -0.00443533
1164 1 10.09 7.59805 10.6108 -0.00552334 -0.00214753 0.000178552
1165 1 9.94696 5.00246 10.587 0.00320653 -0.00212523 -0.00567099
1166 1 13.043 5.07341 10.6831 0.00464682 0.00205486 0.00684333
1167 1 12.5736 2.51782 10.6176 -0.0025048 0.00658266 -0.00158221
1168 1 15.0261 2.49667 10.6187 0.00936205 -0.000229299 -0.000361603
1169 1 15.1467 22.6734 10.6461 -0.00466857 0.00417747 -0.000356225
1170 1 17.6178 0.0874648 10.5683 -0.00822229 0.00074132 -0.000335977
1171 1 22.65 20.2761 10.5414 -0.00377972 0.001199 -0.00128194
1172 1 2.44548 20.2198 10.6255 0.00305185 -0.00276882 -0.00637806
1173 1 2.03769 17.6868 10.7672 0.00691848 -0.00474582 0.000295259
1174 1 5.076 17.7128 10.6437 -0.00365836 -0.00045861 0.00716409
1175 1 4.93127 15.2042 10.6232 -0.00404425 0.000133836 0.00562647
1176 1 7.53894 15.091 10.7071 -0.000422493 0.00103292 2.36177e-05
1177 1 7.57475 12.6062 10.6378 0.00912039 -0.00580964 0.00372787
1178 1 10.0888 12.5756 10.6005 -0.00117011 -2.9947e-05 -0.0028885
1179 1 10.0861 10.0334 10.5696 0.0015513 -0.00193794 -0.00433857
1180 1 12.5494 10.0495 10.5624 -0.00701145 -0.00149446 0.00570678
1181 1 12.6769 7.61326 10.599 -0.00501077 -0.00128779 -0.00130154
1182 1 15.0238 7.65733 10.5157 -0.00138212 -0.00667435 -0.00999533
1183 1 14.6535 5.06415 10.7541 -0.00230001 0.00310487 0.00383422
1184 1 17.6548 5.10588 10.66 0.00475377 -0.00177932 0.00302963
1185 1 18.0762 2.59688 10.8128 0.00042649 0.0027231 -0.0026103
1186 1 19.6916 2.52922 10.7066 0.00454129 -0.000446937 0.00293004
1187 1 20.0304 0.0439013 10.577 0.000903044 -0.00192186 -0.00156167
1188 1 5.09054 20.202 10.5462 -0.0052523 -0.00397755 0.00380876
1189 1 7.4853 20.1852 10.5976 -0.000633054 -0.00199042 0.011374
1190 1 7.5488 17.6928 10.6552 -0.00251552 0.00130911 -0.00252539
1191 1 10.1021 17.6464 10.6578 0.00716893 -0.00621383 0.0101065
1192 1 10.1036 15.1344 10.6395 -0.00310996 0.00554251 0.00706636
1193 1 12.6308 15.1195 10.5231 -8.38312e-05 -0.00399418 -0.0101921
1194 1 12.7076 12.5524 10.5721 0.00350655 0.000582986 -0.00335706
1195 1 15.1328 12.5845 10.5934 -0.00464941 -0.00164344 0.000331156
1196 1 15.2207 10.1108 10.6048 -0.000331283 -0.00491755 0.00372631
1197 1 17.6909 10.0881 10.6527 -0.00239202 -0.00414705 -0.00250303
1198 1 17.6319 7.60644 10.5791 -0.00340709 -0.00617203 0.00214528
1199 1 20.5289 7.57036 10.6683 -0.00430115 0.00077852 0.00807385
1200 1 20.0965 5.05646 10.5119 0.00559612 0.00625762 0.00378863
1201 1 10.0285 20.1707 10.6601 0.0105991 0.000443276 0.00721035
1202 1 12.6898 20.1578 10.5329 0.0033356 0.00460372 0.00898462
1203 1 13.1563 17.5669 10.5983 -0.00293453 -0.00496908 0.00156066
1204 1 14.7713 17.5956 10.6943 -0.00490222 -0.00103409 -0.00529868
1205 1 15.1261 15.0734 10.5897 -0.000248971 -0.00179807 0.00490724
1206 1 17.7606 15.1405 10.5341 -0.0055234 -0.00264994 0.00613215
1207 1 17.6873 12.5344 10.5645 0.00762882 -0.00794333 -0.0110812
1208 1 20.0352 12.6548 10.5953 0.0021844 -0.000126029 -0.00645905
1209 1 20.2189 10.0579 10.6267 -0.00199704 0.00281053 0.000116385
1210 1 15.1391 20.203 10.5026 -0.00153003 0.00475457 -0.000688085
1211 1 17.6654 20.2189 10.6631 0.00210592 -0.00890572 -0.0107274
1212 1 18.1405 17.6451 10.7655 0.00336425 0.000439799 -0.00316912
1213 1 19.6513 17.7316 10.8206 0.00130789 -0.00422203 -0.000690511
1214 1 20.1241 15.1764 10.6292 0.00746972 0.00344646 0.000567889
1215 1 20.0745 20.2795 10.576 0.00545856 -0.00239421 0.00510128
