LAMMPS data file via write_data, version 23 Jun 2022, timestep = 0

1296 atoms
3 atom types

0 22.689985001334318 xlo xhi
0 22.689985001334318 ylo yhi
-2.2283669804811876 28.5230973501592 zlo zhi

Masses

1 12.011
2 1.00784
3 16

Atoms # charge/kk

3 1 1.3339578492884557e-02 1.2605547239361774e+00 1.2605547233660346e+00 -1.6737056522283358e+00 0 0 0
4 1 -2.2736343859445399e-03 2.5211094444654787e+00 1.2605547223874900e+00 -9.9210689949530118e-01 0 0 0
7 1 1.3360833264647898e-02 1.2605547241710688e+00 6.3027736088509565e+00 -1.6737056537564883e+00 0 0 0
8 1 1.3376625866155347e-02 1.2605547234912642e+00 3.7816641653161072e+00 -1.6737056516808702e+00 0 0 0
9 1 -2.3724235515917426e-03 2.5211094450643872e+00 6.3027736117740139e+00 -9.9210689897187487e-01 0 0 0
10 1 -2.4994929431315059e-03 2.5211094448352127e+00 3.7816641670328104e+00 -9.9210689890440107e-01 0 0 0
11 1 1.3390078768639032e-02 3.7816641671232438e+00 3.7816641666867103e+00 -1.6737056497432614e+00 0 0 0
12 1 1.3367538904649503e-02 3.7816641655603025e+00 1.2605547238089283e+00 -1.6737056518776963e+00 0 0 0
13 1 -2.3657917889429465e-03 5.0422188897662545e+00 3.7816641669089153e+00 -9.9210689878185321e-01 0 0 0
14 1 -2.3010086817685008e-03 5.0422188894001581e+00 1.2605547220307081e+00 -9.9210690043074801e-01 0 0 0
15 1 1.3372427616469911e-02 6.3027736094778826e+00 1.2605547263786443e+00 -1.6737056549417564e+00 0 0 0
24 1 1.3354786212726601e-02 3.7816641674875098e+00 6.3027736092533955e+00 -1.6737056507797703e+00 0 0 0
26 1 -2.3732289009964400e-03 5.0422188901001075e+00 6.3027736117504602e+00 -9.9210689896092197e-01 0 0 0
27 1 1.3388364746961335e-02 6.3027736107606263e+00 6.3027736093495310e+00 -1.6737056515017701e+00 0 0 0
28 1 1.3412398259412414e-02 6.3027736106762795e+00 3.7816641682435503e+00 -1.6737056499735115e+00 0 0 0
163 1 3.4595980673933074e-03 3.5980994948663261e-02 2.5560348898990264e+00 2.9907932856381911e-02 0 0 0
166 1 3.1724966152741614e-03 1.3129246735415239e+00 2.5036318688171004e+00 8.5048496396944584e-01 0 0 0
168 1 3.2511430692438396e-03 1.2782998106228334e+00 1.2302248294434106e+00 1.7577914125896867e+00 0 0 0
169 1 3.5185138547653766e-03 2.5197110923533010e+00 2.2656220675508777e+01 -8.7814741379006380e-03 0 -1 0
171 1 3.6987702294128105e-03 2.5118746359843507e+00 1.2576736430040958e+00 2.6814020796868081e+00 0 0 0
177 1 3.4005541613252475e-03 2.2670862017762552e+01 5.0713861582300774e+00 2.6531604953285947e-02 -1 0 0
178 1 3.1944677118440085e-03 1.2796619524831589e+00 6.3002134229165447e+00 1.7270708215699482e+00 0 0 0
179 1 3.1497664125309812e-03 1.2731478001964212e+00 3.7787442060221088e+00 1.7513114869152442e+00 0 0 0
180 1 3.1993890982417307e-03 2.5389852453508337e+00 5.0469390350191361e+00 -9.4069240869491297e-02 0 0 0
181 1 3.2541786956195137e-03 1.2686588810400954e+00 5.0362073252777071e+00 7.9158495086680170e-01 0 0 0
182 1 3.3725152635445429e-03 2.5387330052259176e+00 6.2938238651462539e+00 2.6543887233152068e+00 0 0 0
183 1 3.5384198467858954e-03 2.4440347860510854e+00 3.7902990725148298e+00 2.6529201709529011e+00 0 0 0
184 1 3.1691714694638299e-03 3.7254647782011676e+00 5.0626641465854796e+00 8.3731212336815142e-01 0 0 0
185 1 3.3658141182373487e-03 2.5058588010559242e+00 2.5634709033707885e+00 -2.8107340011241651e-02 0 0 0
186 1 3.2452633786300201e-03 3.7404580341239946e+00 3.8356921591655579e+00 1.7994079221698851e+00 0 0 0
187 1 3.3209545116925964e-03 3.7972825014879517e+00 1.2857892627366858e+00 1.7322975494459925e+00 0 0 0
188 1 3.3324731317819021e-03 5.0021961556739649e+00 2.5282012074565068e+00 -4.7690790255227157e-04 0 0 0
189 1 3.2057788645516445e-03 3.8100084920546569e+00 2.5993447639833129e+00 8.5902164127554037e-01 0 0 0
190 1 3.5514173757436374e-03 5.0414985025498957e+00 3.7783539236732326e+00 2.6498874514391879e+00 0 0 0
191 1 3.4237738629034785e-03 5.0593840272720776e+00 1.2819207642192738e+00 2.6364071545398384e+00 0 0 0
192 1 3.1278768259067544e-03 6.3072281619319090e+00 2.5480093820972995e+00 8.4152834997379899e-01 0 0 0
193 1 3.3750065615387398e-03 5.0228299664806517e+00 2.2674133035922118e+01 6.1705777712093898e-03 0 -1 0
194 1 3.3399946805794216e-03 6.2877073393498284e+00 1.3497109605801560e+00 1.7072853523677201e+00 0 0 0
213 1 3.1419171591479398e-03 3.7466002341740068e+00 6.3307291254310485e+00 1.7592951656657001e+00 0 0 0
214 1 3.5010673420648552e-03 4.9955196833354654e+00 7.5294387692953384e+00 -1.7384370696742417e-02 0 0 0
217 1 3.4340264307422606e-03 5.0383969072001991e+00 6.3020021472848455e+00 2.6776659709753146e+00 0 0 0
219 1 3.4876721370518541e-03 5.0236411354412569e+00 5.0378318963916779e+00 3.8643403512854238e-02 0 0 0
220 1 3.2135136433055237e-03 6.2626284122776106e+00 6.2499011658231947e+00 1.7632118346333119e+00 0 0 0
221 1 2.8937834837977987e-03 6.2948084911516720e+00 3.7726922623973995e+00 1.7592911141807928e+00 0 0 0
222 1 3.5034789535634174e-03 7.5755137827062757e+00 5.0500749530677824e+00 -1.1713494020237996e-03 0 0 0
223 1 3.1467226434210550e-03 6.2782484412075501e+00 4.9804937328739189e+00 8.8485506718563178e-01 0 0 0
487 1 5.3387065381484801e-03 2.2654493450098009e+01 2.5027304992555859e+00 3.5575639534491512e+00 -1 0 0
501 1 5.4412199319030597e-03 6.2805902980440323e-02 5.0045608089425686e+00 3.5559950548720916e+00 0 0 0
504 1 5.4728706986580371e-03 2.5137149172957174e+00 5.0952157742527389e+00 3.5647707841066745e+00 0 0 0
509 1 5.2502908340550268e-03 2.4646388461890441e+00 2.5404781767408884e+00 3.5448468956826327e+00 0 0 0
512 1 5.3502915439028005e-03 5.0070315105763061e+00 2.5238964478043848e+00 3.5338229379013537e+00 0 0 0
517 1 5.1213511841092119e-03 5.0639731126272869e+00 9.3092110036145474e-03 3.5187164873381440e+00 0 0 0
538 1 5.5200512750694826e-03 5.0514068628342761e+00 7.5828350346038214e+00 3.5639405987879114e+00 0 0 0
543 1 5.5032340473683723e-03 5.0309929295858016e+00 5.0623749866028209e+00 3.5354091873236642e+00 0 0 0
546 1 5.4735646639186546e-03 7.5413133177580134e+00 5.0375286920696105e+00 3.6105430032865931e+00 0 0 0
227 1 3.5213313546795890e-03 7.6016231872741820e+00 2.5402299856118464e+00 -2.9290863962681733e-02 0 0 0
551 1 5.4023870977064252e-03 7.5148009781279050e+00 2.4504616283853271e+00 3.5585846874452778e+00 0 0 0
535 1 5.5659248027099236e-03 2.5250334352578796e+00 7.5722496048623515e+00 3.5513632473114387e+00 0 0 0
195 1 3.4134170485050981e-03 7.5848672087263873e+00 2.2646301873108488e+01 -3.3443680531391524e-02 0 -1 0
225 1 3.7808987639508184e-03 7.4891185535290212e+00 3.7476189292660327e+00 2.6320793161304743e+00 0 0 0
519 1 5.4323577767713760e-03 7.6011864825342528e+00 2.2661170546101857e+01 3.5260227695748489e+00 0 -1 0
197 1 3.3948160608050174e-03 7.5807284214102211e+00 1.2669126422824439e+00 2.6496762692185731e+00 0 0 0
224 1 3.5338546687010298e-03 7.5029078947465697e+00 6.2452215234748971e+00 2.7348886318615504e+00 0 0 0
1 1 -2.3212866162833144e-03 1.1794298870881903e-10 3.7816641671078295e+00 -9.9210689940608454e-01 0 0 0
2 1 -2.3084311618266286e-03 2.6457058766027330e-11 1.2605547221065914e+00 -9.9210689982830491e-01 0 0 0
164 1 3.5199093723189507e-03 2.2679517397330557e+01 3.7887936057758820e+00 2.6819402834365724e+00 -1 0 0
165 1 3.6022963596569267e-03 2.2671798033607850e+01 1.2780250694479462e+00 2.6246774246541307e+00 -1 0 0
175 1 3.4569581285141615e-03 4.5427479898385713e-02 6.3057575478378656e+00 2.6468562586766411e+00 0 0 0
173 1 3.3865701412109368e-03 2.2654560183697825e+01 7.6014887388308372e+00 -2.0043113897577482e-02 -1 0 0
215 1 3.0645649731956509e-03 3.7652251143909372e+00 7.5427726642570256e+00 8.9678149483841429e-01 0 0 0
269 1 3.4270781478198129e-03 7.4801678240997251e+00 7.5645909517257177e+00 5.2778468901318751e-02 0 0 0
497 1 5.6373812629770918e-03 6.3572195310226615e-03 7.5565246818091536e+00 3.5320856997549104e+00 0 0 0
593 1 5.3802407173277576e-03 7.5881759871505254e+00 7.5536355590405222e+00 3.6021837084674764e+00 0 0 0
176 1 3.2086675400129299e-03 1.2504267233938284e+00 7.5380847617784426e+00 8.1781055605665454e-01 0 0 0
211 1 3.4210301170200280e-03 2.5269155539819823e+00 7.6214019953979575e+00 -2.9552787283687765e-02 0 0 0
218 1 3.1754845056781150e-03 6.2834578549716840e+00 7.5574408873829544e+00 9.0405528195466212e-01 0 0 0
196 1 3.2250184564150920e-03 6.3197814313867662e+00 7.1979170231267851e-03 7.9411679493237042e-01 0 0 0
167 1 3.3068919314666128e-03 2.2665015268829876e+01 2.2674267939232781e+01 -9.2626579276903598e-02 -1 -1 0
491 1 5.3828731612614936e-03 1.4684230780542059e-02 1.2061918201878604e-02 3.5541645096001555e+00 0 0 0
16 1 -2.3258840577749500e-03 7.5633283339697694e+00 1.2605547216672601e+00 -9.9210690083668629e-01 0 0 0
30 1 -2.4157240729493546e-03 7.5633283340617030e+00 3.7816641668243793e+00 -9.9210689841848476e-01 0 0 0
29 1 -2.2983415902791491e-03 7.5633283338769104e+00 6.3027736117643931e+00 -9.9210689892096560e-01 0 0 0
31 1 1.3387374681776922e-02 8.8238830568721784e+00 3.7816641682033558e+00 -1.6737056490663826e+00 0 0 0
32 1 1.3374079253924026e-02 8.8238830577296472e+00 1.2605547270688575e+00 -1.6737056540416413e+00 0 0 0
33 1 -2.3240786279001904e-03 1.0084437778388944e+01 3.7816641668917654e+00 -9.9210689763585358e-01 0 0 0
34 1 -2.3125498034828932e-03 1.0084437778543252e+01 1.2605547218152171e+00 -9.9210689940457886e-01 0 0 0
35 1 1.3341377206828051e-02 1.1344992503046127e+01 1.2605547256851155e+00 -1.6737056511706014e+00 0 0 0
36 1 -2.2460255745715718e-03 1.2605547223046766e+01 1.2605547220269331e+00 -9.9210689926172457e-01 0 0 0
52 1 1.3422598722149284e-02 8.8238830566876665e+00 6.3027736088535180e+00 -1.6737056507030614e+00 0 0 0
54 1 -2.5113428060525205e-03 1.0084437778066517e+01 6.3027736118399504e+00 -9.9210689805068542e-01 0 0 0
55 1 1.3407404075545085e-02 1.1344992501365944e+01 6.3027736082408952e+00 -1.6737056505405579e+00 0 0 0
56 1 1.3377057397804091e-02 1.1344992501952740e+01 3.7816641669131679e+00 -1.6737056485396851e+00 0 0 0
57 1 -2.5211176695774827e-03 1.2605547223103450e+01 6.3027736118868791e+00 -9.9210689882669667e-01 0 0 0
58 1 -2.4216776811557292e-03 1.2605547222936881e+01 3.7816641670178637e+00 -9.9210689821109421e-01 0 0 0
59 1 1.3413453427418422e-02 1.3866101945970092e+01 3.7816641661630421e+00 -1.6737056491357536e+00 0 0 0
60 1 1.3393987451018309e-02 1.3866101945725154e+01 1.2605547252956266e+00 -1.6737056504348735e+00 0 0 0
61 1 -2.4742739735297511e-03 1.5126656667051535e+01 3.7816641670871838e+00 -9.9210689831835897e-01 0 0 0
62 1 -2.2899609708163229e-03 1.5126656667149128e+01 1.2605547218644808e+00 -9.9210689913578676e-01 0 0 0
87 1 1.3423032877671985e-02 1.3866101945541635e+01 6.3027736083822345e+00 -1.6737056527857126e+00 0 0 0
226 1 3.2552783230956803e-03 8.8151611546209327e+00 5.0447274735727801e+00 8.8441461142152034e-01 0 0 0
228 1 3.2737398131721116e-03 8.8420982579063505e+00 3.7836120727093330e+00 1.7773251873969391e+00 0 0 0
229 1 3.2168644464792735e-03 8.8493951620849867e+00 1.2348942618981291e+00 1.7463984984775576e+00 0 0 0
230 1 3.5565981410225467e-03 1.0131711561781156e+01 2.5345878551321208e+00 4.3483273544107609e-02 0 0 0
231 1 3.2290668192483242e-03 8.8574370272481655e+00 2.4669517447718081e+00 9.1603199077932551e-01 0 0 0
232 1 3.4918767456417156e-03 1.0088678727468045e+01 3.8279423370837389e+00 2.6302573111618481e+00 0 0 0
233 1 3.3379024047013183e-03 1.0097536797213161e+01 1.2825980412488629e+00 2.6712784236698224e+00 0 0 0
234 1 3.0081386393328636e-03 1.1426402806392938e+01 2.5180092329308166e+00 8.5076383855975590e-01 0 0 0
235 1 3.2796664707601562e-03 1.0135257870354327e+01 2.2660177175483383e+01 -6.3041046317299412e-02 0 -1 0
236 1 3.3645850237059875e-03 1.1332028092536998e+01 1.2502191355495387e+00 1.7177722093274890e+00 0 0 0
237 1 3.3805399156385599e-03 1.2613221728881662e+01 4.5630438057511508e-04 6.2239253500554148e-02 0 0 0
239 1 3.5973156495938932e-03 1.2657772530868446e+01 1.2432612726307981e+00 2.6207946882514661e+00 0 0 0
240 1 3.1331831672814074e-03 1.3880078333367907e+01 6.7941527964869783e-02 8.5792894785283391e-01 0 0 0
271 1 3.3061953890723976e-03 8.7609862375749739e+00 6.3195338750716932e+00 1.8472294939887126e+00 0 0 0
273 1 3.2237611039842976e-03 8.7232691361565795e+00 7.5528293433727498e+00 9.1213525146421759e-01 0 0 0
275 1 3.4767316903478469e-03 1.0103336826177078e+01 6.2863532632722361e+00 2.6868083226677184e+00 0 0 0
276 1 3.0621932709419004e-03 1.1348347869147254e+01 7.5129375841191912e+00 8.3749018630774108e-01 0 0 0
277 1 3.4341958002436042e-03 1.0084841232076563e+01 5.0868696675188749e+00 -1.1384360456126799e-02 0 0 0
278 1 3.1917549857238573e-03 1.1356969294018823e+01 6.2661413527476642e+00 1.7747772582748171e+00 0 0 0
279 1 3.2819012017046706e-03 1.1355800768501155e+01 3.7779177473586589e+00 1.7680313138428774e+00 0 0 0
280 1 3.4345384089007358e-03 1.2595730114957853e+01 5.0669309949365253e+00 -1.3801985388541738e-02 0 0 0
281 1 3.1352009520853145e-03 1.1323310846605931e+01 5.0180791377070788e+00 8.7333515254710836e-01 0 0 0
282 1 3.4784204309970513e-03 1.2612690275371900e+01 6.2565784264512070e+00 2.6846638783499572e+00 0 0 0
283 1 3.4536407489445778e-03 1.2603719923610676e+01 3.7595977969595307e+00 2.7405213766314098e+00 0 0 0
284 1 3.3340466238029787e-03 1.3879671753899869e+01 5.0079135609941892e+00 8.4028426179012983e-01 0 0 0
285 1 3.4175516786476789e-03 1.2614608253117007e+01 2.5654520188313095e+00 -1.3202658157355850e-02 0 0 0
286 1 3.1496911912453061e-03 1.3856999448276296e+01 3.7805685476394344e+00 1.7645710392259775e+00 0 0 0
287 1 2.9634596955070759e-03 1.3889222112715281e+01 1.2590907742302944e+00 1.7510842777552083e+00 0 0 0
289 1 3.2334310126570587e-03 1.3897930030632880e+01 2.5551936817462746e+00 9.1222045788295447e-01 0 0 0
342 1 3.2376754385619912e-03 1.3875224076119911e+01 6.2922246674860700e+00 1.7621487477591258e+00 0 0 0
554 1 5.5504285203158889e-03 1.0087960196118132e+01 2.5173483630959392e+00 3.5575636597335709e+00 0 0 0
559 1 5.4344501088043383e-03 1.0059461751270137e+01 1.0893793884568050e-02 3.5240133220753114e+00 0 0 0
561 1 5.3954339054428776e-03 1.2591422048794028e+01 2.2678497379833217e+01 3.5104623378728652e+00 0 -1 0
601 1 5.4775280560114582e-03 1.0046168649279091e+01 5.0142241404421721e+00 3.5741330054336986e+00 0 0 0
604 1 5.2748314107553792e-03 1.2615695337939121e+01 4.9796559975312853e+00 3.5759615140206091e+00 0 0 0
609 1 5.5316668772214545e-03 1.2638317567438433e+01 2.5349896149382252e+00 3.5535020062779510e+00 0 0 0
89 1 -2.3430738694227918e-03 1.5126656667396606e+01 6.3027736118350761e+00 -9.9210689946701758e-01 0 0 0
612 1 5.6916246935631194e-03 1.5204285157672812e+01 2.4925763357352126e+00 3.5329546217849348e+00 0 0 0
344 1 3.1415397935280085e-03 1.3865854595376858e+01 7.5493200668321441e+00 9.3713190075878239e-01 0 0 0
290 1 3.4968213465321248e-03 1.5141965493813265e+01 3.8363082240191333e+00 2.6637801868302442e+00 0 0 0
291 1 3.5133997830656882e-03 1.5166724087178912e+01 1.2628829771088479e+00 2.6284748351965632e+00 0 0 0
288 1 3.4006447702017908e-03 1.5163336759686089e+01 2.5394209562019729e+00 -1.0355502719408072e-03 0 0 0
346 1 3.4445307002911557e-03 1.5164518659445243e+01 6.3193809107642824e+00 2.6524050262203018e+00 0 0 0
348 1 3.1890951622715363e-03 1.5139216130253347e+01 5.0207406518054922e+00 -6.8059178309432589e-02 0 0 0
272 1 3.6486369423737769e-03 1.0091463896155863e+01 7.5281544664619506e+00 -1.5027461961864522e-03 0 0 0
340 1 3.5091221795943059e-03 1.2596614722020039e+01 7.4705284378191017e+00 2.9076551184016856e-02 0 0 0
596 1 5.4847240177863408e-03 1.0070470339116429e+01 7.5237568903615388e+00 3.5375589734568664e+00 0 0 0
664 1 5.5494426800101696e-03 1.2572231903152593e+01 7.4582664538821097e+00 3.5592341789793922e+00 0 0 0
343 1 3.5815949685937035e-03 1.5138866461668039e+01 7.5897827656653014e+00 1.4054027009985190e-02 0 0 0
198 1 3.4571246942262913e-03 8.8892212534197892e+00 2.2603567571209393e+01 8.4040133077387991e-01 0 -1 0
238 1 3.0177488452263488e-03 1.1387874621149219e+01 2.2676493019132408e+01 8.2579606878093414e-01 0 -1 0
293 1 3.4299841330241321e-03 1.5120894241638586e+01 2.2676772128777163e+01 1.0984785581236131e-02 0 -1 0
617 1 5.4299108687321501e-03 1.5117874664516073e+01 2.2659740629090766e+01 3.4787495130414543e+00 0 -1 0
672 1 5.2835892441002747e-03 1.5128104199465053e+01 5.0263774795580298e+00 3.5415303420375697e+00 0 0 0
6 1 -2.3325740452937809e-03 2.2689985001207994e+01 6.3027736118400171e+00 -9.9210690019578474e-01 -1 0 0
63 1 1.3342159501571124e-02 1.6387211388502262e+01 1.2605547268576294e+00 -1.6737056499148570e+00 0 0 0
64 1 -2.3596691338188969e-03 1.7647766111821724e+01 1.2605547215226960e+00 -9.9210689851638401e-01 0 0 0
90 1 1.3362634494239285e-02 1.6387211389752149e+01 6.3027736090737347e+00 -1.6737056527312202e+00 0 0 0
91 1 1.3385806544209275e-02 1.6387211389656713e+01 3.7816641664331088e+00 -1.6737056481365209e+00 0 0 0
92 1 -2.3871498035177466e-03 1.7647766111501678e+01 6.3027736118034339e+00 -9.9210689863453416e-01 0 0 0
93 1 -2.5414863250422322e-03 1.7647766111508709e+01 3.7816641670871585e+00 -9.9210689751171821e-01 0 0 0
94 1 1.3407740738746824e-02 1.8908320832589240e+01 3.7816641664404096e+00 -1.6737056482830588e+00 0 0 0
95 1 1.3369580490554074e-02 1.8908320832706231e+01 1.2605547279067368e+00 -1.6737056510196386e+00 0 0 0
96 1 -2.3782767029724063e-03 2.0168875556669931e+01 3.7816641671018436e+00 -9.9210689818822773e-01 0 0 0
97 1 -2.2723128693270664e-03 2.0168875556914596e+01 1.2605547215751658e+00 -9.9210689911831118e-01 0 0 0
98 1 1.3324078070734730e-02 2.1429430279320655e+01 1.2605547260044745e+00 -1.6737056531190351e+00 0 0 0
122 1 1.3397366728477484e-02 1.8908320832467240e+01 6.3027736091766275e+00 -1.6737056525967497e+00 0 0 0
124 1 -2.3421074024412556e-03 2.0168875556353619e+01 6.3027736118551489e+00 -9.9210689928753593e-01 0 0 0
125 1 1.3359940337191506e-02 2.1429430277770305e+01 6.3027736087788888e+00 -1.6737056552822716e+00 0 0 0
126 1 1.3393706626474423e-02 2.1429430277672445e+01 3.7816641655365526e+00 -1.6737056514651349e+00 0 0 0
292 1 3.1995936374707391e-03 1.6410012818276005e+01 2.5409405308084230e+00 8.2284763457525889e-01 0 0 0
294 1 3.1303143583778499e-03 1.6424888260183323e+01 1.2244475715014085e+00 1.6765812227994725e+00 0 0 0
296 1 3.0280787414216663e-03 1.6400293162027058e+01 1.7697803137689025e-02 8.0942573981002386e-01 0 0 0
297 1 3.6275164556665075e-03 1.7646188066577146e+01 1.2138065425023967e+00 2.6007022755511984e+00 0 0 0
298 1 3.2800315945078779e-03 1.8860195601240520e+01 2.2669874976779944e+01 8.3425912138717817e-01 0 -1 0
347 1 3.0663788563799633e-03 1.6419225859036352e+01 7.5282910234218674e+00 8.4743304370739636e-01 0 0 0
349 1 3.2457381591407442e-03 1.6387164709813955e+01 6.2944813136121782e+00 1.7455988880066979e+00 0 0 0
350 1 3.2071787993890400e-03 1.6372939270067381e+01 3.7969450768325483e+00 1.7486928579428451e+00 0 0 0
351 1 3.4107227365597573e-03 1.7615396697464643e+01 5.0231828124779323e+00 -1.5030173605469011e-02 0 0 0
352 1 3.1330550034951582e-03 1.6333931701410993e+01 5.0208220779223112e+00 7.9455675622678068e-01 0 0 0
353 1 3.5980722923321493e-03 1.7646209379831902e+01 6.2608218515433762e+00 2.6760734110583675e+00 0 0 0
354 1 3.3985190852999529e-03 1.7635873736091810e+01 3.7403471331502809e+00 2.6597018859506245e+00 0 0 0
355 1 3.1700504643503808e-03 1.8897208460901393e+01 5.0018891584789822e+00 8.6709525279516408e-01 0 0 0
356 1 3.3288789225655213e-03 1.7680347945273670e+01 2.5710238856391370e+00 -6.1771393157735020e-02 0 0 0
357 1 3.2360114747463061e-03 1.8907940343712969e+01 3.7772340530323585e+00 1.7746069448866604e+00 0 0 0
358 1 3.1721206421532287e-03 1.8875160343532357e+01 1.2233260141132203e+00 1.7402787591441737e+00 0 0 0
359 1 3.4464189186430906e-03 2.0232246162521644e+01 2.5070935803088936e+00 3.5785171121963673e-02 0 0 0
360 1 3.3196778361936222e-03 1.8925522757476212e+01 2.5093308354976962e+00 8.4027473711278911e-01 0 0 0
361 1 3.3194159159789225e-03 2.0159963300477607e+01 3.7726618329513109e+00 2.6384860648169375e+00 0 0 0
362 1 3.3018282351369656e-03 2.0161009793043224e+01 1.2684955724049909e+00 2.6340385044043844e+00 0 0 0
363 1 3.0922421177726638e-03 2.1468881375994481e+01 2.5173352550443444e+00 8.3854005547731592e-01 0 0 0
365 1 3.2443251313491015e-03 2.1397461460150559e+01 1.2178072821915118e+00 1.7437030638042190e+00 0 0 0
366 1 3.3218758217410686e-03 2.1420631794893332e+01 2.2655436980282378e+01 8.1305322961201965e-01 0 -1 0
409 1 3.3104242321128183e-03 1.7667852419753153e+01 7.5316544212234797e+00 -5.0118923926981496e-03 0 0 0
411 1 3.2973578185019367e-03 1.8921497725116446e+01 6.2544412741793147e+00 1.7374219593614009e+00 0 0 0
415 1 3.6498638639404315e-03 2.0189169003430603e+01 6.2440354841430183e+00 2.7199748577517147e+00 0 0 0
416 1 3.1676289302052774e-03 2.1419560611537623e+01 7.5662343066031639e+00 8.9175690179886891e-01 0 0 0
417 1 3.4879839039229739e-03 2.0144562783181019e+01 5.0116682618937451e+00 -1.0371187800662460e-02 0 0 0
418 1 3.1576632016851658e-03 2.1459330768900610e+01 6.2922886015928903e+00 1.7787471872822189e+00 0 0 0
419 1 3.1548961766863786e-03 2.1462133001122915e+01 3.7640448482947546e+00 1.7964266328948446e+00 0 0 0
420 1 3.2204252680309814e-03 2.1441829360140542e+01 5.0640885661330737e+00 8.8389720959301454e-01 0 0 0
675 1 5.2481810767100144e-03 1.7583005542002180e+01 4.9743988068884644e+00 3.5602365996076655e+00 0 0 0
680 1 5.5282966345736222e-03 1.7623996742861316e+01 2.5272077053692001e+00 3.5801433549596671e+00 0 0 0
683 1 5.5548570812460748e-03 2.0216961913210238e+01 2.5173671234379609e+00 3.5000420780778358e+00 0 0 0
741 1 5.3530245719335635e-03 2.0140801113020359e+01 4.9787129024526413e+00 3.5308896919328414e+00 0 0 0
667 1 5.3550138072703986e-03 1.5094402762874314e+01 7.5328360019350704e+00 3.5446926633782980e+00 0 0 0
412 1 3.5371203904379358e-03 2.0190465257805577e+01 7.5634649744895102e+00 1.2529999902969307e-02 0 0 0
413 1 3.1495650872732758e-03 1.8852490691390898e+01 7.5070434428842949e+00 8.8180923912775111e-01 0 0 0
295 1 3.1821106134306940e-03 1.7596210844166148e+01 2.2689827144620232e+01 -7.5481549025840880e-02 0 -1 0
364 1 3.3513409540741231e-03 2.0152336562440812e+01 2.2634275458152199e+01 -2.4053353567404085e-02 0 -1 0
619 1 5.5867047381079086e-03 1.7683839205512321e+01 2.2629957833794581e+01 3.5648665165387450e+00 0 -1 0
688 1 5.6427399167109206e-03 2.0147749449019077e+01 3.3495487243401040e-02 3.5264944893531625e+00 0 0 0
19 1 1.3376431616837166e-02 1.2605547253777822e+00 1.1344992504486470e+01 -1.6737056538696469e+00 0 0 0
20 1 1.3423966881758365e-02 1.2605547245922393e+00 8.8238830569570279e+00 -1.6737056561845531e+00 0 0 0
21 1 -2.3779121551256777e-03 2.5211094447112492e+00 1.1344992500025485e+01 -9.9210689930490137e-01 0 0 0
22 1 -2.4358744827248568e-03 2.5211094447606950e+00 8.8238830558280732e+00 -9.9210689970168842e-01 0 0 0
23 1 1.3372832109463080e-02 3.7816641679793239e+00 8.8238830571310682e+00 -1.6737056525242282e+00 0 0 0
25 1 -2.3285744996248531e-03 5.0422188897364366e+00 8.8238830557296097e+00 -9.9210689941428509e-01 0 0 0
40 1 1.3373415023879310e-02 1.2605547265205643e+00 1.3866101947105664e+01 -1.6737056493007194e+00 0 0 0
42 1 -2.3185155611213982e-03 2.5211094448425633e+00 1.3866101945017569e+01 -9.9210689784699635e-01 0 0 0
43 1 1.3368679510017325e-02 3.7816641658200090e+00 1.3866101946504003e+01 -1.6737056470323866e+00 0 0 0
44 1 1.3388019932378592e-02 3.7816641676484171e+00 1.1344992504557652e+01 -1.6737056501799765e+00 0 0 0
45 1 -2.2712571891812757e-03 5.0422188896666071e+00 1.3866101945370570e+01 -9.9210689832406396e-01 0 0 0
46 1 -2.4123552675764399e-03 5.0422188895875877e+00 1.1344992500212170e+01 -9.9210689864492008e-01 0 0 0
47 1 1.3350692825738345e-02 6.3027736094119780e+00 1.1344992502809113e+01 -1.6737056509769439e+00 0 0 0
48 1 1.3360241090227189e-02 6.3027736105311041e+00 8.8238830565062294e+00 -1.6737056525891367e+00 0 0 0
75 1 1.3353937467516333e-02 6.3027736079241299e+00 1.3866101944398572e+01 -1.6737056518062179e+00 0 0 0
199 1 3.2124557412533941e-03 3.0774469938893191e-02 1.2576884162941482e+01 -4.2957168627607206e-02 0 0 0
200 1 3.6375787070890096e-03 2.2686167596480697e+01 1.3890809999637613e+01 2.7236794889847737e+00 -1 0 0
202 1 3.3111085739088932e-03 1.2170092500892211e+00 1.2615036667841355e+01 8.8003475669015752e-01 0 0 0
203 1 3.3873521726692632e-03 2.2689543805771180e+01 1.0072848178706201e+01 9.7379556491433792e-03 -1 0 0
204 1 3.1005222387955624e-03 1.2524495861356477e+00 1.1351021727027437e+01 1.7573933660106009e+00 0 0 0
205 1 3.1626095981784150e-03 1.2270645299407501e+00 8.8283247106249636e+00 1.7375209555131885e+00 0 0 0
206 1 3.4329100309603185e-03 2.5465691383608791e+00 1.0090834096428733e+01 1.1005935161273557e-03 0 0 0
207 1 3.1551410747238219e-03 1.2570074923814325e+00 1.0104535955707288e+01 8.4381915743656377e-01 0 0 0
208 1 3.5222880779148700e-03 2.5123140655181180e+00 1.1342061353433738e+01 2.5918235890152657e+00 0 0 0
209 1 3.6047806987118372e-03 2.5164568027190275e+00 8.8148767327671003e+00 2.6334550634354277e+00 0 0 0
210 1 3.2438376908436790e-03 3.7981194778171967e+00 1.0107344206152455e+01 8.4297130295980693e-01 0 0 0
212 1 3.2881389979011097e-03 3.7666384611320654e+00 8.8048257631258000e+00 1.7443683774844798e+00 0 0 0
216 1 3.4818226024302874e-03 5.0722366069872082e+00 8.7897670798017984e+00 2.6500365155545711e+00 0 0 0
247 1 3.2014480467973572e-03 1.2495563983452527e+00 1.3917497910081238e+01 1.7948687188075223e+00 0 0 0
251 1 3.5273110911108775e-03 2.5137340887401005e+00 1.3895755140524011e+01 2.6156043189815201e+00 0 0 0
253 1 3.4177340752752161e-03 2.4908821613451431e+00 1.2612699531822196e+01 -1.2736169108799513e-02 0 0 0
254 1 3.2688259624467941e-03 3.7915822079410328e+00 1.3923616255543374e+01 1.7365465311057580e+00 0 0 0
255 1 3.0719671251892718e-03 3.8144352616940096e+00 1.1325953399103524e+01 1.7712565673559568e+00 0 0 0
256 1 3.4180265586469800e-03 5.0137881275364240e+00 1.2612214559656392e+01 1.0402005000413056e-02 0 0 0
257 1 3.2129271738976276e-03 3.7565360208522103e+00 1.2579681637186194e+01 8.5228876238682350e-01 0 0 0
258 1 3.4586340938493358e-03 5.0368212215497774e+00 1.3858867704158223e+01 2.6172033347058132e+00 0 0 0
259 1 3.3547885244077633e-03 5.0453578778370032e+00 1.1346380025532170e+01 2.6200570277510145e+00 0 0 0
260 1 3.2434443802767787e-03 6.2820450087072421e+00 1.2580024410251644e+01 8.6090219539680124e-01 0 0 0
261 1 3.3474688167037924e-03 5.0888460815883656e+00 1.0107300668810915e+01 -4.0185850701568604e-02 0 0 0
262 1 3.1208587843208585e-03 6.3144632790711084e+00 1.1326385819003587e+01 1.7581717149277045e+00 0 0 0
263 1 3.2003668566395957e-03 6.3178031140027793e+00 8.8285147096819436e+00 1.7650429693725234e+00 0 0 0
265 1 3.1696522510056119e-03 6.3101680682709462e+00 1.0114597924082631e+01 8.2550486349332142e-01 0 0 0
266 1 3.4850029739222268e-03 7.5592155213599561e+00 1.1333435440852050e+01 2.6324801214605564e+00 0 0 0
318 1 3.1529241509310585e-03 6.2942868828489766e+00 1.3847874294869113e+01 1.7752651014049492e+00 0 0 0
319 1 3.4293791793993480e-03 7.5536870056865535e+00 1.5161197995671779e+01 -1.8261235919187047e-02 0 0 0
523 1 5.4636719423780383e-03 2.2686273432158661e+01 1.2600969892085974e+01 3.5910387453650761e+00 -1 0 0
527 1 5.6594756134709214e-03 3.2397135407262544e-02 1.0079077909092492e+01 3.5328006705306270e+00 0 0 0
530 1 5.4512160531949710e-03 2.5176739907759562e+00 1.0081441172285876e+01 3.5834361670702202e+00 0 0 0
577 1 5.7034839414144452e-03 2.5501230168347804e+00 1.2609271435339584e+01 3.5043560861306897e+00 0 0 0
580 1 5.5088982298378388e-03 5.0044983016208056e+00 1.2598570803588730e+01 3.5147160302562761e+00 0 0 0
585 1 5.6660946503578119e-03 5.0297292519285453e+00 1.0076237026265387e+01 3.5254531931917006e+00 0 0 0
264 1 3.3932179276515572e-03 7.5922683424003203e+00 1.0042164199190498e+01 1.7584519359280057e-02 0 0 0
322 1 3.2843754124094243e-03 7.5902815062833708e+00 1.3863511082158983e+01 2.6328829643406118e+00 0 0 0
324 1 3.4103729398774381e-03 7.5484115868079664e+00 1.2653725583202160e+01 -3.9560411232993392e-02 0 0 0
248 1 3.4980369302872794e-03 2.5046540066031291e+00 1.5157626339142194e+01 -1.7178568846119627e-02 0 0 0
316 1 3.4773039515194424e-03 5.0693496623846626e+00 1.5181605009434078e+01 -3.4131914996412153e-02 0 0 0
267 1 3.6489564319831078e-03 7.5726354755754919e+00 8.8220378757440141e+00 2.6600894068745400e+00 0 0 0
77 1 -2.3908204901843442e-03 7.5633283337766448e+00 1.3866101945588319e+01 -9.9210689957187481e-01 0 0 0
588 1 5.2189166141217418e-03 7.6105470672750162e+00 1.0100585448598617e+01 3.5645666065462760e+00 0 0 0
648 1 5.4975133451823349e-03 7.5925747757997097e+00 1.2642952341778715e+01 3.5248185645381382e+00 0 0 0
17 1 -2.3645201484009753e-03 7.8237860634544631e-11 1.3866101945149982e+01 -9.9210689960111587e-01 0 0 0
18 1 -2.3823444902162142e-03 2.1278623307807720e-10 1.1344992500247816e+01 -9.9210690046016703e-01 0 0 0
174 1 3.4299770319309118e-03 4.2602942802279858e-02 8.8217935785359618e+00 2.6505270807739318e+00 0 0 0
201 1 3.4886306046319295e-03 8.8224324540842718e-03 1.1357384339434677e+01 2.6403437736205677e+00 0 0 0
245 1 3.4801058892385841e-03 2.2679905857888496e+01 1.5091525258695153e+01 -1.2110208379047288e-03 -1 0 0
252 1 3.1569638591204150e-03 3.7817531571497645e+00 1.5206553957087136e+01 8.5514742679856826e-01 0 0 0
320 1 3.2055936994092038e-03 6.3055829769527190e+00 1.5108998680558784e+01 9.0286506146475798e-01 0 0 0
49 1 -2.2797735418654220e-03 7.5633283339527058e+00 1.1344992500502716e+01 -9.9210689884853709e-01 0 0 0
50 1 -2.3204072243454602e-03 7.5633283337834118e+00 8.8238830558486168e+00 -9.9210689946872122e-01 0 0 0
51 1 1.3403938172163428e-02 8.8238830558464834e+00 8.8238830556228383e+00 -1.6737056530536676e+00 0 0 0
53 1 -2.2681622319565102e-03 1.0084437778180481e+01 8.8238830561120132e+00 -9.9210689936846252e-01 0 0 0
78 1 1.3364077092508442e-02 8.8238830572606908e+00 1.3866101944406436e+01 -1.6737056534650019e+00 0 0 0
79 1 1.3372512467625554e-02 8.8238830556190013e+00 1.1344992502314462e+01 -1.6737056528568770e+00 0 0 0
80 1 -2.2649906882665767e-03 1.0084437778266183e+01 1.3866101945268595e+01 -9.9210689821187559e-01 0 0 0
81 1 -2.3459831632775107e-03 1.0084437778354051e+01 1.1344992500440947e+01 -9.9210689882493819e-01 0 0 0
82 1 1.3365029711085503e-02 1.1344992502747708e+01 1.1344992504081308e+01 -1.6737056528557013e+00 0 0 0
83 1 1.3325168171713062e-02 1.1344992501320021e+01 8.8238830556837264e+00 -1.6737056544009683e+00 0 0 0
84 1 -2.3606959775830673e-03 1.2605547222788267e+01 1.1344992500139247e+01 -9.9210689878714386e-01 0 0 0
85 1 -2.1973643864120745e-03 1.2605547223110216e+01 8.8238830560601986e+00 -9.9210690034480475e-01 0 0 0
86 1 1.3379971636478827e-02 1.3866101946456810e+01 8.8238830566037620e+00 -1.6737056558469170e+00 0 0 0
88 1 -2.2869551293693861e-03 1.5126656667354121e+01 8.8238830558036128e+00 -9.9210690009939950e-01 0 0 0
110 1 1.3379633660787607e-02 1.1344992504613769e+01 1.3866101946440097e+01 -1.6737056488835711e+00 0 0 0
112 1 -2.2707524950466565e-03 1.2605547223041402e+01 1.3866101944999452e+01 -9.9210689666713925e-01 0 0 0
113 1 1.3379013962218907e-02 1.3866101945937919e+01 1.3866101946837748e+01 -1.6737056459570432e+00 0 0 0
114 1 1.3369282105611393e-02 1.3866101947291689e+01 1.1344992504999228e+01 -1.6737056510198769e+00 0 0 0
115 1 -2.3828250400392604e-03 1.5126656667097050e+01 1.3866101945317460e+01 -9.9210689670361829e-01 0 0 0
116 1 -2.4028737822413349e-03 1.5126656666854187e+01 1.1344992500212911e+01 -9.9210689792689810e-01 0 0 0
268 1 3.2599999669879983e-03 8.8197876493403768e+00 1.0083737038389575e+01 8.9692911596475522e-01 0 0 0
270 1 3.0120424456661870e-03 8.8062738650375021e+00 8.7747526039513950e+00 1.7421435672569621e+00 0 0 0
274 1 3.7421627624787323e-03 1.0093249391712980e+01 8.7915967208005146e+00 2.6325250300790155e+00 0 0 0
325 1 3.1674315188198500e-03 8.8573151729166213e+00 1.3887736090517489e+01 1.7386482058347579e+00 0 0 0
326 1 3.0184134008059173e-03 8.7789561374850926e+00 1.1338880301498461e+01 1.7555838495114651e+00 0 0 0
327 1 3.5008236487816887e-03 1.0033438927062038e+01 1.2580081265046960e+01 6.4173501234028776e-02 0 0 0
328 1 3.1332366554560728e-03 8.7878340035331863e+00 1.2598277836510245e+01 8.6240897258801763e-01 0 0 0
329 1 3.4276452428565300e-03 1.0113773719397297e+01 1.3899500300346185e+01 2.6221728822459314e+00 0 0 0
330 1 3.7142163104522540e-03 1.0029921951424747e+01 1.1359770182351067e+01 2.6700800185724920e+00 0 0 0
331 1 3.1920065334993942e-03 1.1339554511979516e+01 1.2590865203572841e+01 8.5161225033641430e-01 0 0 0
332 1 3.5755435218377688e-03 1.0153646267208249e+01 1.0095048505512217e+01 2.2605112038681378e-02 0 0 0
333 1 3.2178680849030005e-03 1.1377657389397452e+01 1.1366123155941068e+01 1.7395622232598156e+00 0 0 0
334 1 3.2360808244642296e-03 1.1362285627094096e+01 8.7814545117114182e+00 1.7528025257904167e+00 0 0 0
335 1 3.4470950427424422e-03 1.2613843974657168e+01 1.0065048254906259e+01 3.0358475366441501e-02 0 0 0
336 1 3.0515214544272785e-03 1.1399942427306243e+01 1.0094936474631776e+01 8.7815816934797564e-01 0 0 0
337 1 3.6190886895171455e-03 1.2615274460875455e+01 1.1349414718001899e+01 2.7002272952830251e+00 0 0 0
338 1 3.6757023801382541e-03 1.2598957940458117e+01 8.7821549377488441e+00 2.6970867574002528e+00 0 0 0
339 1 3.1448403844417509e-03 1.3902482795928577e+01 1.0109127419038725e+01 8.9227581784098320e-01 0 0 0
341 1 3.1991210030116019e-03 1.3855552006411708e+01 8.8186977594251186e+00 1.7566827082184342e+00 0 0 0
385 1 3.3646939772574908e-03 1.0059872321938863e+01 1.5139245341377158e+01 -4.2720750626315016e-02 0 0 0
387 1 3.1980687803806313e-03 1.1320990198362857e+01 1.3936509493394965e+01 1.7255086311674972e+00 0 0 0
391 1 3.6826014027074800e-03 1.2574573495218161e+01 1.3868851988115784e+01 2.6389586616632363e+00 0 0 0
393 1 3.3307201841395553e-03 1.2593353855850534e+01 1.2591868049927335e+01 -1.8767546161074178e-02 0 0 0
394 1 3.1907700817729086e-03 1.3874351347289632e+01 1.3909629344366621e+01 1.7624280388253450e+00 0 0 0
395 1 3.2018716502552370e-03 1.3843586386914840e+01 1.1339619626782989e+01 1.7650607547102874e+00 0 0 0
397 1 3.3329258531363481e-03 1.3846400003686879e+01 1.2614339674736151e+01 8.1492790990428710e-01 0 0 0
398 1 3.6528301368901109e-03 1.5123724906096996e+01 1.3824344495511070e+01 2.6594128866306486e+00 0 0 0
651 1 5.4782751655879092e-03 1.0079766562680600e+01 1.2657954457064053e+01 3.5146524573260893e+00 0 0 0
656 1 5.4514906840101678e-03 1.0106186898512705e+01 1.0101984595569258e+01 3.5307864172642098e+00 0 0 0
659 1 5.6255691547652167e-03 1.2614341819029244e+01 1.0043381610601472e+01 3.5478070973442173e+00 0 0 0
709 1 5.0382983347494427e-03 1.0121050333013004e+01 1.5176718932443835e+01 3.5516116334258649e+00 0 0 0
717 1 5.4992035205714343e-03 1.2589414416094298e+01 1.2616453541236407e+01 3.5745937366411020e+00 0 0 0
720 1 5.3887577140446221e-03 1.5099932210399681e+01 1.2572566900013586e+01 3.5775691587501428e+00 0 0 0
388 1 3.5693597652303398e-03 1.2586766497964035e+01 1.5171157562177171e+01 2.5578993136705346e-03 0 0 0
396 1 3.3971100180467478e-03 1.5147797292321531e+01 1.2631293024346311e+01 9.9165055301444673e-03 0 0 0
323 1 3.1009594636109299e-03 8.8117529701721811e+00 1.5131018501570113e+01 8.6759399524163339e-01 0 0 0
389 1 3.0537565711308712e-03 1.1310175222258566e+01 1.5183728497078825e+01 8.6022588831842617e-01 0 0 0
439 1 3.4386395344604449e-03 1.5146379727259685e+01 1.5129705662009933e+01 -4.7840035586961260e-02 0 0 0
763 1 5.5654162412821480e-03 1.5150468491350328e+01 1.5086121723373084e+01 3.5777841872555052e+00 0 0 0
725 1 5.6440829395858596e-03 1.5180452177785549e+01 1.0044164720472935e+01 3.5188949937625411e+00 0 0 0
733 1 5.3681166379225898e-03 1.7583394039481838e+01 7.5185144281734910e+00 3.5449296305704405e+00 0 0 0
5 1 -2.4356444124803804e-03 2.2689985001258535e+01 8.8238830559224262e+00 -9.9210690067012075e-01 -1 0 0
345 1 3.4098924834213527e-03 1.5116565105338491e+01 8.7958992422210809e+00 2.6495026513197097e+00 0 0 0
399 1 3.5466228032233075e-03 1.5121352769645881e+01 1.1302395141759703e+01 2.6655204398452188e+00 0 0 0
401 1 3.4194308957732874e-03 1.5119953011248651e+01 1.0144940575852276e+01 -2.2386373028153200e-02 0 0 0
117 1 1.3371067286652894e-02 1.6387211388829936e+01 1.1344992503049566e+01 -1.6737056483449388e+00 0 0 0
118 1 1.3375342246874856e-02 1.6387211390035432e+01 8.8238830567777811e+00 -1.6737056537083015e+00 0 0 0
119 1 -2.2271620915392983e-03 1.7647766111756557e+01 1.1344992500614556e+01 -9.9210689715425271e-01 0 0 0
120 1 -2.3421167538307552e-03 1.7647766111758049e+01 8.8238830557914802e+00 -9.9210689837749944e-01 0 0 0
121 1 1.3406801982994465e-02 1.8908320831730904e+01 8.8238830560964026e+00 -1.6737056533713275e+00 0 0 0
123 1 -2.4143129794303962e-03 2.0168875556729578e+01 8.8238830559272561e+00 -9.9210689921879835e-01 0 0 0
138 1 1.3360292803409647e-02 1.6387211386106923e+01 1.3866101944720150e+01 -1.6737056470337930e+00 0 0 0
140 1 -2.2479378588641671e-03 1.7647766111708620e+01 1.3866101945760061e+01 -9.9210689769913540e-01 0 0 0
141 1 1.3352432480038588e-02 1.8908320830723191e+01 1.3866101943394106e+01 -1.6737056516802655e+00 0 0 0
142 1 1.3358659961931875e-02 1.8908320830705097e+01 1.1344992501052074e+01 -1.6737056504963970e+00 0 0 0
143 1 -2.2572067237891370e-03 2.0168875556860222e+01 1.3866101945635668e+01 -9.9210689970591981e-01 0 0 0
144 1 -2.4186647020011691e-03 2.0168875557120138e+01 1.1344992500652127e+01 -9.9210689906943883e-01 0 0 0
145 1 1.3402944600258268e-02 2.1429430278373072e+01 1.1344992502176630e+01 -1.6737056553796346e+00 0 0 0
146 1 1.3403703622782936e-02 2.1429430277512051e+01 8.8238830561977100e+00 -1.6737056572663151e+00 0 0 0
158 1 1.3361553368889419e-02 2.1429430281097641e+01 1.3866101945030781e+01 -1.6737056539927258e+00 0 0 0
400 1 3.1819299545754604e-03 1.6356978948638009e+01 1.2649601097235177e+01 8.6210554428562824e-01 0 0 0
402 1 3.1844328478404442e-03 1.6415770985297943e+01 1.1351424507235265e+01 1.7695668903435287e+00 0 0 0
403 1 3.2849450408133432e-03 1.6359382937822570e+01 8.7789188661629005e+00 1.7632698714218777e+00 0 0 0
404 1 3.4423062532345566e-03 1.7648126866252095e+01 1.0020447322520765e+01 3.7385727003938621e-02 0 0 0
405 1 3.1859968602493492e-03 1.6392243487505858e+01 1.0105635910244565e+01 8.5193801273896697e-01 0 0 0
406 1 3.5170582134376083e-03 1.7620062677668788e+01 1.1321327831227675e+01 2.6715445692646593e+00 0 0 0
407 1 3.4318512343738850e-03 1.7644855422931087e+01 8.7904163936043709e+00 2.6718130970068152e+00 0 0 0
408 1 3.1770144414710170e-03 1.8914909610765335e+01 1.0010561049441147e+01 8.8669919955422094e-01 0 0 0
410 1 3.2044953637649790e-03 1.8888987033790347e+01 8.7376165907318839e+00 1.7941716862366091e+00 0 0 0
414 1 3.6944459319220588e-03 2.0156851966695786e+01 8.8157299492923578e+00 2.6576711849769481e+00 0 0 0
441 1 3.1154454414057359e-03 1.6421739633322407e+01 1.3879833429130914e+01 1.7736198276934954e+00 0 0 0
443 1 3.2264253516749203e-03 1.6410459628533403e+01 1.5140782580935602e+01 8.9260360127732785e-01 0 0 0
445 1 3.4858833750752841e-03 1.7649491489266531e+01 1.3838890453763241e+01 2.6372477743705818e+00 0 0 0
447 1 3.3881234030023254e-03 1.7641139252969349e+01 1.2609837989529291e+01 2.1088460905885460e-02 0 0 0
448 1 3.2896157223387288e-03 1.8914741427824385e+01 1.3763829892430380e+01 1.7552919712452546e+00 0 0 0
449 1 3.2501337452542326e-03 1.8913493280603163e+01 1.1294985858464649e+01 1.7348801234684812e+00 0 0 0
450 1 3.4945803133190501e-03 2.0137611362816763e+01 1.2571853542982591e+01 -3.3347786582421400e-02 0 0 0
451 1 3.0786902661330815e-03 1.8862699807360190e+01 1.2543276753577814e+01 8.5812137310974745e-01 0 0 0
452 1 3.4585067518186400e-03 2.0210009671840044e+01 1.3862241780118438e+01 2.6424399439974584e+00 0 0 0
453 1 3.8543752707589723e-03 2.0106125191828752e+01 1.1337003702807092e+01 2.7095824745767367e+00 0 0 0
454 1 3.3340140449251284e-03 2.1477447193180677e+01 1.2607284977898873e+01 8.3839494437251594e-01 0 0 0
455 1 3.4919819915668793e-03 2.0163983508923501e+01 1.0061109838051172e+01 -7.8504809972342092e-05 0 0 0
456 1 3.3357478054227359e-03 2.1433491861418517e+01 1.1327834888067303e+01 1.7452460629836291e+00 0 0 0
457 1 3.1834657474359282e-03 2.1405276443527182e+01 8.8072615451391218e+00 1.7977504914939206e+00 0 0 0
458 1 3.1772409843676664e-03 2.1443836371355022e+01 1.0058516061276871e+01 8.7838652962461272e-01 0 0 0
479 1 3.2131708435765415e-03 2.1420414068896619e+01 1.3835995406048109e+01 1.7477978923345279e+00 0 0 0
480 1 3.1283432109004564e-03 2.1473774262920404e+01 1.5130862712870931e+01 8.7640674808976848e-01 0 0 0
728 1 5.6553296128322031e-03 1.7627559013372800e+01 1.0019741828234162e+01 3.5510355418422543e+00 0 0 0
736 1 5.3261183453684685e-03 2.0127222375059020e+01 7.5382093399306083e+00 3.5740185171822487e+00 0 0 0
771 1 5.5232688523287783e-03 1.7623290160896502e+01 1.2558587238517235e+01 3.5674974095630030e+00 0 0 0
774 1 5.3943117984604216e-03 2.0188712764790196e+01 1.2615302896151245e+01 3.5930365565887854e+00 0 0 0
779 1 5.5672967937408909e-03 2.0217625346355494e+01 1.0063738576554259e+01 3.6465362379532444e+00 0 0 0
446 1 3.1201672959772705e-03 1.8890646043474867e+01 1.5078532151869549e+01 8.7148990081964162e-01 0 0 0
442 1 3.3879766305158180e-03 1.7665271792610543e+01 1.5187388538861205e+01 1.9007834219490372e-02 0 0 0
766 1 5.4540480938147819e-03 1.7655958526238663e+01 1.5102601392953943e+01 3.5106442249676393e+00 0 0 0
477 1 3.6184350515767877e-03 2.0186380304286985e+01 1.5165487051505481e+01 7.5508941398406332e-02 0 0 0
801 1 5.4493671570215669e-03 2.0146668399331528e+01 1.5116594881921541e+01 3.5310272641077036e+00 0 0 0
493 1 5.3403219878167324e-03 2.5151551777325190e+00 2.2655094318967631e+01 3.5686365799011068e+00 0 -1 0
572 1 5.5060939313968339e-03 2.5119818713966358e+00 1.5175034831424767e+01 3.5449372451075938e+00 0 0 0
640 1 5.5086462855700987e-03 5.0777673996207531e+00 1.5176849521452420e+01 3.4955373218195729e+00 0 0 0
643 1 5.5179167055689525e-03 7.6206864534549261e+00 1.5093296414512224e+01 3.4771174193002188e+00 0 0 0
569 1 5.1698529622782041e-03 2.2682648585858729e+01 1.5118478035574157e+01 3.5945990989780960e+00 -1 0 0
170 1 3.4357822406721051e-03 1.2355210776252206e+00 2.2640030624209057e+01 9.0083148947444791e-01 0 -1 0
172 1 3.2284290374029077e-03 3.8062511152406349e+00 2.8182640982130636e-03 8.8650728644684584e-01 0 0 0
249 1 3.2199547685008811e-03 1.2450940480782757e+00 1.5178486047744125e+01 9.2894058489184683e-01 0 0 0
39 1 1.3404649722774812e-02 1.2605547274107853e+00 1.6387211388034327e+01 -1.6737056480964769e+00 0 0 0
41 1 -2.4626083216978834e-03 2.5211094447377596e+00 1.6387211389957486e+01 -9.9210689759146820e-01 0 0 0
66 1 1.3394115356566387e-02 1.2605547261439156e+00 2.1429430279471255e+01 -1.6737056509677550e+00 0 0 0
67 1 1.3380936166373581e-02 1.2605547276958164e+00 1.8908320832417104e+01 -1.6737056490913278e+00 0 0 0
68 1 -2.5104401638792735e-03 2.5211094445883568e+00 2.1429430279325150e+01 -9.9210689894568238e-01 0 0 0
69 1 -2.3758404179624057e-03 2.5211094446787139e+00 1.8908320834656760e+01 -9.9210689818280862e-01 0 0 0
70 1 1.3393995355607476e-02 3.7816641638592445e+00 1.8908320831889835e+01 -1.6737056477350361e+00 0 0 0
71 1 1.3396696052256211e-02 3.7816641644902176e+00 1.6387211387687838e+01 -1.6737056466523175e+00 0 0 0
72 1 -2.4469714370898197e-03 5.0422188897205205e+00 1.8908320834716491e+01 -9.9210689978681044e-01 0 0 0
73 1 -2.4098617964656011e-03 5.0422188895748850e+00 1.6387211390110888e+01 -9.9210689898009241e-01 0 0 0
74 1 1.3384098013319173e-02 6.3027736071324831e+00 1.6387211386613313e+01 -1.6737056537695292e+00 0 0 0
99 1 1.3414512158240419e-02 3.7816641638400639e+00 2.1429430278485569e+01 -1.6737056507645147e+00 0 0 0
100 1 -2.5321139103307768e-03 5.0422188896923368e+00 2.1429430279174806e+01 -9.9210690081918729e-01 0 0 0
101 1 1.3419193319015572e-02 6.3027736072892564e+00 2.1429430279902402e+01 -1.6737056585210253e+00 0 0 0
102 1 1.3399053631620365e-02 6.3027736065823392e+00 1.8908320831803316e+01 -1.6737056559886212e+00 0 0 0
242 1 3.4570689525034817e-03 2.2652962267748215e+01 1.8944183232641411e+01 2.6735097465493101e+00 -1 0 0
243 1 3.6060452057959025e-03 2.2634156338994803e+01 1.6408136598570628e+01 2.7215140254729735e+00 -1 0 0
244 1 3.2756199337410836e-03 1.2820622552067780e+00 1.7687648683687971e+01 8.4469389894671099e-01 0 0 0
246 1 3.1266865515983460e-03 1.2964011149317913e+00 1.6420480063830425e+01 1.7533489042636328e+00 0 0 0
250 1 3.5011895873837402e-03 2.4671889838975605e+00 1.6442321416229678e+01 2.6273906257029953e+00 0 0 0
299 1 3.5570037956615223e-03 7.3920289445125922e-02 2.1399580713081193e+01 2.6682888672294709e+00 0 0 0
301 1 2.9197569347233008e-03 1.2846370887772018e+00 2.1388014929643393e+01 1.7702743021106695e+00 0 0 0
302 1 3.3284331787754111e-03 1.2373144122860460e+00 1.8918429256989544e+01 1.7771005518270380e+00 0 0 0
303 1 3.5333383494422039e-03 2.5546727867390522e+00 2.0177466677715710e+01 -4.5284084517497401e-02 0 0 0
304 1 3.1725326403026590e-03 1.2426159168443385e+00 2.0200955299142933e+01 8.9799482621009741e-01 0 0 0
305 1 3.5005899288635210e-03 2.5266992568158484e+00 2.1429848837098319e+01 2.6594288989246690e+00 0 0 0
306 1 3.5509465346518312e-03 2.5124532021434325e+00 1.8921195569243590e+01 2.7424201549949192e+00 0 0 0
307 1 3.1588084418755625e-03 3.8190037236291423e+00 2.0201744267605033e+01 8.9644850569404000e-01 0 0 0
308 1 3.4690729560443666e-03 2.5204120874195608e+00 1.7636415431935450e+01 1.0783852132162259e-02 0 0 0
309 1 3.1959876706804482e-03 3.7706569665602743e+00 1.8940941174504285e+01 1.7655880377286592e+00 0 0 0
310 1 3.2033191889670473e-03 3.8153474706967478e+00 1.6431388176364944e+01 1.7246479664407985e+00 0 0 0
311 1 3.3954878931954004e-03 5.0323312135224620e+00 1.7707917294194470e+01 -2.2523166204602579e-02 0 0 0
312 1 3.1446363439454530e-03 3.8161046526360027e+00 1.7687961835465295e+01 8.9346096858401758e-01 0 0 0
313 1 3.4645964519065806e-03 5.0133542572510459e+00 1.8943982696427362e+01 2.6283314269775313e+00 0 0 0
314 1 3.5920783705576166e-03 5.0901960469650769e+00 1.6414317466597751e+01 2.6352414297492590e+00 0 0 0
315 1 3.2876059837646126e-03 6.3100356390217396e+00 1.7691577044980740e+01 8.1074339263326700e-01 0 0 0
317 1 3.1981421130947885e-03 6.4112050217957171e+00 1.6423824863150212e+01 1.7605320761368868e+00 0 0 0
321 1 3.4610420380583422e-03 7.5743992256314803e+00 1.6365958038425806e+01 2.6755046325560534e+00 0 0 0
367 1 3.1240400297364913e-03 3.8196641511476481e+00 2.1403955219360988e+01 1.7555920612260743e+00 0 0 0
368 1 3.4626526274158485e-03 5.0605717588152421e+00 2.1417730232390596e+01 2.6881595482238776e+00 0 0 0
369 1 3.3244307368409456e-03 5.0280675147316787e+00 2.0207756018248777e+01 -6.2069186379926991e-02 0 0 0
370 1 3.2580873533590844e-03 6.3072855492693707e+00 2.1478133832093846e+01 1.7229283725059452e+00 0 0 0
371 1 3.4375437290941626e-03 6.3195706941586662e+00 1.8953707018567815e+01 1.7744894167082912e+00 0 0 0
373 1 3.1660893859861215e-03 6.3166700149642505e+00 2.0211359790852601e+01 8.1623248416869043e-01 0 0 0
374 1 3.3468978611656307e-03 7.5776486492503006e+00 2.1438753451742883e+01 2.6116975001051257e+00 0 0 0
627 1 5.4224113001694694e-03 2.4982241942716747e+00 2.0191658875495545e+01 3.5335460194618196e+00 0 0 0
632 1 5.3762810361575476e-03 2.5613812806189351e+00 1.7667050701211075e+01 3.5800448314504192e+00 0 0 0
635 1 5.4827051728528475e-03 5.0618085038791589e+00 1.7685330207187217e+01 3.5694598977117491e+00 0 0 0
693 1 5.4590705319845683e-03 5.0765592570919864e+00 2.0184262945950806e+01 3.5467603379769104e+00 0 0 0
104 1 -2.4243390171147048e-03 7.5633283337346864e+00 1.8908320834729061e+01 -9.9210690186310668e-01 0 0 0
375 1 3.2693684392772352e-03 7.6022952598387405e+00 1.8963608822786895e+01 2.6287070673873698e+00 0 0 0
76 1 -2.3837004206290063e-03 7.5633283335088413e+00 1.6387211390228089e+01 -9.9210690081868558e-01 0 0 0
377 1 3.3707435320442028e-03 7.5881369870384798e+00 1.7702017822837743e+01 -2.4471450534368805e-02 0 0 0
701 1 5.5316518465733291e-03 7.5607467179326600e+00 1.7681170950067610e+01 3.5351800197067318e+00 0 0 0
372 1 3.4690539303515082e-03 7.5695243713069633e+00 2.0205524659389699e+01 -1.7657202598827214e-02 0 0 0
696 1 5.6740529360510923e-03 7.5878282241103214e+00 2.0171398373034446e+01 3.5526804577580799e+00 0 0 0
241 1 3.3876672322578037e-03 2.2674835420059981e+01 1.7621559554587300e+01 -5.7133048610891635e-02 -1 0 0
300 1 3.4619450054769697e-03 4.6600867938404414e-02 2.0151386706544407e+01 -4.7009273222763763e-03 0 0 0
565 1 5.3188575719873366e-03 2.2680045602149967e+01 1.7666961851398984e+01 3.5428870403065282e+00 -1 0 0
624 1 5.4087990289617667e-03 2.2678934590640900e+01 2.0198166368910591e+01 3.5845100719370322e+00 -1 0 0
392 1 3.2467330339648482e-03 1.3904582271144626e+01 1.5143889674673828e+01 9.0200845710287825e-01 0 0 0
712 1 5.3579661493288683e-03 1.2648033336354349e+01 1.5186509269031609e+01 3.4787219938925147e+00 0 0 0
103 1 -2.5580668573181317e-03 7.5633283339270001e+00 2.1429430278851687e+01 -9.9210690264897639e-01 0 0 0
105 1 1.3379671423550637e-02 8.8238830581414618e+00 1.8908320832059932e+01 -1.6737056576046097e+00 0 0 0
106 1 1.3381997431725261e-02 8.8238830583958521e+00 1.6387211386488708e+01 -1.6737056548511280e+00 0 0 0
107 1 -2.3619303653491281e-03 1.0084437778356664e+01 1.8908320834702778e+01 -9.9210690015552438e-01 0 0 0
108 1 -2.5326472799326711e-03 1.0084437778246519e+01 1.6387211390154398e+01 -9.9210689884458514e-01 0 0 0
109 1 1.3407999592372145e-02 1.1344992505073371e+01 1.6387211386753624e+01 -1.6737056484642965e+00 0 0 0
111 1 -2.4837126496866794e-03 1.2605547223494364e+01 1.6387211390171480e+01 -9.9210689711284128e-01 0 0 0
127 1 1.3418254886845522e-02 8.8238830581803178e+00 2.1429430280986438e+01 -1.6737056591948827e+00 0 0 0
128 1 -2.4675958102282039e-03 1.0084437778426230e+01 2.1429430278778785e+01 -9.9210690078274877e-01 0 0 0
129 1 1.3376737516851540e-02 1.1344992504017464e+01 2.1429430280552939e+01 -1.6737056540433219e+00 0 0 0
130 1 1.3372778108695206e-02 1.1344992504518883e+01 1.8908320831653644e+01 -1.6737056520768563e+00 0 0 0
131 1 -2.3970914293833280e-03 1.2605547223137696e+01 2.1429430278890820e+01 -9.9210689991968071e-01 0 0 0
132 1 -2.4040999718431761e-03 1.2605547223371556e+01 1.8908320834811505e+01 -9.9210689898433424e-01 0 0 0
133 1 1.3352833370673384e-02 1.3866101944064630e+01 1.8908320830988071e+01 -1.6737056505416215e+00 0 0 0
134 1 1.3394417982681109e-02 1.3866101944336057e+01 1.6387211386254627e+01 -1.6737056464683600e+00 0 0 0
147 1 1.3395811462548266e-02 1.3866101944705942e+01 2.1429430280480155e+01 -1.6737056526419523e+00 0 0 0
148 1 -2.4800235185897376e-03 1.5126656667291829e+01 2.1429430278736856e+01 -9.9210690049580186e-01 0 0 0
376 1 3.2913241324759868e-03 8.8951766185899714e+00 2.0138710259775415e+01 8.9426704128550405e-01 0 0 0
378 1 3.2057280450184258e-03 8.8349781065817901e+00 1.8893903439256633e+01 1.7753998612465192e+00 0 0 0
379 1 3.1457047709835609e-03 8.8627509287979773e+00 1.6388620469259962e+01 1.7409771450826630e+00 0 0 0
380 1 3.2910226789734792e-03 1.0090004645312506e+01 1.7620485489877375e+01 -5.3435061236535956e-02 0 0 0
381 1 3.2793509544586149e-03 8.8547438512407783e+00 1.7594727206206315e+01 8.3212882827291756e-01 0 0 0
382 1 3.3832702635900359e-03 1.0124995691253670e+01 1.8956773712906060e+01 2.6151953531357814e+00 0 0 0
383 1 3.5742711093070759e-03 1.0094678924886408e+01 1.6398959678387151e+01 2.6636657817730409e+00 0 0 0
384 1 3.2339184670092517e-03 1.1329900386072529e+01 1.7598637570394992e+01 8.5483732918560307e-01 0 0 0
386 1 3.0735733813172170e-03 1.1359649102747513e+01 1.6385946705206671e+01 1.7300056121373648e+00 0 0 0
390 1 3.3927832854012906e-03 1.2623001021063263e+01 1.6417691533421113e+01 2.6227915973056510e+00 0 0 0
421 1 2.8475642779685062e-03 8.8496631298241422e+00 2.1386260335653045e+01 1.8033979902628181e+00 0 0 0
422 1 3.3817001135933310e-03 1.0024719788882194e+01 2.1540792499939940e+01 2.6172042658780352e+00 0 0 0
423 1 3.4281638722725152e-03 1.0100026828306957e+01 2.0155937787297415e+01 -2.5056861859324511e-02 0 0 0
424 1 3.2394223327239908e-03 1.1367539657249578e+01 2.1405874738369530e+01 1.7326561944110348e+00 0 0 0
425 1 3.3197784314170052e-03 1.1365999885675640e+01 1.8940231693512356e+01 1.7248768238112802e+00 0 0 0
426 1 3.1895907547244227e-03 1.2615486110104598e+01 2.0182271966921729e+01 -7.2620728442324645e-02 0 0 0
427 1 3.1188113686590308e-03 1.1406526769672089e+01 2.0194280773374189e+01 8.1112878291482771e-01 0 0 0
428 1 3.4629173996453249e-03 1.2586555287409823e+01 2.1409762607901666e+01 2.6345106714239681e+00 0 0 0
429 1 3.1263287922756863e-03 1.2657955439946491e+01 1.8926926924429896e+01 2.5986556315543616e+00 0 0 0
430 1 3.1382384926880100e-03 1.3854494032619808e+01 2.0221794048271811e+01 8.1107395114372050e-01 0 0 0
431 1 3.5092162765172482e-03 1.2610704335605808e+01 1.7659459033446065e+01 -1.8290331269814074e-02 0 0 0
432 1 3.2820024368623553e-03 1.3926000346143194e+01 1.8943643474895051e+01 1.7368322180335454e+00 0 0 0
433 1 3.1192498910125863e-03 1.3907680058935608e+01 1.6433078553725803e+01 1.7461975763549258e+00 0 0 0
435 1 3.1958207287078409e-03 1.3912694362234411e+01 1.7663208661681821e+01 8.7738700534116199e-01 0 0 0
437 1 3.6536991924066326e-03 1.5147073211977098e+01 1.6375902224309048e+01 2.6968644412019205e+00 0 0 0
459 1 3.2123292689868106e-03 1.3844072198341525e+01 2.1391122876881262e+01 1.7493307794455231e+00 0 0 0
460 1 3.5323741710831975e-03 1.5139645229151649e+01 2.1380566853052269e+01 2.6474688937480297e+00 0 0 0
704 1 5.4411676002204638e-03 1.0130233765747631e+01 1.7685013552142184e+01 3.5636032333602161e+00 0 0 0
747 1 5.4870498154040012e-03 1.0093733924243081e+01 2.0171177569289604e+01 3.5518587415747618e+00 0 0 0
750 1 5.2604350990167947e-03 1.2624950820498258e+01 2.0100445265436129e+01 3.4954089169562388e+00 0 0 0
755 1 5.2763586612025572e-03 1.2607543579469272e+01 1.7688492203899806e+01 3.4854583929710135e+00 0 0 0
135 1 -2.3909015304277559e-03 1.5126656667501404e+01 1.8908320834815246e+01 -9.9210690001254120e-01 0 0 0
436 1 3.3508453269240359e-03 1.5154769607733259e+01 1.8901448827197036e+01 2.6635749453649225e+00 0 0 0
434 1 3.4910556380650264e-03 1.5116768889148535e+01 1.7683841100174675e+01 -3.2647231861414494e-02 0 0 0
758 1 5.4169920612537900e-03 1.5155848538587174e+01 1.7608243385182082e+01 3.5683389098469487e+00 0 0 0
461 1 3.3535267207874648e-03 1.5096648670153881e+01 2.0215067984178429e+01 -4.7670783271615204e-02 0 0 0
785 1 5.2875206333674787e-03 1.5174113062866759e+01 2.0109925147798020e+01 3.5264728249418598e+00 0 0 0
37 1 -2.4197169269951236e-03 2.2689985000937678e+01 1.8908320834626618e+01 -9.9210690081251351e-01 -1 0 0
38 1 -2.4191328912293191e-03 2.2689985001081205e+01 1.6387211390075581e+01 -9.9210689970833821e-01 -1 0 0
65 1 -2.4402214524201697e-03 2.2689985001058851e+01 2.1429430278927843e+01 -9.9210690081588526e-01 -1 0 0
136 1 -2.3850859147408403e-03 1.5126656667614125e+01 1.6387211390331544e+01 -9.9210689800270768e-01 0 0 0
137 1 1.3390871365386478e-02 1.6387211384301434e+01 1.6387211385354153e+01 -1.6737056505957317e+00 0 0 0
139 1 -2.4014576092964445e-03 1.7647766111846625e+01 1.6387211390456525e+01 -9.9210689991023893e-01 0 0 0
149 1 1.3384413896869327e-02 1.6387211386217732e+01 2.1429430282343628e+01 -1.6737056548442246e+00 0 0 0
150 1 1.3366384185273522e-02 1.6387211384465129e+01 1.8908320831394899e+01 -1.6737056547256164e+00 0 0 0
151 1 -2.4627096898653389e-03 1.7647766111874148e+01 2.1429430278327935e+01 -9.9210690150245906e-01 0 0 0
152 1 -2.2845611855129692e-03 1.7647766111864424e+01 1.8908320834640833e+01 -9.9210690215520869e-01 0 0 0
153 1 1.3407516994310004e-02 1.8908320832236395e+01 1.8908320832474271e+01 -1.6737056601791840e+00 0 0 0
154 1 1.3420271825400844e-02 1.8908320831402008e+01 1.6387211385392320e+01 -1.6737056562166543e+00 0 0 0
155 1 -2.5267993735679623e-03 2.0168875556506055e+01 1.8908320834568453e+01 -9.9210690319584116e-01 0 0 0
156 1 -2.3284029847313644e-03 2.0168875556567237e+01 1.6387211390343129e+01 -9.9210690125623680e-01 0 0 0
157 1 1.3354496083982577e-02 2.1429430283462356e+01 1.6387211386806275e+01 -1.6737056555318792e+00 0 0 0
159 1 1.3412747850643732e-02 1.8908320832804939e+01 2.1429430284071874e+01 -1.6737056583255987e+00 0 0 0
160 1 -2.4298300162537492e-03 2.0168875556674944e+01 2.1429430278345862e+01 -9.9210690225880005e-01 0 0 0
161 1 1.3386131520342981e-02 2.1429430282804532e+01 2.1429430282609957e+01 -1.6737056572190594e+00 0 0 0
162 1 1.3376969075149670e-02 2.1429430284440610e+01 1.8908320832863371e+01 -1.6737056579876681e+00 0 0 0
438 1 3.1722566556836229e-03 1.6425121059764365e+01 1.7660307908071651e+01 8.8809926953636675e-01 0 0 0
440 1 3.0695384980153552e-03 1.6402045842188588e+01 1.6429618884419256e+01 1.7600093901765717e+00 0 0 0
444 1 3.5185526465313700e-03 1.7633305465079673e+01 1.6367601592674532e+01 2.6815990766857039e+00 0 0 0
462 1 3.1007898647140444e-03 1.6442613664254910e+01 2.1442702292846946e+01 1.7432422306800426e+00 0 0 0
463 1 3.2055183356454985e-03 1.6429528351489267e+01 1.8919461004999370e+01 1.7603978777152105e+00 0 0 0
464 1 3.3467929232628493e-03 1.7619060008824988e+01 2.0196071039654797e+01 -8.8016297887291133e-03 0 0 0
465 1 3.2777058114282008e-03 1.6366873741717761e+01 2.0234597654163888e+01 8.5091478323739778e-01 0 0 0
466 1 3.5508760676500901e-03 1.7634519129573075e+01 2.1396778636603095e+01 2.6533518481224574e+00 0 0 0
467 1 3.4930286712744397e-03 1.7665544553561055e+01 1.8889874293401849e+01 2.6510040266519646e+00 0 0 0
468 1 3.1643530442790999e-03 1.8911142828128707e+01 2.0141375755388914e+01 7.7650934808419070e-01 0 0 0
469 1 3.4311985369843432e-03 1.7631383368479494e+01 1.7632360271422922e+01 1.8633988095600344e-02 0 0 0
470 1 3.2858385084887027e-03 1.8938397131537492e+01 1.8933141238506256e+01 1.7183054986257444e+00 0 0 0
471 1 3.2550850381528303e-03 1.8905796307955889e+01 1.6378940125755150e+01 1.7536441488517134e+00 0 0 0
472 1 3.2442197219579574e-03 2.0216994106259694e+01 1.7701564057882184e+01 -5.3546587328624468e-02 0 0 0
473 1 3.2891710103547553e-03 1.8938401315828816e+01 1.7633814757713690e+01 8.6866183159707500e-01 0 0 0
474 1 3.3295852583764803e-03 2.0188661378011208e+01 1.8914875764549524e+01 2.6566946923022856e+00 0 0 0
475 1 3.3743704702084111e-03 2.0219863600003730e+01 1.6372720806497160e+01 2.6182378914798057e+00 0 0 0
476 1 3.2710892675759671e-03 2.1409865374345223e+01 1.7662205356402279e+01 8.2321205879012882e-01 0 0 0
478 1 3.1630216881408388e-03 2.1455310666546286e+01 1.6395396723616660e+01 1.7740875832761325e+00 0 0 0
481 1 3.3364574701158735e-03 1.8908441802553927e+01 2.1401370797293598e+01 1.7427418137978452e+00 0 0 0
482 1 3.6470687786810461e-03 2.0186787007062751e+01 2.1421637296595030e+01 2.6346341827107649e+00 0 0 0
483 1 3.2744137242593017e-03 2.0192412587896747e+01 2.0137337016208978e+01 -4.3062037377478740e-02 0 0 0
484 1 3.2529042417806207e-03 2.1461891584574477e+01 2.1376373765855899e+01 1.7872691837067638e+00 0 0 0
485 1 3.0751866993281103e-03 2.1449889826475104e+01 1.8908666421960397e+01 1.7603928797725346e+00 0 0 0
486 1 3.1603079386125690e-03 2.1400784916856779e+01 2.0128539984221689e+01 8.1750287187230031e-01 0 0 0
788 1 5.4962551567418151e-03 1.7652889394966603e+01 2.0103730537596441e+01 3.5844403760530947e+00 0 0 0
793 1 5.3636256757637335e-03 1.7646537143250583e+01 1.7602513787847840e+01 3.5562956049215995e+00 0 0 0
796 1 5.2560206143122601e-03 2.0172701529358086e+01 1.7628090084469569e+01 3.4953100177207359e+00 0 0 0
807 1 5.3738785415285385e-03 2.0197312549206160e+01 2.0138386398379470e+01 3.5190885888926204e+00 0 0 0
490 1 3.1545115087825435e-03 1.2303026256863963e+00 2.5499973384382568e+00 4.4510151688542487e+00 0 0 0
492 1 -3.3724892138946496e-03 1.2264084096722858e+00 1.2541511235822880e+00 5.3758822840112366e+00 0 0 0
495 1 4.8623283520592272e-03 2.5103760873421308e+00 1.2732897583879541e+00 6.1825558021960925e+00 0 0 0
502 1 -3.8844863712906084e-03 1.2718499813706183e+00 6.3273987317213765e+00 5.3394514007095317e+00 0 0 0
503 1 -3.4814690618341997e-03 1.2134800765891898e+00 3.7604375239386929e+00 5.3181644809108173e+00 0 0 0
505 1 3.2756656058614600e-03 1.2738245708364453e+00 5.0368156055625777e+00 4.4594758396468350e+00 0 0 0
506 1 4.3479304401654517e-03 2.5064081654935109e+00 6.3054771964862351e+00 6.2469837037457685e+00 0 0 0
507 1 3.6409991139170175e-03 2.4159108731622285e+00 3.7868223508040999e+00 6.2368029889654499e+00 0 0 0
508 1 3.4317168875828310e-03 3.7311697713471927e+00 5.0487898827031383e+00 4.4525734324194239e+00 0 0 0
510 1 -3.1144952422766329e-03 3.7386779242068156e+00 3.7731918342139559e+00 5.3264347750758470e+00 0 0 0
511 1 -3.3829078440954247e-03 3.7905366745483144e+00 1.2636429613239859e+00 5.2755117148059849e+00 0 0 0
513 1 3.6389128217280825e-03 3.6939008469855605e+00 2.4627052470950015e+00 4.4142210238275865e+00 0 0 0
514 1 5.1330872571613024e-03 4.9845137818072214e+00 3.7464072879667460e+00 6.2491214885622481e+00 0 0 0
515 1 5.3497906052336298e-03 5.0270290611639288e+00 1.2634785454523390e+00 6.2574272635212749e+00 0 0 0
516 1 3.3922716934798513e-03 6.2564189152823184e+00 2.5154357115290615e+00 4.4461550237687391e+00 0 0 0
518 1 -3.7569524289570878e-03 6.2850645300539982e+00 1.2663723698603486e+00 5.3536342848037952e+00 0 0 0
537 1 -3.6873772822094177e-03 3.7910756706911624e+00 6.2546785619097527e+00 5.3430918126656426e+00 0 0 0
541 1 4.9674165820476554e-03 5.0212711573842439e+00 6.3096764727563164e+00 6.2213153116310353e+00 0 0 0
544 1 -3.1855567390371032e-03 6.2743123334630706e+00 6.2920352124771437e+00 5.3447782120578662e+00 0 0 0
545 1 -3.3911568901591883e-03 6.2436661785847685e+00 3.7544314959096652e+00 5.3565564973513027e+00 0 0 0
547 1 3.1602103897476765e-03 6.2648280011376754e+00 5.0694429362393398e+00 4.4641711173436116e+00 0 0 0
814 1 -1.1812225746099291e-02 1.2172006252770380e+00 2.4949800285367481e+00 8.0710296269092439e+00 0 0 0
816 1 5.4253296307498668e-03 1.2524865115946842e+00 1.2498048767664609e+00 8.9425241527415071e+00 0 0 0
819 1 -8.5644642490512193e-02 2.4925787452618509e+00 1.2923405890140516e+00 9.8220867342584359e+00 0 0 0
826 1 1.3707963334984681e-03 1.2226002607802577e+00 6.3070268101111546e+00 8.9573484057901656e+00 0 0 0
827 1 5.2923926938289630e-03 1.2056193777313757e+00 3.7588882056661981e+00 8.9552394624459630e+00 0 0 0
828 1 2.0555135693152270e-02 2.4710357713284896e+00 5.0272750735003351e+00 7.0675091730863748e+00 0 0 0
829 1 -9.1896767869501534e-03 1.2243892192397892e+00 5.0154046893797641e+00 8.0316174067145809e+00 0 0 0
830 1 -8.9851030493722589e-02 2.5158306681210982e+00 6.2912267496777634e+00 9.8078393566551085e+00 0 0 0
831 1 -8.7480654073831876e-02 2.4846484041350259e+00 3.8382679628042053e+00 9.8077638159965321e+00 0 0 0
832 1 -8.0970773210388407e-03 3.7898582284524340e+00 5.0563127311521496e+00 7.9810740225445755e+00 0 0 0
833 1 2.1124562053226940e-02 2.4274577642773489e+00 2.5652939467345068e+00 7.1310932592285301e+00 0 0 0
834 1 4.4714426517653699e-03 3.8174491879665222e+00 3.7746364272877502e+00 8.8522131623344773e+00 0 0 0
835 1 7.8106933651612758e-04 3.7595034522348407e+00 1.2609212096089955e+00 9.0353199789852869e+00 0 0 0
836 1 2.0419165301640185e-02 4.9996392447305071e+00 2.4907594129919741e+00 7.1438064432513446e+00 0 0 0
837 1 -9.3777358663917534e-03 3.7251500098791319e+00 2.5662121417952646e+00 8.0130263752195781e+00 0 0 0
838 1 -8.4465541736103142e-02 5.0243591652844231e+00 3.8107982639951294e+00 9.8223033192207510e+00 0 0 0
839 1 -8.2455741000538124e-02 5.0661249271935000e+00 1.2406809676651003e+00 9.9298942754374622e+00 0 0 0
840 1 -9.7175348231928072e-03 6.2974369867038673e+00 2.5202245280793454e+00 8.0417406816340975e+00 0 0 0
842 1 3.8703237643231050e-03 6.3192187808403171e+00 1.2668102098883720e+00 8.9809798392586586e+00 0 0 0
861 1 4.3250676248015188e-03 3.7541267513535050e+00 6.2814294765774612e+00 8.9136407407274518e+00 0 0 0
865 1 -9.4585863601900980e-02 5.0900368086168601e+00 6.3203951951545214e+00 9.8303088965699885e+00 0 0 0
867 1 2.0385036705456355e-02 5.0350356281613529e+00 5.0574605018156422e+00 7.1445139602793342e+00 0 0 0
868 1 5.4387672141998893e-03 6.3062909735601496e+00 6.3294361550488292e+00 8.8979857329756982e+00 0 0 0
869 1 1.2707437725248756e-03 6.3324770614441244e+00 3.7645345036753413e+00 8.8713015377883693e+00 0 0 0
870 1 1.9518001689676157e-02 7.5247190897148348e+00 5.0939701791382159e+00 7.1415459059748017e+00 0 0 0
871 1 -1.0333510768633637e-02 6.2808759877659703e+00 5.0381727895740287e+00 8.0328185161260084e+00 0 0 0
845 1 -8.6964177807438703e-02 7.5483083475019219e+00 1.2175423281955098e+00 9.8443843138193543e+00 0 0 0
823 1 -8.6518397081753240e-02 2.2622427920654665e+01 6.3163751993709338e+00 9.8561281010078599e+00 -1 0 0
873 1 -7.8451141432833715e-02 7.5939655305894904e+00 3.7488015040284965e+00 9.8355326242148511e+00 0 0 0
812 1 -8.9802674277788527e-02 8.1353386394222380e-03 3.7746166967934660e+00 9.8451192335392115e+00 0 0 0
813 1 -8.7364729589589407e-02 5.1673964637238744e-02 1.2661659776392005e+00 9.8744605092307758e+00 0 0 0
539 1 3.2420935003431013e-03 3.7503090677111475e+00 7.5090880457588280e+00 4.4277558495389542e+00 0 0 0
542 1 3.0487921662625400e-03 6.3016423460355808e+00 7.6073210858192102e+00 4.4537058796655353e+00 0 0 0
824 1 -7.5646858421062422e-03 1.2708290493762084e+00 7.5427472970892557e+00 8.0157016056714046e+00 0 0 0
494 1 3.2163430685700082e-03 1.2188471290612506e+00 2.2682771544969995e+01 4.4792237012555969e+00 0 -1 0
520 1 3.9731677206388590e-03 6.3027407701858600e+00 2.3447055142313704e-02 4.4022247394623175e+00 0 0 0
844 1 -1.1162546313819839e-02 6.2943375115609586e+00 3.2569759685755649e-03 8.0775276514222210e+00 0 0 0
521 1 4.5862668577167790e-03 7.5228284817176556e+00 1.2764740127265701e+00 6.2883157683225859e+00 0 0 0
875 1 2.0499625900759485e-02 7.4932929233202978e+00 2.4995227628326879e+00 7.1322729904791338e+00 0 0 0
549 1 5.6038575409581700e-03 7.4922740442760905e+00 3.8273827089357257e+00 6.2835564745816130e+00 0 0 0
548 1 5.3561695554624885e-03 7.5273178659992368e+00 6.3247429949616363e+00 6.2730947752368218e+00 0 0 0
550 1 3.0760277348743184e-03 8.8150450092600448e+00 5.0210477350239797e+00 4.4700007753155768e+00 0 0 0
552 1 -3.4078538272279582e-03 8.7901201956731505e+00 3.7684961416354157e+00 5.3555098465215574e+00 0 0 0
553 1 -3.0164849590870574e-03 8.8261224568332874e+00 1.3215783809488926e+00 5.4054106979790664e+00 0 0 0
555 1 3.4651133887775129e-03 8.8253642961276704e+00 2.5104394511409369e+00 4.4449837688314791e+00 0 0 0
556 1 5.2076143228200157e-03 1.0093833214786013e+01 3.7421126112403926e+00 6.2365438028509717e+00 0 0 0
557 1 4.1538894452094232e-03 1.0119263673176446e+01 1.2492928045785363e+00 6.2251382143341143e+00 0 0 0
558 1 3.2078630402842339e-03 1.1369747411056897e+01 2.5245827994432979e+00 4.4665038993789299e+00 0 0 0
560 1 -3.1836453107528754e-03 1.1361099543902171e+01 1.2381653101644250e+00 5.3480888020889044e+00 0 0 0
563 1 3.9386805281301394e-03 1.2571718430721937e+01 1.1254547447924044e+00 6.2208931919185186e+00 0 0 0
564 1 3.8936311290938531e-03 1.3891256821882482e+01 2.2683225849117708e+01 4.4048860777250471e+00 0 -1 0
595 1 -3.7767837460770709e-03 8.8103837470084478e+00 6.3249361208254102e+00 5.3411458754068661e+00 0 0 0
597 1 3.3175601483678733e-03 8.8477300677141333e+00 7.5007018979305684e+00 4.4218397766535915e+00 0 0 0
599 1 5.4943196578445559e-03 1.0084343389875331e+01 6.3074650916639383e+00 6.2615782899604442e+00 0 0 0
600 1 3.1450210366283653e-03 1.1376913534032747e+01 7.5366452079362229e+00 4.5092485882158666e+00 0 0 0
602 1 -3.1382966034836806e-03 1.1308360331037518e+01 6.2178221900281985e+00 5.3791736743437104e+00 0 0 0
603 1 -3.6119462711764385e-03 1.1351489824350811e+01 3.7697443355685141e+00 5.4263415449078503e+00 0 0 0
605 1 3.0792611645993001e-03 1.1369716285244277e+01 4.9810048216397051e+00 4.4606928595023492e+00 0 0 0
606 1 6.0696089937799921e-03 1.2676264348651937e+01 6.2471423869361429e+00 6.2976243415357045e+00 0 0 0
607 1 6.0171999237543898e-03 1.2598233558902509e+01 3.7054824712786858e+00 6.3033759310097928e+00 0 0 0
608 1 3.3973947611666889e-03 1.3851275386121570e+01 5.0495476679180866e+00 4.4472293389009359e+00 0 0 0
610 1 -4.1108640786560241e-03 1.3885983595909254e+01 3.7649376133373331e+00 5.3785523221299503e+00 0 0 0
611 1 -3.8065624204274774e-03 1.3878809701966071e+01 1.2329935766510267e+00 5.3053281388292408e+00 0 0 0
613 1 3.7857544388277984e-03 1.3931768267817210e+01 2.4852601344384517e+00 4.4521722925596272e+00 0 0 0
666 1 -3.9344910002829647e-03 1.3900478531573931e+01 6.2846270255729930e+00 5.3811768755528568e+00 0 0 0
872 1 -9.2842456635026591e-02 7.5576492877066306e+00 6.3325928018404305e+00 9.8385851098285180e+00 0 0 0
874 1 -1.0044716764406159e-02 8.8227029180265930e+00 5.0431771839013875e+00 8.0581205092632917e+00 0 0 0
876 1 3.7208649331240983e-03 8.7940422505023363e+00 3.7622820368005665e+00 8.9744159258579490e+00 0 0 0
877 1 2.9169312353257352e-03 8.8288820374888068e+00 1.2774517590462684e+00 8.8892895250194872e+00 0 0 0
878 1 2.0624767058473558e-02 1.0067115203238414e+01 2.4982968192732198e+00 7.1681984205286362e+00 0 0 0
879 1 -8.5400382003770828e-03 8.7910917806878874e+00 2.5085961086696220e+00 7.9792295563615099e+00 0 0 0
880 1 -8.9994413269159898e-02 1.0080408995306898e+01 3.7798638471470363e+00 9.8464753334235446e+00 0 0 0
881 1 -8.9333548194716034e-02 1.0118303313725507e+01 1.2571763404695631e+00 9.8402238389521859e+00 0 0 0
882 1 -9.9718652405267789e-03 1.1342685198351537e+01 2.4923202612624178e+00 8.0614626433153589e+00 0 0 0
884 1 3.9263369879757610e-03 1.1301212984686114e+01 1.2268931051875518e+00 8.8972184112845998e+00 0 0 0
887 1 -8.2377802841570605e-02 1.2599769283185509e+01 1.2439476943673766e+00 9.7621383082500035e+00 0 0 0
888 1 -9.0373432526435604e-03 1.3848268260735452e+01 2.2660720682750778e+01 8.0036041088932670e+00 0 -1 0
919 1 4.8287850469991038e-03 8.7809525999238858e+00 6.3747868462197133e+00 8.9502784091490373e+00 0 0 0
923 1 -8.8379916609451104e-02 1.0077075639171390e+01 6.3165609228402069e+00 9.8189603247092858e+00 0 0 0
924 1 -9.1898641045387412e-03 1.1307119354509130e+01 7.5485874072714969e+00 8.0091116466965957e+00 0 0 0
925 1 2.1582698505327173e-02 1.0056327256332157e+01 5.0156097917944420e+00 7.1661071333984863e+00 0 0 0
926 1 3.3405265439727695e-03 1.1318231553194728e+01 6.2678670985463354e+00 9.0080448687539203e+00 0 0 0
927 1 1.4888255739184788e-03 1.1333519572744724e+01 3.7667014176502476e+00 8.9559067558322276e+00 0 0 0
928 1 2.0045016225108975e-02 1.2609532348596145e+01 5.0097421242254585e+00 7.1904353499324447e+00 0 0 0
929 1 -9.8760562994638316e-03 1.1318375121858631e+01 5.0748190106329334e+00 8.0759281509485383e+00 0 0 0
930 1 -8.7874504756892985e-02 1.2556155014600506e+01 6.3094190768578411e+00 9.8618054005871301e+00 0 0 0
931 1 -9.3106623069051209e-02 1.2589393410742012e+01 3.7885112102395881e+00 9.8862536760752029e+00 0 0 0
932 1 -1.0930777365139855e-02 1.3860359267354198e+01 5.0305035957287787e+00 8.1032378488009869e+00 0 0 0
933 1 2.0395838580120548e-02 1.2599984168105745e+01 2.4617539698632176e+00 7.1530598672676398e+00 0 0 0
934 1 2.6687422691221655e-03 1.3837853229031250e+01 3.7243449626980674e+00 8.9501504007579271e+00 0 0 0
935 1 7.5486372997278142e-03 1.3858676353157074e+01 1.1998002217916512e+00 8.9501890841217211e+00 0 0 0
937 1 -8.8046305686239942e-03 1.3824160207136963e+01 2.4757322614938864e+00 8.0399839618905276e+00 0 0 0
990 1 2.8085723925527973e-04 1.3832777780715281e+01 6.2480095190295390e+00 9.0004668732685182e+00 0 0 0
994 1 -8.2972752119598925e-02 1.5154801060798901e+01 6.3483221130970309e+00 9.8946057452126848e+00 0 0 0
668 1 3.3941913381286635e-03 1.3857855600786639e+01 7.6051984053573856e+00 4.4687382283890615e+00 0 0 0
992 1 -1.0516096336930580e-02 1.3849659329277335e+01 7.5256785617818194e+00 8.0604751307369256e+00 0 0 0
939 1 -8.7140118073738101e-02 1.5111650092187437e+01 1.2061229590781086e+00 9.8060901403827589e+00 0 0 0
921 1 -9.7696562626877100e-03 8.7958252323417963e+00 7.5976470207845228e+00 8.0267766489564476e+00 0 0 0
522 1 3.3275003846067507e-03 8.8359696840664963e+00 1.6146958598470314e-02 4.4896095655317927e+00 0 0 0
562 1 3.5849404029095261e-03 1.1364858714711847e+01 2.2673334897502187e+01 4.4287453598171931e+00 0 -1 0
846 1 -8.9357469810898860e-03 8.8328595306321436e+00 5.9871089552049846e-02 8.0248736165053938e+00 0 0 0
886 1 -9.1991311249969027e-03 1.1351661313095347e+01 7.5283377308574555e-04 8.0076326769019719e+00 0 0 0
489 1 5.8202930229371815e-03 2.2679299385687006e+01 1.2576739560926287e+00 6.2540108398552192e+00 -1 0 0
811 1 2.0746967583380103e-02 2.2645520156622332e+01 2.5151914696504392e+00 7.1782694093350941e+00 -1 0 0
825 1 2.0219269898864242e-02 2.2654379668795325e+01 5.0424345966906454e+00 7.1658072757805416e+00 -1 0 0
936 1 2.0315884202978102e-02 1.5076002282011929e+01 2.4856980567518208e+00 7.1208454278137205e+00 0 0 0
996 1 2.0278260740334564e-02 1.5086994779460923e+01 5.0328397584993514e+00 7.2100793716720615e+00 0 0 0
488 1 4.7697741705783345e-03 2.2669419930167766e+01 3.7421362125248376e+00 6.2313091764686064e+00 -1 0 0
499 1 5.0026742861062597e-03 2.2687369447877735e+01 6.2307622312369899e+00 6.2699518988267355e+00 -1 0 0
614 1 5.6779437845548139e-03 1.5091645911037647e+01 3.7369353111292272e+00 6.2790646244935280e+00 0 0 0
615 1 3.7217715367076952e-03 1.5091766292776425e+01 1.2248543240487928e+00 6.1700219863990249e+00 0 0 0
938 1 -9.8465087684310032e-02 1.5193252486514872e+01 3.7284624770329056e+00 9.8351043343707900e+00 0 0 0
616 1 3.1294662033561371e-03 1.6424129886286050e+01 2.5250671280303099e+00 4.4450376171072890e+00 0 0 0
618 1 -3.9004585579073244e-03 1.6319812063409564e+01 1.1935623432012312e+00 5.3373206372709694e+00 0 0 0
620 1 3.8123788410721164e-03 1.6366769191133727e+01 2.2649471518908189e+01 4.4170496130958625e+00 0 -1 0
621 1 4.6000885107628725e-03 1.7581713090315169e+01 1.1831434569706707e+00 6.2693034031413077e+00 0 0 0
622 1 2.8920570587730107e-03 1.8912035438652477e+01 2.2655290614019322e+01 4.5051584986356241e+00 0 -1 0
670 1 6.8465451161372377e-03 1.5133172527747682e+01 6.2962386920433433e+00 6.2522526852218334e+00 0 0 0
671 1 2.9119895092023693e-03 1.6372442964416383e+01 7.4933791467714181e+00 4.4661007163720390e+00 0 0 0
673 1 -2.9682963703005689e-03 1.6364243900804674e+01 6.2614499405341579e+00 5.3830316758784065e+00 0 0 0
674 1 -3.3530317806277480e-03 1.6345709532960520e+01 3.7576501165290428e+00 5.3473920811407529e+00 0 0 0
676 1 3.0725266756043944e-03 1.6333120612429408e+01 5.0622379593652731e+00 4.4244116745910267e+00 0 0 0
677 1 4.8576713959754348e-03 1.7665906935133592e+01 6.2391242682362282e+00 6.1903689400193374e+00 0 0 0
678 1 3.8570276750524032e-03 1.7655721034125193e+01 3.6624661461499270e+00 6.2123501188634185e+00 0 0 0
679 1 3.5167661366619896e-03 1.8860075690819166e+01 4.9221708758476570e+00 4.4570351146363567e+00 0 0 0
681 1 -3.5618096600290717e-03 1.8925560519755866e+01 3.6756700185753801e+00 5.3290495918921126e+00 0 0 0
682 1 -3.0495400667212621e-03 1.8898811017372729e+01 1.2117272964660850e+00 5.3649221095149064e+00 0 0 0
684 1 3.6577530896165240e-03 1.8926691285517727e+01 2.4417437274697598e+00 4.4670074253142502e+00 0 0 0
685 1 5.2943024279282734e-03 2.0170750124142501e+01 3.7553165784938729e+00 6.2501874477842527e+00 0 0 0
686 1 4.9614792106250118e-03 2.0211942728506937e+01 1.2257869834382187e+00 6.2405937032211076e+00 0 0 0
687 1 3.3556529876367538e-03 2.1451021588246789e+01 2.4673677658362472e+00 4.4374474826038890e+00 0 0 0
689 1 -4.1016975086883671e-03 2.1417796646707135e+01 1.2512196722636910e+00 5.3399880044190837e+00 0 0 0
690 1 3.5821253393820318e-03 2.1413145397949112e+01 2.2663641413011046e+01 4.4149869281296761e+00 0 -1 0
735 1 -2.9445113920619163e-03 1.8876066103728323e+01 6.2329144396502301e+00 5.2690592961582094e+00 0 0 0
739 1 3.5846415026567812e-03 2.0211145391335609e+01 6.2958572319611399e+00 6.2222288718401089e+00 0 0 0
742 1 -3.6806919811251736e-03 2.1438678666948711e+01 6.2841611467978549e+00 5.3589627693327886e+00 0 0 0
743 1 -4.2482684999762665e-03 2.1393869376588412e+01 3.8451554001666710e+00 5.3304125264243680e+00 0 0 0
744 1 4.2166586080198834e-03 2.1434651347220985e+01 5.0574048607836186e+00 4.4310545827284615e+00 0 0 0
940 1 -8.6317237981891129e-03 1.6390060430080148e+01 2.4525806701546666e+00 8.0120486304998213e+00 0 0 0
942 1 5.8596653611303635e-03 1.6366260748649999e+01 1.2407753601365432e+00 8.8916922790650332e+00 0 0 0
944 1 -7.6438671608084320e-03 1.6370680756752467e+01 2.2678722476911162e+01 7.9958864450043965e+00 0 -1 0
945 1 -8.5027361167122353e-02 1.7643696054289837e+01 1.2712739319760871e+00 9.8381843754167306e+00 0 0 0
946 1 -8.5234032796898482e-03 1.8865956849086324e+01 2.2663231224084022e+01 7.9748899895167042e+00 0 -1 0
995 1 -9.9080079291978280e-03 1.6421923150487864e+01 7.5418897448314697e+00 8.0533458447141033e+00 0 0 0
997 1 -2.2801546581366450e-03 1.6415360116055389e+01 6.2957419318467567e+00 8.9018467846311822e+00 0 0 0
998 1 7.1006197589035492e-03 1.6350641669987681e+01 3.7742624215371352e+00 8.9044343024335539e+00 0 0 0
999 1 2.0928078860308487e-02 1.7638501206066660e+01 4.9982632997774052e+00 7.1017749626918194e+00 0 0 0
1000 1 -1.0457010306635473e-02 1.6371330024249133e+01 4.9996584402621576e+00 8.0350800179730939e+00 0 0 0
1001 1 -7.6247633082269284e-02 1.7683395798170260e+01 6.2632713514827323e+00 9.8101004404604115e+00 0 0 0
1002 1 -9.5929819560672591e-02 1.7657851476745940e+01 3.7298144654497545e+00 9.8372844393705474e+00 0 0 0
1003 1 -1.0503987669899781e-02 1.8972126770860964e+01 5.0553974536668571e+00 8.0326396010522654e+00 0 0 0
1004 1 2.0685235305270333e-02 1.7569374983518642e+01 2.4967968583124884e+00 7.0975798815105815e+00 0 0 0
1005 1 4.8297653027834214e-03 1.8917911286741866e+01 3.7739174768322892e+00 8.9342086115553769e+00 0 0 0
1006 1 1.3382356942015148e-03 1.8865785029264963e+01 1.2913222954263839e+00 8.9489023390263718e+00 0 0 0
1007 1 2.0405371700663845e-02 2.0232044097345341e+01 2.4953380944449721e+00 7.1520699451788827e+00 0 0 0
1008 1 -7.5559453132914844e-03 1.8881658966898772e+01 2.5040046702824168e+00 8.0020047897820596e+00 0 0 0
1009 1 -8.6813760141893515e-02 2.0110297460842624e+01 3.8098406118257464e+00 9.9133087550279946e+00 0 0 0
1010 1 -8.2043599387320171e-02 2.0162184898631171e+01 1.2684350154503190e+00 9.8005984919816971e+00 0 0 0
1011 1 -9.3214168439339790e-03 2.1389078760342599e+01 2.5137613674775792e+00 8.1021507439316576e+00 0 0 0
1013 1 -5.8619970095838512e-04 2.1438294762459307e+01 1.2590732654375731e+00 8.9556670050729945e+00 0 0 0
1059 1 6.2935904577215724e-03 1.8931668725154811e+01 6.2613826429914159e+00 8.9521644145049528e+00 0 0 0
1063 1 -8.9426139197035182e-02 2.0131006691955459e+01 6.3294048607014366e+00 9.8211523887194261e+00 0 0 0
1065 1 2.1027512656067962e-02 2.0179277244415811e+01 5.0476677599895012e+00 7.1518652191300065e+00 0 0 0
1066 1 5.2133122394872403e-03 2.1406075126200559e+01 6.2953198982463920e+00 8.9243102409390005e+00 0 0 0
1067 1 2.3892233255196817e-03 2.1423067300377060e+01 3.7950958688179135e+00 9.0026597698978126e+00 0 0 0
1068 1 -1.0083136324187031e-02 2.1404541542417991e+01 5.0063289892767093e+00 8.0704550829562365e+00 0 0 0
737 1 3.3706642627025531e-03 1.8918622147935665e+01 7.5120491635451083e+00 4.4343544378058493e+00 0 0 0
1064 1 -9.3769570931705754e-03 2.1377691693908258e+01 7.5724947808951963e+00 7.9884489169897961e+00 0 0 0
1061 1 -1.0990422524669379e-02 1.9009699580192837e+01 7.5773503581307997e+00 7.9971512695988176e+00 0 0 0
941 1 2.0552889878294213e-02 1.5101025557900019e+01 2.2642414563987298e+01 7.0775747878227548e+00 0 -1 0
815 1 2.0462590701799670e-02 2.6410473603547757e-02 2.2678849522365397e+01 7.1654025616164931e+00 0 -1 0
943 1 2.0341204363130586e-02 1.7651899108211584e+01 2.2612758759034087e+01 7.1000334594821251e+00 0 -1 0
1012 1 1.9971902119515047e-02 2.0168641173815701e+01 2.2668982474153236e+01 7.0889854690060341e+00 0 -1 0
862 1 2.0922179505593743e-02 5.0435335981469587e+00 7.5802658715800213e+00 7.1530492152116345e+00 0 0 0
917 1 2.0817687723391674e-02 7.5741832349433968e+00 7.6696098204969898e+00 7.1602330886477672e+00 0 0 0
500 1 3.4295771576160713e-03 1.2280510461349934e+00 7.5662378329090378e+00 4.4768877676671002e+00 0 0 0
859 1 2.0965663440170285e-02 2.4958930505300336e+00 7.5735225069214520e+00 7.1403020257034830e+00 0 0 0
863 1 -9.3406983498801107e-03 3.7898745920024597e+00 7.6147923191416922e+00 8.0959672716788695e+00 0 0 0
526 1 2.9213192820929748e-03 1.2405586801224811e+00 1.2658508752668888e+01 4.5011317638954997e+00 0 0 0
528 1 -3.2635416792134511e-03 1.2669741669791530e+00 1.1359340598439855e+01 5.3721616674645496e+00 0 0 0
529 1 -3.8294406011215153e-03 1.2764092437477164e+00 8.8271004943938678e+00 5.3171036959534561e+00 0 0 0
531 1 3.3088416496902750e-03 1.2540444179476316e+00 1.0123468047011889e+01 4.4316052099012406e+00 0 0 0
532 1 5.0580745024742775e-03 2.5711820187048771e+00 1.1350709371537777e+01 6.2313667486951028e+00 0 0 0
533 1 4.9351128619983288e-03 2.5210885342939737e+00 8.7646400974207985e+00 6.2457805238161130e+00 0 0 0
534 1 3.3815731036903485e-03 3.7623782347224211e+00 1.0069135279220621e+01 4.4440229685269594e+00 0 0 0
536 1 -3.6124920800980212e-03 3.8084922309682212e+00 8.7523844006412581e+00 5.3890940172312787e+00 0 0 0
540 1 5.2511774261085617e-03 5.0736410437555532e+00 8.8571125347356912e+00 6.2374961819275736e+00 0 0 0
571 1 -3.1397579103805205e-03 1.2987056367072449e+00 1.3876723198914284e+01 5.4075908804508108e+00 0 0 0
575 1 4.3835992406965124e-03 2.5349435538347351e+00 1.3851471787377404e+01 6.2866958217153961e+00 0 0 0
578 1 -3.7248694971873998e-03 3.8092587628660719e+00 1.3852447584557890e+01 5.3063537165814516e+00 0 0 0
579 1 -3.8622360937142198e-03 3.8094241528941613e+00 1.1276689916152852e+01 5.2946749917348939e+00 0 0 0
581 1 3.5997764286805462e-03 3.8056374904443788e+00 1.2577745197171591e+01 4.4015066303006067e+00 0 0 0
582 1 4.3913302989260937e-03 5.0477751558896271e+00 1.3830191625154937e+01 6.2196456166366207e+00 0 0 0
583 1 4.9642835728338072e-03 5.0493519132636759e+00 1.1341657734680590e+01 6.2447617720299373e+00 0 0 0
584 1 3.7481144368852657e-03 6.3400865845322922e+00 1.2579671323234527e+01 4.4221831848874924e+00 0 0 0
586 1 -3.3330436398515402e-03 6.3477876417155255e+00 1.1340702926594805e+01 5.3448776566327902e+00 0 0 0
587 1 -3.1155444183259737e-03 6.2931032212619158e+00 8.8399305232693415e+00 5.3315248963880455e+00 0 0 0
589 1 3.5941623789255183e-03 6.3517955889478994e+00 1.0093809416835301e+01 4.4387430914083925e+00 0 0 0
642 1 -3.7034882293202329e-03 6.3293156954151986e+00 1.3844948135738937e+01 5.2606763595043402e+00 0 0 0
849 1 -9.3013613490682573e-02 2.2686144442449251e+01 1.1360127135327465e+01 9.8048705934263278e+00 -1 0 0
850 1 -9.7512240423289834e-03 1.3164621894556259e+00 1.2553771566204485e+01 8.0093660577430530e+00 0 0 0
852 1 2.7486887626547440e-04 1.3439609604981102e+00 1.1290216212159743e+01 8.9148184869560971e+00 0 0 0
853 1 4.0723013734742907e-04 1.2906500987044149e+00 8.8014397781580680e+00 8.9116856505180877e+00 0 0 0
854 1 2.1032438249858336e-02 2.5595473344505373e+00 1.0042763915672104e+01 7.1265791356851791e+00 0 0 0
855 1 -9.1285062022517897e-03 1.2821318435202316e+00 1.0045625251740107e+01 8.0172692381554729e+00 0 0 0
856 1 -8.4077374854921283e-02 2.5567703579900689e+00 1.1272471995155810e+01 9.8500999694115112e+00 0 0 0
857 1 -9.2700212310966396e-02 2.5411468460803865e+00 8.7779971560823462e+00 9.8452441975534892e+00 0 0 0
858 1 -1.0350150672013428e-02 3.7811113109225558e+00 1.0030177482108479e+01 8.0990310380685973e+00 0 0 0
860 1 3.4382809278118501e-03 3.8106665074432389e+00 8.7883472059496022e+00 8.9869249650179466e+00 0 0 0
864 1 -8.6270904606752769e-02 5.0678367594738907e+00 8.7786237185513389e+00 9.8451219949041349e+00 0 0 0
866 1 -1.0604351684491517e-02 6.2848566457765402e+00 7.6098364839310157e+00 8.0536392191225392e+00 0 0 0
895 1 6.1213546809517272e-03 1.3023714719943182e+00 1.3846346756226906e+01 8.9627078461573664e+00 0 0 0
897 1 -1.0749154900643302e-02 1.3652969287248002e+00 1.5093157294132416e+01 8.0997838949174934e+00 0 0 0
899 1 -9.7644675294897745e-02 2.5450101726705392e+00 1.3825190904134830e+01 9.7825423927475779e+00 0 0 0
900 1 -1.0039477057720689e-02 3.7765207920274029e+00 1.5025348804854712e+01 8.0616343682750458e+00 0 0 0
901 1 2.0466780452004566e-02 2.5368350404045268e+00 1.2600018950033867e+01 7.0989101698701518e+00 0 0 0
902 1 7.4584294590790030e-03 3.8279869174496777e+00 1.3765390615937262e+01 8.8828433036677215e+00 0 0 0
903 1 2.8582837895027554e-03 3.7534976135034381e+00 1.1319548753707354e+01 8.9752169679691693e+00 0 0 0
904 1 2.0527359140578797e-02 5.0716911214795157e+00 1.2596763405969723e+01 7.1342162802113211e+00 0 0 0
905 1 -9.6622105533755512e-03 3.8808786422752077e+00 1.2553231821168705e+01 8.0185826777656644e+00 0 0 0
906 1 -9.1430920434512883e-02 5.0828202724124774e+00 1.3861954443553072e+01 9.8369600621602871e+00 0 0 0
907 1 -8.4016009130166186e-02 5.0209780674631403e+00 1.1327793923658383e+01 9.8761547511126491e+00 0 0 0
908 1 -8.0030447662084656e-03 6.3254819271007188e+00 1.2599371830653059e+01 7.9902216241426851e+00 0 0 0
909 1 1.9851733252470916e-02 5.0559742577125624e+00 1.0079146807630435e+01 7.1768667302576361e+00 0 0 0
910 1 1.8271541013656859e-03 6.2528185510393568e+00 1.1340352022491905e+01 8.9419729418531055e+00 0 0 0
911 1 2.4487399467683444e-04 6.3201751633255761e+00 8.8763270002774970e+00 8.9596522031700996e+00 0 0 0
913 1 -9.5807797844918458e-03 6.3395870934665366e+00 1.0095258686829270e+01 8.0366709476751392e+00 0 0 0
914 1 -9.1005955471238922e-02 7.4873603800953505e+00 1.1423503668261141e+01 9.8321206221721447e+00 0 0 0
915 1 -7.9200701007485386e-02 7.5938063585648337e+00 8.8390832746591226e+00 9.8842681364001983e+00 0 0 0
966 1 1.4887826625169076e-03 6.3288132228426619e+00 1.3872976361952855e+01 8.9195070361680866e+00 0 0 0
970 1 -9.0650635549949773e-02 7.5640943455705472e+00 1.3863101129827681e+01 9.8506717729283615e+00 0 0 0
968 1 -7.2809136383003006e-03 6.2844972758977367e+00 1.5138619635361405e+01 7.9916591522115707e+00 0 0 0
822 1 -8.9327539796469166e-02 2.2681352361988463e+01 8.7988913594672749e+00 9.8819281377383792e+00 -1 0 0
848 1 -8.1026309054269455e-02 2.2399106764071849e-02 1.3857221987662754e+01 9.8327116936055088e+00 0 0 0
590 1 4.7472099809931778e-03 7.5825772602278763e+00 1.1395822862072368e+01 6.2191362544152300e+00 0 0 0
591 1 4.1430290108442729e-03 7.5791056055405885e+00 8.8751325460997066e+00 6.2256207534608476e+00 0 0 0
646 1 3.8020257037749455e-03 7.5544562657921723e+00 1.3891510625502349e+01 6.2421777246676591e+00 0 0 0
592 1 3.7278573508070438e-03 8.8533409559728735e+00 1.0130998256863746e+01 4.4028967304047173e+00 0 0 0
594 1 -3.3132859209857933e-03 8.8471156775589179e+00 8.8734861642017506e+00 5.3054919883554081e+00 0 0 0
598 1 3.8612520655453295e-03 1.0087681809747451e+01 8.8210150555415634e+00 6.1765973349087728e+00 0 0 0
649 1 -3.6363017263426620e-03 8.8543192653397575e+00 1.3941000260744079e+01 5.3086323718746460e+00 0 0 0
650 1 -3.7349440552920613e-03 8.8512129253916907e+00 1.1360139136213865e+01 5.3448672183721264e+00 0 0 0
652 1 3.2114877844199980e-03 8.8216831712681785e+00 1.2674263957882518e+01 4.4641161788648489e+00 0 0 0
653 1 5.2686922846025986e-03 1.0119289636164917e+01 1.3874809630672100e+01 6.2847292253288947e+00 0 0 0
654 1 3.7429593618948211e-03 1.0110805520037490e+01 1.1349152161027787e+01 6.2400145533014424e+00 0 0 0
655 1 3.3294835894681738e-03 1.1271906744729101e+01 1.2637903605289214e+01 4.4279397281946409e+00 0 0 0
657 1 -3.6705174517271482e-03 1.1311307783372857e+01 1.1394176419146417e+01 5.3437244956695471e+00 0 0 0
658 1 -3.1840056343435427e-03 1.1359683996802541e+01 8.8182924337959712e+00 5.2904686994820915e+00 0 0 0
660 1 3.3395913481049574e-03 1.1354717059044319e+01 1.0127835772958823e+01 4.4261139378941321e+00 0 0 0
661 1 5.6440097565451644e-03 1.2574551594659839e+01 1.1320293431576173e+01 6.2459629979825193e+00 0 0 0
662 1 4.4373618351215725e-03 1.2584556458702670e+01 8.8291621848665720e+00 6.2854735875485916e+00 0 0 0
663 1 3.1533000376207663e-03 1.3886960235361217e+01 1.0048834653322515e+01 4.5175746232569871e+00 0 0 0
665 1 -3.5767712810406997e-03 1.3856714096314478e+01 8.8047770681745039e+00 5.3524286485908590e+00 0 0 0
711 1 -3.0681904975620841e-03 1.1385859265051289e+01 1.3889325885712015e+01 5.3855851416261578e+00 0 0 0
715 1 4.8526096823506976e-03 1.2669082567758045e+01 1.3896672107882589e+01 6.2472276490337295e+00 0 0 0
716 1 3.4898815616925022e-03 1.3894385723198846e+01 1.5097051176435626e+01 4.4210888293669957e+00 0 0 0
718 1 -3.6181464197091195e-03 1.3905505954917627e+01 1.3855114743777451e+01 5.3424687485924380e+00 0 0 0
719 1 -3.4396199622879191e-03 1.3852537361024583e+01 1.1287139358593885e+01 5.3549919666721362e+00 0 0 0
721 1 3.2838979731340942e-03 1.3897550873978835e+01 1.2597178701107156e+01 4.4426125617464294e+00 0 0 0
912 1 2.0428297302871587e-02 7.6193713671416941e+00 1.0114297412030929e+01 7.1331928138526814e+00 0 0 0
916 1 -1.0461786505297050e-02 8.8879793907531131e+00 1.0117808800884561e+01 8.0869356972394613e+00 0 0 0
918 1 1.2212004332205211e-03 8.8601981214096863e+00 8.8735948332384194e+00 8.9589005769712422e+00 0 0 0
920 1 2.1133953928364837e-02 1.0077291085778690e+01 7.5727930960247374e+00 7.1202824980809298e+00 0 0 0
922 1 -8.5362330040199233e-02 1.0105052150189829e+01 8.8534456839554441e+00 9.8696210127446022e+00 0 0 0
972 1 2.0735934788355198e-02 7.6065596498563535e+00 1.2634427845210030e+01 7.0856920192234778e+00 0 0 0
973 1 1.9927057140409501e-03 8.8291148450239980e+00 1.3891775230660773e+01 8.9486450923019696e+00 0 0 0
974 1 3.0600117920767133e-03 8.8575720219452663e+00 1.1395402296776522e+01 8.8989108364364515e+00 0 0 0
975 1 2.0450329719267440e-02 1.0096522667034167e+01 1.2562489381911078e+01 7.1072756839845637e+00 0 0 0
976 1 -8.8262703758645207e-03 8.8551252420829183e+00 1.2627973881099186e+01 8.0320945926489724e+00 0 0 0
977 1 -8.2850044017375238e-02 1.0081551706928057e+01 1.3925371631908174e+01 9.9029812045271264e+00 0 0 0
978 1 -8.4078824830002730e-02 1.0050711593643531e+01 1.1386714032623800e+01 9.8423136544864001e+00 0 0 0
979 1 -9.9157711958190366e-03 1.1358898349753925e+01 1.2576001419677340e+01 8.0579839856366036e+00 0 0 0
980 1 2.1242071642518106e-02 1.0103581915550512e+01 1.0111673002164366e+01 7.1235142902437154e+00 0 0 0
981 1 4.0790644121325784e-03 1.1358165532443820e+01 1.1321294561458382e+01 8.9461053649104763e+00 0 0 0
982 1 2.4198013893474779e-03 1.1361491002622348e+01 8.8026698324686059e+00 8.9516448944080533e+00 0 0 0
983 1 2.0552817739452400e-02 1.2533269025956148e+01 1.0049775700356745e+01 7.1050182588155630e+00 0 0 0
984 1 -9.2008431533097436e-03 1.1346604476217667e+01 1.0049907095961053e+01 8.0171040737647434e+00 0 0 0
985 1 -9.6190591336602349e-02 1.2607768568963374e+01 1.1283454465006137e+01 9.8252753927730545e+00 0 0 0
986 1 -8.2696958914417501e-02 1.2606639674836050e+01 8.8393969348884784e+00 9.8577414301409600e+00 0 0 0
987 1 -9.3623434448983668e-03 1.3803132310276062e+01 1.0123702853296161e+01 8.0394516646916010e+00 0 0 0
988 1 1.9405879263170885e-02 1.2650664277794812e+01 7.5482583176155895e+00 7.1826322276024754e+00 0 0 0
989 1 3.0553954058179654e-03 1.3904146293054984e+01 8.8173165695340572e+00 8.9647260852015389e+00 0 0 0
1035 1 -5.9683727772114389e-03 1.1326031631232450e+01 1.3880450448278122e+01 8.9956831872805534e+00 0 0 0
1039 1 -6.9578229223182853e-02 1.2635129204522499e+01 1.3873008859741761e+01 9.9010083182135116e+00 0 0 0
1041 1 2.0603386592757608e-02 1.2603563003422462e+01 1.2645864236945282e+01 7.1810016315526068e+00 0 0 0
1042 1 7.9341029625826242e-04 1.3871295838776989e+01 1.3904824387966848e+01 8.9840443539898178e+00 0 0 0
1043 1 3.1846784411431613e-03 1.3894813319736166e+01 1.1323494017842526e+01 8.9564861025289364e+00 0 0 0
1045 1 -1.1379441771060973e-02 1.3879025836730184e+01 1.2625441797055439e+01 8.0638646463710284e+00 0 0 0
993 1 -9.0311843046663162e-02 1.5149486145158971e+01 8.7997820449543340e+00 9.8415712888080904e+00 0 0 0
1046 1 -8.1776647531517879e-02 1.5138080079068787e+01 1.3885075342196966e+01 9.8417706573770882e+00 0 0 0
647 1 3.7069302635995937e-03 8.9224415824794203e+00 1.5126713110626721e+01 4.4223496295481706e+00 0 0 0
713 1 3.2345098307718671e-03 1.1368571199023503e+01 1.5100437561072399e+01 4.4152518790797410e+00 0 0 0
1033 1 2.0328565159343941e-02 1.0107391198096126e+01 1.5149944333152236e+01 7.1166978012622755e+00 0 0 0
1036 1 2.0693020091572721e-02 1.2609032955171958e+01 1.5156024177347826e+01 7.1291630464094888e+00 0 0 0
740 1 3.6596019397868726e-03 2.1425077556102444e+01 7.5365899814063324e+00 4.4798932307945751e+00 0 0 0
1057 1 1.9942734297963841e-02 1.7731051336516995e+01 7.5455324410083167e+00 7.1678916077706578e+00 0 0 0
1060 1 2.1263678098056942e-02 2.0201977155419641e+01 7.5199950005358103e+00 7.1122872621221092e+00 0 0 0
821 1 1.9717874939201366e-02 1.8055728176157970e-02 7.5343886069504480e+00 7.1376886768571923e+00 0 0 0
524 1 5.5785077268941715e-03 5.8647403153710087e-02 1.3850581641158893e+01 6.2651343087815423e+00 0 0 0
851 1 1.9890064108750053e-02 4.1608711869901782e-02 1.0054539965405917e+01 7.1877202276382217e+00 0 0 0
991 1 2.0140896255915062e-02 1.5099596150444009e+01 7.6034537905928952e+00 7.1886816571193339e+00 0 0 0
1049 1 2.0060565286805700e-02 1.5088629010688633e+01 1.0113599354510127e+01 7.1821273972357877e+00 0 0 0
1044 1 2.0480209597793772e-02 1.5055581348248898e+01 1.2571987552847911e+01 7.1387664397419357e+00 0 0 0
498 1 4.9471658655172793e-03 7.7106612722488421e-04 8.8030970122014551e+00 6.2358846771556555e+00 0 0 0
525 1 5.8920467515062884e-03 7.8646927690286361e-02 1.1334534843151648e+01 6.2719214496195228e+00 0 0 0
847 1 1.9936677364729059e-02 2.6980550791964930e-02 1.2602821337871777e+01 7.1978747895917223e+00 0 0 0
893 1 1.9468928433577823e-02 3.1497605832853992e-02 1.5062418535507836e+01 7.2226768511768906e+00 0 0 0
669 1 6.1769756880058705e-03 1.5164940967633608e+01 8.8456147663801339e+00 6.3078317017937815e+00 0 0 0
722 1 4.9274276209659582e-03 1.5163148527242399e+01 1.3835315933168602e+01 6.2300477218497479e+00 0 0 0
723 1 4.6694843202262385e-03 1.5070937676493802e+01 1.1403320112729224e+01 6.2234496610960397e+00 0 0 0
1047 1 -9.2062216114078846e-02 1.5145340844334099e+01 1.1345295720608267e+01 9.8985781471254999e+00 0 0 0
724 1 3.2333287861970239e-03 1.6361371464069336e+01 1.2488283470576405e+01 4.4777317534108105e+00 0 0 0
726 1 -3.3428463539107627e-03 1.6403774456488492e+01 1.1318949220474249e+01 5.3388282137048906e+00 0 0 0
727 1 -3.0718078965345954e-03 1.6365749908704213e+01 8.8041226353189739e+00 5.3244218525895244e+00 0 0 0
729 1 3.0003645104202973e-03 1.6396160376492457e+01 1.0065343709183507e+01 4.4775515822007206e+00 0 0 0
730 1 4.8958675838806243e-03 1.7642260451506694e+01 1.1306330800692411e+01 6.2685129135431374e+00 0 0 0
731 1 5.8912175126241339e-03 1.7710582812371872e+01 8.7858664671427995e+00 6.2636965743211555e+00 0 0 0
732 1 3.1319182303557198e-03 1.8925066223093033e+01 1.0043740329890216e+01 4.4497420357763566e+00 0 0 0
734 1 -3.5977471526081862e-03 1.8896992457049116e+01 8.7969409247150718e+00 5.3540654921434925e+00 0 0 0
738 1 4.4481932738955213e-03 2.0176657124239021e+01 8.8145935167240097e+00 6.1974287812716531e+00 0 0 0
765 1 -3.3567014703963648e-03 1.6418360755499119e+01 1.3823261668568961e+01 5.3499043455749398e+00 0 0 0
767 1 3.1438395130590985e-03 1.6402265383790926e+01 1.5146505239282893e+01 4.4588382737706604e+00 0 0 0
769 1 4.9185389201821805e-03 1.7673042103864510e+01 1.3859546888233652e+01 6.1995085841489983e+00 0 0 0
772 1 -3.2444134233049048e-03 1.8935965594746783e+01 1.3862719203623682e+01 5.3350105419901750e+00 0 0 0
773 1 -3.4760420383823675e-03 1.8904529479241184e+01 1.1328606742362924e+01 5.3526461661650586e+00 0 0 0
775 1 3.3648702464105884e-03 1.8901146322156375e+01 1.2586729051526806e+01 4.4401551838832907e+00 0 0 0
776 1 4.1059456923529152e-03 2.0200392304405366e+01 1.3850519145179300e+01 6.2395273399381672e+00 0 0 0
777 1 4.4593147338800737e-03 2.0208782273629563e+01 1.1352078080116002e+01 6.2291034943660275e+00 0 0 0
778 1 3.1090067449046689e-03 2.1443382856380875e+01 1.2604314506927809e+01 4.4327324630366958e+00 0 0 0
780 1 -3.0369049073230873e-03 2.1493495439173508e+01 1.1341257757485423e+01 5.3933199556627756e+00 0 0 0
781 1 -3.4125362813989669e-03 2.1430995022681962e+01 8.7674814072962981e+00 5.3356496798822732e+00 0 0 0
782 1 2.8512559430040143e-03 2.1475150706695224e+01 1.0063535629152490e+01 4.5085640419349975e+00 0 0 0
803 1 -3.4614105299099504e-03 2.1419038569011882e+01 1.3906315808017728e+01 5.3434115641518520e+00 0 0 0
804 1 3.4918958297937516e-03 2.1383623127719844e+01 1.5095535682440483e+01 4.4565420573133183e+00 0 0 0
1048 1 -9.1685727717304467e-03 1.6429612606583383e+01 1.2630135188312344e+01 8.0389051669442022e+00 0 0 0
1050 1 1.0681881944896740e-03 1.6383637731192390e+01 1.1395401915706463e+01 8.9423990420208082e+00 0 0 0
1051 1 2.7579048385586650e-03 1.6397444063497947e+01 8.8067887361914501e+00 8.9469906425356474e+00 0 0 0
1052 1 2.0459231405987637e-02 1.7625293223210480e+01 1.0080247344069317e+01 7.1856658059057574e+00 0 0 0
1053 1 -1.0430656341747441e-02 1.6384928006001466e+01 1.0102668265677247e+01 8.0945441798568378e+00 0 0 0
1054 1 -9.0248484128127082e-02 1.7666492457819619e+01 1.1315655238469493e+01 9.8875225824696393e+00 0 0 0
1055 1 -9.2691858490019000e-02 1.7649410243222061e+01 8.8683476716251466e+00 9.8321182529909592e+00 0 0 0
1056 1 -8.6816446187660355e-03 1.8906193989567086e+01 1.0122663882403431e+01 8.0345976220684694e+00 0 0 0
1058 1 5.3319909749184055e-03 1.8963576291917711e+01 8.8479117764396520e+00 8.9056189262743075e+00 0 0 0
1062 1 -8.8322702362583966e-02 2.0167195550872808e+01 8.8247335874412229e+00 9.8442940831444972e+00 0 0 0
1089 1 4.4240810741816950e-04 1.6417797837714350e+01 1.3919782336592023e+01 8.9609051183732600e+00 0 0 0
1093 1 -8.3214259272264446e-02 1.7684957297704386e+01 1.3930508477273479e+01 9.8320734972673129e+00 0 0 0
1095 1 2.0838426812687185e-02 1.7649763613927217e+01 1.2586438217473439e+01 7.1201696249675726e+00 0 0 0
1096 1 -6.1270688498504615e-04 1.8929784615711156e+01 1.3852084912517554e+01 8.8944446823665011e+00 0 0 0
1097 1 3.8556258362530877e-03 1.8923707372610057e+01 1.1361477167308204e+01 8.9454357928085582e+00 0 0 0
1098 1 2.0281007608197628e-02 2.0147801044588611e+01 1.2625634798395907e+01 7.1254716857782725e+00 0 0 0
1099 1 -1.0022267349144298e-02 1.8922428098654706e+01 1.2655049532754154e+01 8.0374800298742066e+00 0 0 0
1100 1 -8.4154811158489301e-02 2.0268214275934987e+01 1.3861439311266919e+01 9.8802697349483388e+00 0 0 0
1101 1 -9.1481790865387644e-02 2.0180081862728063e+01 1.1343100508352569e+01 9.8087516537335180e+00 0 0 0
1102 1 -1.0044490652317471e-02 2.1477855328733007e+01 1.2595748988939397e+01 8.0331955206385626e+00 0 0 0
1103 1 2.1389712782278129e-02 2.0203268547370303e+01 1.0118002898616071e+01 7.1235734623377898e+00 0 0 0
1104 1 7.1719045680725011e-03 2.1466598637580621e+01 1.1359467047752702e+01 8.9186787391546254e+00 0 0 0
1105 1 4.0170219910069579e-03 2.1484743690980213e+01 8.7787924469376648e+00 8.8918509248890558e+00 0 0 0
1106 1 -9.6722691027713460e-03 2.1434706167294657e+01 1.0033412594521963e+01 8.0201012343248657e+00 0 0 0
1127 1 5.6145363615929247e-03 2.1441555632566704e+01 1.3852577007215521e+01 8.9600044060243533e+00 0 0 0
770 1 3.4795940183460711e-03 1.8903603539799747e+01 1.5089738936203101e+01 4.4215088661025410e+00 0 0 0
1087 1 2.0634183781568487e-02 1.5178629056764187e+01 1.5133749728163902e+01 7.1595103595102847e+00 0 0 0
1090 1 2.1068948639430343e-02 1.7642815870562050e+01 1.5140223553533620e+01 7.1407589230004520e+00 0 0 0
1125 1 2.0541804237858806e-02 2.0172570647647529e+01 1.5103897790362469e+01 7.1262703985899405e+00 0 0 0
817 1 2.1045322136690765e-02 2.4991913050762120e+00 2.2645573196926033e+01 7.1223469990839838e+00 0 -1 0
818 1 -1.1801234982998976e-02 1.2677894552867284e+00 1.6020959227205367e-03 8.0916835713515631e+00 0 0 0
841 1 2.0149780252040381e-02 5.0210207978339563e+00 2.2683808348105348e+01 7.1943413446553679e+00 0 -1 0
496 1 3.8663130937014053e-03 3.7865646520152425e+00 2.2662899586184746e+01 4.4157946489025210e+00 0 -1 0
820 1 -1.1043598246022067e-02 3.8156500273981511e+00 2.2674084022823553e+01 8.0327755736163375e+00 0 -1 0
573 1 3.3429445020869619e-03 1.2660630125163255e+00 1.5163669125921830e+01 4.4413178769739590e+00 0 0 0
576 1 3.6551257434030465e-03 3.7757819711368263e+00 1.5123048543913821e+01 4.4090054753295744e+00 0 0 0
568 1 3.6685239752583263e-03 1.2757571682914117e+00 1.7616950440693699e+01 4.4600764687303984e+00 0 0 0
570 1 -3.3695734391562143e-03 1.2720754994750252e+00 1.6383836222309689e+01 5.3574158107886136e+00 0 0 0
574 1 4.4937816822613269e-03 2.5147575289902417e+00 1.6440981899836828e+01 6.2441864184736477e+00 0 0 0
625 1 -3.6171083645714706e-03 1.2575103363038513e+00 2.1406022395217409e+01 5.3595974115079077e+00 0 0 0
626 1 -3.8043991879491011e-03 1.2407223104321929e+00 1.8900278789777520e+01 5.3948292723409086e+00 0 0 0
628 1 3.1813607202172004e-03 1.2632215748990399e+00 2.0113519101741222e+01 4.4762635439442136e+00 0 0 0
629 1 3.3976748637198238e-03 2.5241810549824661e+00 2.1418961007952007e+01 6.2368074954062216e+00 0 0 0
630 1 5.8075197034756602e-03 2.5696688997611563e+00 1.8916141873631894e+01 6.3032908905893485e+00 0 0 0
631 1 3.1857458769043458e-03 3.7828609395450874e+00 2.0150589989020389e+01 4.4520602493483006e+00 0 0 0
633 1 -3.6045437137921890e-03 3.7822583182451761e+00 1.8930260028531080e+01 5.3631929235484588e+00 0 0 0
634 1 -3.3113164977627428e-03 3.7862219935739767e+00 1.6436672981593098e+01 5.2988957066657481e+00 0 0 0
636 1 3.3310781730242689e-03 3.8096833251693871e+00 1.7700325779395218e+01 4.4492612218693717e+00 0 0 0
637 1 5.0728159030862894e-03 5.1170511919825579e+00 1.8893859855684262e+01 6.2263257714907825e+00 0 0 0
638 1 3.1856955076789853e-03 5.0362727308750994e+00 1.6352840771715378e+01 6.1959020293055138e+00 0 0 0
639 1 3.1837883067729273e-03 6.3278755100257307e+00 1.7707957866156775e+01 4.4119665787059699e+00 0 0 0
641 1 -3.3614153408726764e-03 6.3168612053648676e+00 1.6361216441289731e+01 5.2696944776268770e+00 0 0 0
644 1 3.9699216076222125e-03 6.3331992194422986e+00 1.5121233938012326e+01 4.4091375971779732e+00 0 0 0
691 1 -2.9232750434842903e-03 3.7903285709879500e+00 2.1475618806171994e+01 5.3808737798704236e+00 0 0 0
692 1 4.9373547701109669e-03 5.0534314307072092e+00 2.1391099246724249e+01 6.3048933269257654e+00 0 0 0
694 1 -3.0150727238333476e-03 6.3123389339457319e+00 2.1468916114970469e+01 5.3604678007907909e+00 0 0 0
695 1 -3.6925171513425359e-03 6.3247967133935417e+00 1.8946551910619732e+01 5.3730977845363848e+00 0 0 0
697 1 3.0828390651757697e-03 6.3079604559990097e+00 2.0171929856425265e+01 4.5057824222526737e+00 0 0 0
892 1 -9.7151813386472507e-03 1.2438723862122976e+00 1.7615065811219043e+01 8.0359648268658201e+00 0 0 0
894 1 1.9895688887093437e-03 1.2722049304515957e+00 1.6367348131243212e+01 8.9649721422301205e+00 0 0 0
896 1 2.0923219216760023e-02 2.5773561542331755e+00 1.5128714794449442e+01 7.1403497815985917e+00 0 0 0
898 1 -7.2952190915230336e-02 2.5514970954841960e+00 1.6354516491596996e+01 9.8884538257825216e+00 0 0 0
949 1 1.6198945927834425e-03 1.2482308756156126e+00 2.1402617508154606e+01 8.9755783378229648e+00 0 0 0
950 1 7.6133886490765230e-03 1.2845302168769830e+00 1.8909529069707265e+01 8.9513075621550229e+00 0 0 0
951 1 2.0643556960294827e-02 2.5129331263268613e+00 2.0171829004163797e+01 7.1172434370013669e+00 0 0 0
952 1 -8.0376242619263332e-03 1.2322541251585477e+00 2.0195674792219084e+01 8.0269420582377329e+00 0 0 0
953 1 -8.2288306294947960e-02 2.5660073292048891e+00 2.1365736962140755e+01 9.8675130677266356e+00 0 0 0
954 1 -9.8758143593799558e-02 2.5552012610299246e+00 1.8934155445475252e+01 9.8354126602977505e+00 0 0 0
955 1 -9.3581023982819665e-03 3.7766521949501639e+00 2.0141426548196126e+01 8.0337904831414360e+00 0 0 0
956 1 1.9324721078431348e-02 2.5782999989497455e+00 1.7649459933631139e+01 7.1605717668461182e+00 0 0 0
957 1 6.3399647669532969e-03 3.7901538497776421e+00 1.8897613043371802e+01 8.9555052358942202e+00 0 0 0
958 1 2.5307382217775384e-03 3.7792737227789672e+00 1.6307834771910048e+01 8.9100597844564184e+00 0 0 0
959 1 2.1444547249921453e-02 5.0589044116972870e+00 1.7590643355935761e+01 7.0953664359890976e+00 0 0 0
960 1 -1.1165964997533128e-02 3.8062478910463358e+00 1.7606974942418447e+01 8.0448994511223830e+00 0 0 0
961 1 -8.9524908789400420e-02 5.0889392656161521e+00 1.8843620724180251e+01 9.7750330985413871e+00 0 0 0
962 1 -8.9346017408365619e-02 5.0769614920510717e+00 1.6335190115706652e+01 9.7875487558455081e+00 0 0 0
963 1 -9.0698197003514312e-03 6.3410207527564824e+00 1.7618496666155462e+01 8.0352921937925217e+00 0 0 0
964 1 2.0955522614062760e-02 4.9869704521193157e+00 1.5114788859015928e+01 7.0659647029134627e+00 0 0 0
965 1 4.3124672507543586e-03 6.3206629966327661e+00 1.6372017635162543e+01 8.9024276675849432e+00 0 0 0
1015 1 5.1590496420304242e-03 3.8008416673374668e+00 2.1428906758485123e+01 8.9017490404923034e+00 0 0 0
1016 1 -9.2150760163447240e-02 5.0416468699225838e+00 2.1413306716152025e+01 9.8630863063462719e+00 0 0 0
1017 1 2.0395093419461725e-02 5.0741590673267041e+00 2.0167246479753185e+01 7.1511699770624828e+00 0 0 0
1018 1 4.1111044799772610e-03 6.3296220872873823e+00 2.1427059994771390e+01 8.8881447336623918e+00 0 0 0
1019 1 5.8895567727409908e-03 6.3759337168798202e+00 1.8863238590170379e+01 8.9609595926411387e+00 0 0 0
1021 1 -1.0642303457756672e-02 6.3142618700038158e+00 2.0113768885569325e+01 8.0557871986862093e+00 0 0 0
1022 1 -9.2460784090355075e-02 7.5682105553525796e+00 2.1387951077583867e+01 9.8597716952545795e+00 0 0 0
1023 1 -9.7484009166809493e-02 7.5743800217649344e+00 1.8987491294752278e+01 9.8655166038778059e+00 0 0 0
890 1 -8.8962167442146384e-02 6.6198229583107268e-02 1.8863353106521661e+01 9.8191403017529311e+00 0 0 0
891 1 -8.7937952080611614e-02 9.8736354918905062e-03 1.6412293292001340e+01 9.8345398554189174e+00 0 0 0
947 1 -8.9623616281764004e-02 2.2678729875222338e+01 2.1367874264260507e+01 9.8551639144327012e+00 -1 0 0
843 1 2.0013879232777625e-02 7.5288315882258603e+00 4.0149367564477956e-02 7.1477506117981582e+00 0 0 0
883 1 2.0390392906179118e-02 1.0114023614387252e+01 3.8129449615624367e-02 7.0763197809618941e+00 0 0 0
885 1 2.0871259213647051e-02 1.2628943870334874e+01 2.2627349410887067e+01 7.0973403637160732e+00 0 -1 0
971 1 -8.9976543967089408e-03 8.8640196231479891e+00 1.5139668974077553e+01 8.0408363221304544e+00 0 0 0
1037 1 -1.0068526948039157e-02 1.1341913047235497e+01 1.5151473599489451e+01 8.0771651804898852e+00 0 0 0
1040 1 -8.6870557539185777e-03 1.3926997978575038e+01 1.5162502857360847e+01 8.0499763406505416e+00 0 0 0
645 1 5.0679404644409370e-03 7.5868403160165343e+00 1.6371038716501317e+01 6.2136957299343205e+00 0 0 0
698 1 4.3731764448822503e-03 7.5319981892298600e+00 2.1460847054535183e+01 6.2571285541707793e+00 0 0 0
969 1 -8.6875400800600425e-02 7.5577150766751435e+00 1.6383367051587765e+01 9.8156083702789463e+00 0 0 0
699 1 5.4752272502945976e-03 7.6606859543427639e+00 1.8901314152578756e+01 6.2358862191274360e+00 0 0 0
967 1 2.0075483075534920e-02 7.5526059218463617e+00 1.5068434283776579e+01 7.1537255900854753e+00 0 0 0
1025 1 2.0957090815461061e-02 7.6250407755180767e+00 1.7632870205626617e+01 7.0994113078621268e+00 0 0 0
700 1 3.6245897839605073e-03 8.9063833545182405e+00 2.0172541267536378e+01 4.4273712195204347e+00 0 0 0
702 1 -4.1053418296522299e-03 8.8736293383165368e+00 1.8934541924554782e+01 5.3911071234018415e+00 0 0 0
703 1 -3.5438972026730353e-03 8.8253914536800089e+00 1.6402307403036243e+01 5.3404205423299747e+00 0 0 0
705 1 3.6665224263007050e-03 8.8495489806368823e+00 1.7708467402826425e+01 4.4466599439990171e+00 0 0 0
706 1 4.1810078374737783e-03 1.0129049647366967e+01 1.8940262871966304e+01 6.2578241704806858e+00 0 0 0
707 1 4.9443090013473710e-03 1.0105200941944521e+01 1.6310499053484406e+01 6.2372144050998592e+00 0 0 0
708 1 3.6328335609680899e-03 1.1361433814330743e+01 1.7598928588408349e+01 4.3919437373593464e+00 0 0 0
710 1 -3.3722585328742065e-03 1.1341738151153425e+01 1.6395531226414853e+01 5.3343156205263789e+00 0 0 0
714 1 4.7361818790132744e-03 1.2627426635390652e+01 1.6401909752024203e+01 6.2039815855414995e+00 0 0 0
745 1 -3.6268728574163265e-03 8.8778548080477933e+00 2.1490878885333913e+01 5.3872794553101455e+00 0 0 0
746 1 4.2780709081519513e-03 1.0088063529070812e+01 2.1441875646772793e+01 6.2141728438075425e+00 0 0 0
748 1 -3.6729145770136623e-03 1.1339146620782360e+01 2.1472561314554007e+01 5.3311425594113873e+00 0 0 0
749 1 -3.6530035898149063e-03 1.1328357763261703e+01 1.8917198101111385e+01 5.2953540171548301e+00 0 0 0
751 1 3.9219953742085133e-03 1.1357920240331094e+01 2.0130616992929045e+01 4.3747602224936761e+00 0 0 0
752 1 4.1703408687600602e-03 1.2647490179942686e+01 2.1424794885962530e+01 6.1989229938186119e+00 0 0 0
753 1 3.5446599560146940e-03 1.2616233727289890e+01 1.8921783146196006e+01 6.1914195234646519e+00 0 0 0
754 1 3.8705901629301040e-03 1.3884043990461299e+01 2.0119799336027658e+01 4.4111330109655835e+00 0 0 0
756 1 -3.3043650344450528e-03 1.3858192476183735e+01 1.8883830301666443e+01 5.3187812519222799e+00 0 0 0
757 1 -3.7554560768216904e-03 1.3887514150633846e+01 1.6391500304762289e+01 5.3719346327544013e+00 0 0 0
759 1 3.6649761278426496e-03 1.3864012537496937e+01 1.7685549736601498e+01 4.4234289216622908e+00 0 0 0
783 1 -3.5081693947888394e-03 1.3899487654853658e+01 2.1402216692172232e+01 5.2994550369815325e+00 0 0 0
1020 1 2.0649081896689514e-02 7.5731492089547459e+00 2.0195748064395850e+01 7.1661727697603332e+00 0 0 0
1024 1 -8.1491986197489326e-03 8.8307828242441513e+00 2.0179719395333347e+01 8.0517919066197070e+00 0 0 0
1026 1 6.6818701068471226e-03 8.8244166547846650e+00 1.8962649698705235e+01 8.9422641810981407e+00 0 0 0
1027 1 3.4137523620119815e-03 8.7872814167859623e+00 1.6446713393089070e+01 8.9061380494435038e+00 0 0 0
1028 1 1.9845911850991986e-02 1.0140901904360707e+01 1.7661306464236876e+01 7.1162148192136589e+00 0 0 0
1029 1 -9.8143860464398706e-03 8.7886905872970598e+00 1.7673556747940950e+01 8.0205219316673677e+00 0 0 0
1030 1 -8.5757295579804035e-02 1.0077035240548422e+01 1.9009690590443139e+01 9.8198120767128056e+00 0 0 0
1031 1 -8.6950147737997779e-02 1.0025552425222626e+01 1.6413925460469276e+01 9.8703967964424049e+00 0 0 0
1032 1 -8.9640035827489185e-03 1.1346808415497245e+01 1.7639828404253208e+01 7.9977610707328219e+00 0 0 0
1034 1 2.1548298808801762e-04 1.1304034129772750e+01 1.6433787863419894e+01 8.8964039652543399e+00 0 0 0
1038 1 -9.3818950078594004e-02 1.2601315548160052e+01 1.6418157924061394e+01 9.8175641850606148e+00 0 0 0
1069 1 1.1659772495225519e-02 8.8190884154693929e+00 2.1443929830325189e+01 8.9148901704318533e+00 0 0 0
1070 1 -9.8299676997854205e-02 1.0028781611922987e+01 2.1404101164299608e+01 9.8043157283069551e+00 0 0 0
1071 1 2.0777276755993578e-02 1.0133542830735736e+01 2.0191580063055348e+01 7.1349317745378285e+00 0 0 0
1072 1 5.2269494538085114e-03 1.1288586233640279e+01 2.1445943253586570e+01 8.8766494238020890e+00 0 0 0
1073 1 3.2472430748434465e-03 1.1328935206840349e+01 1.8951683040049922e+01 8.9371494187584588e+00 0 0 0
1074 1 2.1070101267432612e-02 1.2593449995377437e+01 2.0170585545272147e+01 7.1462359236565067e+00 0 0 0
1075 1 -8.8154637780720260e-03 1.1380980748453174e+01 2.0176392600095618e+01 8.0349443168894545e+00 0 0 0
1076 1 -9.9775743932306357e-02 1.2566673970582716e+01 2.1397408183739749e+01 9.8007696814742680e+00 0 0 0
1077 1 -8.8294385598997521e-02 1.2604770029289195e+01 1.8962271890594312e+01 9.8902500936047950e+00 0 0 0
1078 1 -9.4476568510996617e-03 1.3899506566812926e+01 2.0184731487853281e+01 8.0102870421961256e+00 0 0 0
1079 1 2.1014614774659102e-02 1.2627598232332817e+01 1.7679958516299937e+01 7.0966372089377838e+00 0 0 0
1080 1 2.0288541018853362e-03 1.3891600988015925e+01 1.8923637580884822e+01 8.9725734110965263e+00 0 0 0
1081 1 4.5195021007856610e-03 1.3855782530738603e+01 1.6421693300553763e+01 8.9804364276609405e+00 0 0 0
1083 1 -9.7975462120471098e-03 1.3941057490404365e+01 1.7694759716899974e+01 8.1030193363346132e+00 0 0 0
1107 1 4.4728894458020731e-03 1.3791742567528233e+01 2.1427867698232401e+01 8.8510620983621191e+00 0 0 0
1085 1 -8.5960172539750634e-02 1.5163081517310001e+01 1.6444301616642992e+01 9.8528993662552526e+00 0 0 0
1108 1 -9.3783311748759507e-02 1.5170585866209988e+01 2.1450788754475365e+01 9.7991351513716740e+00 0 0 0
1084 1 -8.0981361307841629e-02 1.5150868086634153e+01 1.8938052566561229e+01 9.8270354144465273e+00 0 0 0
1014 1 -9.4812395336815961e-03 2.1451392953677640e+01 1.8114096858482753e-02 8.0322730177536510e+00 0 0 0
1091 1 -8.1958872701788626e-03 1.6398690107519617e+01 1.5125331945683689e+01 8.0153967507108597e+00 0 0 0
1094 1 -8.8236596761669065e-03 1.8895133904538959e+01 1.5109539494408612e+01 8.0401171942474541e+00 0 0 0
566 1 4.9994460856385833e-03 2.2680860751786152e+01 1.8904525341223213e+01 6.2635649262351016e+00 -1 0 0
567 1 6.2866400372308317e-03 2.2673881338895860e+01 1.6325980675474799e+01 6.3162711680319683e+00 -1 0 0
623 1 5.2953301686724085e-03 7.2270534179246226e-03 2.1395272253967207e+01 6.2759356530303076e+00 0 0 0
761 1 5.4156520905859684e-03 1.5126616207937255e+01 1.6398914007926432e+01 6.2610572576166623e+00 0 0 0
1082 1 2.0668501496804183e-02 1.5165390163939879e+01 1.7679030349866693e+01 7.1286929445799556e+00 0 0 0
760 1 4.1878192894591482e-03 1.5111907300354511e+01 1.8947930825050793e+01 6.2107097378680844e+00 0 0 0
1109 1 2.0509097122023145e-02 1.5137606624734836e+01 2.0173031499951538e+01 7.1683291327095260e+00 0 0 0
1128 1 -1.0302298805277412e-02 2.1446780724533291e+01 1.5094956014296898e+01 8.0591967553281645e+00 0 0 0
889 1 2.0804066925656447e-02 2.0087216489212523e-02 1.7601403569389561e+01 7.1676104724974659e+00 0 0 0
948 1 2.0213980262087684e-02 2.2240426212547959e-02 2.0170774407267292e+01 7.1473281865878526e+00 0 0 0
784 1 4.0975193962821460e-03 1.5118877167991762e+01 2.1413245343087386e+01 6.2206957684066699e+00 0 0 0
762 1 3.1822982644583264e-03 1.6439795853971983e+01 1.7659985329172173e+01 4.4602936175193078e+00 0 0 0
764 1 -4.1125713291052090e-03 1.6382483633696754e+01 1.6392097579663798e+01 5.3658337661321323e+00 0 0 0
768 1 5.1609271389191740e-03 1.7688173576249923e+01 1.6375785291409688e+01 6.2753088652595626e+00 0 0 0
786 1 -3.3690914834224326e-03 1.6393081453770275e+01 2.1394225043572096e+01 5.3259134586504420e+00 0 0 0
787 1 -3.0416934731663393e-03 1.6421175812922844e+01 1.8881358793087813e+01 5.3602557963089659e+00 0 0 0
789 1 3.2415431257078599e-03 1.6425377847666137e+01 2.0132589483589342e+01 4.4396590753359870e+00 0 0 0
790 1 4.9518324835180873e-03 1.7663058057921731e+01 2.1389810298099178e+01 6.2318400522670050e+00 0 0 0
791 1 4.7946037241381302e-03 1.7666612576450799e+01 1.8867787171519378e+01 6.2249136045847280e+00 0 0 0
792 1 3.3337306591958221e-03 1.8989592781241377e+01 2.0096467854853739e+01 4.4686785533099220e+00 0 0 0
794 1 -3.4890966802575345e-03 1.8994312858905833e+01 1.8878187215179498e+01 5.3520872256668550e+00 0 0 0
795 1 -3.6087285530389717e-03 1.8924900779176109e+01 1.6371260185769227e+01 5.3257759116023227e+00 0 0 0
797 1 3.6472014610729724e-03 1.8935974783259287e+01 1.7631203624821683e+01 4.4497782913352841e+00 0 0 0
798 1 6.0460101007033902e-03 2.0188031330628508e+01 1.8886466265775880e+01 6.2770137515321691e+00 0 0 0
799 1 4.6595760686105377e-03 2.0201489627689000e+01 1.6403760689775584e+01 6.1936873229711900e+00 0 0 0
800 1 3.6294872803445222e-03 2.1359900996460709e+01 1.7696702968169017e+01 4.4220988702648816e+00 0 0 0
802 1 -3.4021365397559123e-03 2.1433628039892845e+01 1.6402038908767935e+01 5.3757702472033335e+00 0 0 0
805 1 -3.5558324980087611e-03 1.8903276383416063e+01 2.1368055583276483e+01 5.3426507630761755e+00 0 0 0
806 1 4.3342585274697663e-03 2.0161701045000651e+01 2.1420161827738038e+01 6.2458806914760006e+00 0 0 0
808 1 -3.4250029673875424e-03 2.1390105822708168e+01 2.1425593643649886e+01 5.3235141697396902e+00 0 0 0
809 1 -3.5700686353917488e-03 2.1402767096015225e+01 1.8966341385655131e+01 5.3321522651660143e+00 0 0 0
810 1 3.4586739608145896e-03 2.1408353057200461e+01 2.0175318019569993e+01 4.4156232305818692e+00 0 0 0
1086 1 -1.0495424447061712e-02 1.6376891677007851e+01 1.7674467505290245e+01 8.0345612462742473e+00 0 0 0
1088 1 1.6185336271639613e-03 1.6396524370459581e+01 1.6396842704052911e+01 8.9513080839777022e+00 0 0 0
1092 1 -9.2319158282065716e-02 1.7714004639887001e+01 1.6392884545941659e+01 9.8381612206589129e+00 0 0 0
1110 1 7.0114089075607603e-03 1.6417230516358803e+01 2.1431115336478218e+01 8.9004616204083664e+00 0 0 0
1111 1 3.0685972246161353e-03 1.6412049558813877e+01 1.8871446949693809e+01 8.9478662195532799e+00 0 0 0
1112 1 2.0384374445125041e-02 1.7600934845391780e+01 2.0107619967445512e+01 7.1687154733426643e+00 0 0 0
1113 1 -1.1678324141918491e-02 1.6380752336729504e+01 2.0198557104425301e+01 8.0570483893379272e+00 0 0 0
1114 1 -1.0099384018081763e-01 1.7685736554224071e+01 2.1499260221816940e+01 9.8240512410710412e+00 0 0 0
1115 1 -8.0085956789785542e-02 1.7611450496953474e+01 1.8939781691383747e+01 9.8394276564739815e+00 0 0 0
1116 1 -9.1938867125474361e-03 1.8922125120684445e+01 2.0200782055030302e+01 8.0358666304028681e+00 0 0 0
1117 1 2.0710745221395873e-02 1.7608041782955617e+01 1.7626812913766507e+01 7.1880229206463131e+00 0 0 0
1118 1 1.6355790520293898e-03 1.8904783585306273e+01 1.8924332076836325e+01 8.9795217961557849e+00 0 0 0
1119 1 3.7543510829707214e-03 1.8918728260580394e+01 1.6403398706144664e+01 8.9829674650717486e+00 0 0 0
1120 1 2.0155119198690397e-02 2.0131071073731551e+01 1.7625511389347238e+01 7.1787353085518824e+00 0 0 0
1121 1 -1.0874549881413551e-02 1.8901530004947560e+01 1.7664927439603066e+01 8.0696702801090918e+00 0 0 0
1122 1 -8.9372276327908728e-02 2.0189121552278859e+01 1.8955145026094549e+01 9.8168746406181295e+00 0 0 0
1123 1 -9.6029593537455951e-02 2.0216445587789845e+01 1.6351541597967021e+01 9.9081716616404929e+00 0 0 0
1124 1 -1.0800260737973766e-02 2.1429537930442162e+01 1.7609185965181936e+01 8.0633502592514734e+00 0 0 0
1126 1 6.5806322315432588e-03 2.1506432108104967e+01 1.6428429793123975e+01 8.9350149696431309e+00 0 0 0
1129 1 5.8091789540538463e-03 1.8922648978369537e+01 2.1415042983622858e+01 8.9031832579718522e+00 0 0 0
1130 1 -8.6010896828508113e-02 2.0159600486123423e+01 2.1383658102337566e+01 9.8116665643367327e+00 0 0 0
1131 1 2.0809978600700982e-02 2.0147106944062653e+01 2.0219887031026321e+01 7.1439798420695402e+00 0 0 0
1132 1 4.4401373970471821e-04 2.1405455524617622e+01 2.1416298449300097e+01 8.9234584418502045e+00 0 0 0
1133 1 4.6212789222342251e-03 2.1442836385835630e+01 1.8946267144484427e+01 8.8952794802953026e+00 0 0 0
1134 1 -8.0409084587054359e-03 2.1445482980070981e+01 2.0163809412927577e+01 7.9744459851850324e+00 0 0 0
1140 1 2.7956061642290120e-01 2.4607681009795233e+00 5.0481216754143752e+00 1.0684007688797331e+01 0 0 0
1141 1 2.8861259904293451e-01 2.5110749387285218e+00 2.5153329008813325e+00 1.0716679173300271e+01 0 0 0
1142 1 3.1965308886951976e-01 5.0775536489812145e+00 2.4911478762640091e+00 1.0835106519888937e+01 0 0 0
1149 1 2.8810569817154907e-01 5.0369037716701266e+00 7.5070264347783491e+00 1.0712665623373674e+01 0 0 0
1150 1 2.7421996735695836e-01 5.0414238197023389e+00 5.0347458807500178e+00 1.0682294367108261e+01 0 0 0
1218 3 -2.4606165703452287e-01 1.2605547771605456e+00 2.2295158384449947e-08 1.1505593629973854e+01 0 0 0
1221 3 -2.5426658210547587e-01 1.2605547348806478e+00 5.0422188504295713e+00 1.1505593662806472e+01 0 0 0
1222 3 -2.5224716232359751e-01 1.2605547603971781e+00 2.5211094229704512e+00 1.1505593647062868e+01 0 0 0
1223 3 -2.5845529872783291e-01 3.7816641717628534e+00 2.5211094200460238e+00 1.1505593628967326e+01 0 0 0
1224 3 -2.4056646854210950e-01 3.7816641453831039e+00 2.9969857217360851e-08 1.1505593613177977e+01 0 0 0
1225 3 -2.4847722936491778e-01 6.3027735557293676e+00 6.1787503135859950e-08 1.1505593640876322e+01 0 0 0
1230 3 -2.5586059312771159e-01 3.7816641591824034e+00 7.5633283300603100e+00 1.1505593658016137e+01 0 0 0
1231 3 -2.3115263089197030e-01 3.7816641638380264e+00 5.0422188338744700e+00 1.1505593659470575e+01 0 0 0
1232 3 -2.3632458326862807e-01 6.3027735859709670e+00 5.0422188293276182e+00 1.1505593699618796e+01 0 0 0
1233 3 -2.8190347166870783e-01 6.3027735771326974e+00 2.5211094363112752e+00 1.1505593655175383e+01 0 0 0
1244 3 -2.5113394787274923e-01 6.3027735846131776e+00 7.5633283289799786e+00 1.1505593706910153e+01 0 0 0
1229 3 -2.6247350279756526e-01 1.2605547322190378e+00 7.5633283127225344e+00 1.1505593665117342e+01 0 0 0
1151 1 2.7374684118060522e-01 7.5710646617344981e+00 5.0611866227093874e+00 1.0681493508491270e+01 0 0 0
1152 1 3.1727761215434785e-01 7.6040707650482995e+00 2.4624703731052766e+00 1.0817882954921673e+01 0 0 0
1153 1 2.9409256543727530e-01 1.0115450365440804e+01 2.5198634166286937e+00 1.0742294343854143e+01 0 0 0
1165 1 2.9035945477836211e-01 1.0096928639829530e+01 5.0334564454659807e+00 1.0742706668782533e+01 0 0 0
1166 1 2.9835235656943515e-01 1.2568681965438500e+01 5.0292258786053630e+00 1.0753521131051052e+01 0 0 0
1167 1 2.8918276012029764e-01 1.2577195665556943e+01 2.5350076464996634e+00 1.0723273650616100e+01 0 0 0
1234 3 -2.6520140084605326e-01 8.8238830436878128e+00 2.5211094493903650e+00 1.1505593646910178e+01 0 0 0
1235 3 -2.4327321096053461e-01 8.8238830485210045e+00 6.7430846193800252e-08 1.1505593642321122e+01 0 0 0
1236 3 -2.5498448734010265e-01 1.1344992565204963e+01 4.4543293537322432e-08 1.1505593634520269e+01 0 0 0
1246 3 -2.4301890655826172e-01 8.8238830664482215e+00 5.0422188451089358e+00 1.1505593676158187e+01 0 0 0
1247 3 -2.6166112807630315e-01 1.1344992564752154e+01 5.0422188678969890e+00 1.1505593621278550e+01 0 0 0
1248 3 -2.5414386853824456e-01 1.1344992553051105e+01 2.5211094515467498e+00 1.1505593624742277e+01 0 0 0
1249 3 -2.5272300900958178e-01 1.3866101961603311e+01 2.5211094610643898e+00 1.1505593618044649e+01 0 0 0
1250 3 -2.5142243459346686e-01 1.3866101939433111e+01 3.6006779909309951e-08 1.1505593630621172e+01 0 0 0
1263 3 -2.3606669624172275e-01 1.3866101983940499e+01 7.5633283215368037e+00 1.1505593616984429e+01 0 0 0
1264 3 -2.5196759708683231e-01 1.3866101977129654e+01 5.0422188811306485e+00 1.1505593602907826e+01 0 0 0
1245 3 -2.5566257899147060e-01 8.8238830746798058e+00 7.5633283128339892e+00 1.1505593686611817e+01 0 0 0
1262 3 -2.5068556851848844e-01 1.1344992579533498e+01 7.5633283089846479e+00 1.1505593628630425e+01 0 0 0
1139 1 3.0323599525014805e-01 2.2652523309298608e+01 5.0218114159464768e+00 1.0786421615611614e+01 -1 0 0
1168 1 3.0288635723668861e-01 1.5166233858858980e+01 2.5406762276525248e+00 1.0782038799205083e+01 0 0 0
1135 1 2.9255371133824981e-01 5.0845979327920787e-02 2.5061487372606459e+00 1.0737057953416144e+01 0 0 0
1183 1 2.7907753051770423e-01 1.5080679334512684e+01 4.9847697880620334e+00 1.0709840573950558e+01 0 0 0
1184 1 2.8155913637929236e-01 1.7564543040638991e+01 4.9896756948200442e+00 1.0695279304110269e+01 0 0 0
1185 1 2.9551092245401067e-01 1.7686852172512033e+01 2.5211023696131054e+00 1.0728875497460919e+01 0 0 0
1186 1 3.0797413304489785e-01 2.0176290991230282e+01 2.5784661335870012e+00 1.0796977776641910e+01 0 0 0
1200 1 3.0046238427862787e-01 2.0130543193118211e+01 5.1129501064411249e+00 1.0765281472574726e+01 0 0 0
1216 3 -2.5948582257602654e-01 2.1429430317958953e+01 2.5211094649613197e+00 1.1505593664628261e+01 -1 0 0
1217 3 -2.5936552887157871e-01 2.1429430369426758e+01 4.8171349854803320e-08 1.1505593640742072e+01 -1 0 0
1219 3 -2.5077712527524704e-01 2.1429430275309230e+01 7.5633282984470043e+00 1.1505593701139190e+01 -1 0 0
1220 3 -2.6784912248947684e-01 2.1429430280005803e+01 5.0422188735391629e+00 1.1505593683860861e+01 -1 0 0
1251 3 -2.4949898845487140e-01 1.6387211289870365e+01 5.4182097075823626e-08 1.1505593595846037e+01 0 0 0
1265 3 -2.4382733931535500e-01 1.6387211346299097e+01 5.0422188906266294e+00 1.1505593605789997e+01 0 0 0
1266 3 -2.6042955919315608e-01 1.6387211323181628e+01 2.5211094950255721e+00 1.1505593602366927e+01 0 0 0
1267 3 -2.6205111474465242e-01 1.8908320797228939e+01 2.5211095062794757e+00 1.1505593621488295e+01 0 0 0
1268 3 -2.4636464663495053e-01 1.8908320815275040e+01 6.5648575672409642e-08 1.1505593597606664e+01 0 0 0
1279 3 -2.5176053431559997e-01 1.6387211339354558e+01 7.5633283208003199e+00 1.1505593630408411e+01 0 0 0
1281 3 -2.4487130799338303e-01 1.8908320786679880e+01 5.0422188913150663e+00 1.1505593642407662e+01 0 0 0
1280 3 -2.3542147171896549e-01 1.8908320777172264e+01 7.5633283045033890e+00 1.1505593669102261e+01 0 0 0
1148 1 2.9535953048183983e-01 2.5608687967456141e+00 7.5482571837741101e+00 1.0750435254575343e+01 0 0 0
1147 1 2.9514744710089436e-01 2.5175508930774488e+00 1.0044658196943935e+01 1.0755200930654514e+01 0 0 0
1159 1 2.7649606671510468e-01 2.5691219544682058e+00 1.2596002249514008e+01 1.0685912146836372e+01 0 0 0
1160 1 2.9475762674698092e-01 5.1126693680404180e+00 1.2597015377043361e+01 1.0754219532280928e+01 0 0 0
1161 1 2.8311282621034406e-01 5.0155732975952390e+00 1.0047168066685144e+01 1.0703122704396735e+01 0 0 0
1228 3 -2.5507614038644905e-01 1.2605547677346602e+00 1.0084437823735968e+01 1.1505593639026344e+01 0 0 0
1240 3 -2.4226521824410749e-01 1.2605547945391467e+00 1.2605547286828903e+01 1.1505593615671801e+01 0 0 0
1241 3 -2.4438377532333821e-01 3.7816641645788818e+00 1.2605547282803771e+01 1.1505593564549704e+01 0 0 0
1242 3 -2.4974104272067685e-01 3.7816641772800081e+00 1.0084437846856744e+01 1.1505593604737211e+01 0 0 0
1243 3 -2.4036057077624309e-01 6.3027735652933981e+00 1.0084437835924899e+01 1.1505593646017843e+01 0 0 0
1257 3 -2.5584125850397643e-01 6.3027735460011014e+00 1.5126656629349821e+01 1.1505593618106507e+01 0 0 0
1258 3 -2.6488785767716105e-01 6.3027735479453870e+00 1.2605547260777326e+01 1.1505593598220946e+01 0 0 0
1239 3 -2.5690662799688280e-01 1.2605548109528708e+00 1.5126656644177492e+01 1.1505593612758748e+01 0 0 0
1256 3 -2.4031593077787783e-01 3.7816641446966606e+00 1.5126656641550952e+01 1.1505593582744270e+01 0 0 0
1163 1 2.9643849406251777e-01 7.5256685282058413e+00 7.5445928668294293e+00 1.0746079652203020e+01 0 0 0
1162 1 2.8891992295128444e-01 7.5660257696664690e+00 1.0132233729048917e+01 1.0732275548695313e+01 0 0 0
1164 1 2.9462380583909670e-01 1.0069048909192379e+01 7.5558299181056423e+00 1.0757691129524973e+01 0 0 0
1177 1 2.9290772291501477e-01 7.5275438388530951e+00 1.2637430585296439e+01 1.0728345964128701e+01 0 0 0
1178 1 2.9079213981212931e-01 1.0082849013786680e+01 1.2653155767929416e+01 1.0736903943730145e+01 0 0 0
1179 1 3.0158866720339245e-01 1.0076018406245954e+01 1.0087435016381692e+01 1.0776743978999269e+01 0 0 0
1180 1 2.9402439954493920e-01 1.2650640006180588e+01 1.0103272836546415e+01 1.0727565233568233e+01 0 0 0
1181 1 2.8141850269048208e-01 1.2560666551567861e+01 7.5522626971210576e+00 1.0689977237423344e+01 0 0 0
1194 1 2.8482071244789858e-01 1.2618813895850307e+01 1.2561572242370097e+01 1.0720615473859475e+01 0 0 0
1259 3 -2.4719606472124306e-01 8.8238830395133760e+00 1.2605547268318649e+01 1.1505593628357982e+01 0 0 0
1260 3 -2.5884078207787803e-01 8.8238830411556020e+00 1.0084437809646126e+01 1.1505593651201176e+01 0 0 0
1261 3 -2.5339281572479211e-01 1.1344992579778985e+01 1.0084437798136070e+01 1.1505593633772449e+01 0 0 0
1273 3 -2.4037509783376160e-01 8.8238830683361034e+00 1.5126656638561821e+01 1.1505593646686586e+01 0 0 0
1275 3 -2.4747990209839335e-01 1.1344992582610427e+01 1.2605547285255303e+01 1.1505593654050008e+01 0 0 0
1276 3 -2.4597023647420710e-01 1.3866101975223307e+01 1.2605547267963168e+01 1.1505593700163022e+01 0 0 0
1277 3 -2.4823933025449971e-01 1.3866101995504666e+01 1.0084437800249795e+01 1.1505593652213300e+01 0 0 0
1286 3 -2.5337666584542223e-01 1.3866101935114582e+01 1.5126656643270445e+01 1.1505593717724574e+01 0 0 0
1274 3 -2.5766092846628058e-01 1.1344992583434854e+01 1.5126656652964629e+01 1.1505593675842091e+01 0 0 0
1138 1 3.0286698856512961e-01 4.1740120458811703e-02 7.5614789558501458e+00 1.0767697412734238e+01 0 0 0
1182 1 2.9666070814339490e-01 1.5175910985531871e+01 7.5412329175226924e+00 1.0748433398358740e+01 0 0 0
1196 1 2.8112452481010219e-01 1.5158561411577836e+01 1.0056409589718081e+01 1.0702407859241065e+01 0 0 0
1195 1 2.9259793250834826e-01 1.5161737310584117e+01 1.2552528594213683e+01 1.0741104563459457e+01 0 0 0
1198 1 2.7772728486193399e-01 1.7642140547376325e+01 7.6076444070349005e+00 1.0697910124375626e+01 0 0 0
1145 1 2.8293716224775045e-01 5.7640219588336095e-02 1.2547770826114565e+01 1.0708275002507717e+01 0 0 0
1146 1 2.8062707812332094e-01 6.4952975031513205e-02 1.0068294519984009e+01 1.0696832639128440e+01 0 0 0
1197 1 2.9147522172583407e-01 1.7644738020924532e+01 1.0097898003099056e+01 1.0714955293884966e+01 0 0 0
1199 1 2.8170915608919550e-01 2.0192071590083561e+01 7.6136421068010067e+00 1.0697876948520358e+01 0 0 0
1207 1 2.8572581476770631e-01 1.7691558373697472e+01 1.2597065765186789e+01 1.0725939181719301e+01 0 0 0
1208 1 2.8925155354484533e-01 2.0199107042931384e+01 1.2617555068922865e+01 1.0731868549564377e+01 0 0 0
1209 1 2.9811900240838979e-01 2.0213543608474502e+01 1.0120974254739380e+01 1.0765275368353315e+01 0 0 0
1226 3 -2.4489590776260436e-01 2.1429430335848888e+01 1.2605547248574899e+01 1.1505593685843678e+01 -1 0 0
1227 3 -2.5010150914251678e-01 2.1429430292383838e+01 1.0084437784180512e+01 1.1505593698293984e+01 -1 0 0
1238 3 -2.6084315580950201e-01 2.1429430370417737e+01 1.5126656630603751e+01 1.1505593658492094e+01 -1 0 0
1278 3 -2.4811493124845843e-01 1.6387211323366543e+01 1.0084437785609595e+01 1.1505593665726373e+01 0 0 0
1287 3 -2.7117971584393896e-01 1.6387211263910441e+01 1.5126656626743525e+01 1.1505593700149978e+01 0 0 0
1288 3 -2.4898119350253156e-01 1.6387211292953346e+01 1.2605547227012494e+01 1.1505593703627941e+01 0 0 0
1289 3 -2.5083550333685417e-01 1.8908320772791981e+01 1.2605547214608974e+01 1.1505593694326199e+01 0 0 0
1290 3 -2.5124397119914615e-01 1.8908320763507078e+01 1.0084437768457697e+01 1.1505593685936265e+01 0 0 0
1295 3 -2.5786831221243739e-01 1.8908320783140098e+01 1.5126656622657471e+01 1.1505593668347707e+01 0 0 0
1137 1 2.8041320698976097e-01 2.4592788737465527e+00 2.2662616815173479e+01 1.0701718801840904e+01 0 -1 0
1143 1 2.9443394625923830e-01 5.0435670451277694e+00 2.2613575074032774e+01 1.0741434223332023e+01 0 -1 0
1158 1 2.8685574243316153e-01 2.5895914593225986e+00 1.5033381162677724e+01 1.0712071283045434e+01 0 0 0
1172 1 3.0859561838561705e-01 2.5639517516917212e+00 2.0118829014123918e+01 1.0792573085319638e+01 0 0 0
1173 1 2.9542626946847844e-01 2.5774530239498969e+00 1.7668022565710707e+01 1.0768317554687526e+01 0 0 0
1174 1 2.7303665385386450e-01 5.0616451315429591e+00 1.7608836173085390e+01 1.0664903748526092e+01 0 0 0
1175 1 2.9264822525317152e-01 5.1786811086129916e+00 1.5112339386196259e+01 1.0737294492097156e+01 0 0 0
1188 1 2.8175445793845877e-01 5.1187570058732561e+00 2.0132473784966798e+01 1.0691825869170813e+01 0 0 0
1253 3 -2.6618842901474604e-01 1.2605547939940924e+00 2.0168875576962431e+01 1.1505593611875812e+01 0 0 0
1254 3 -2.5643253810459687e-01 1.2605548132750852e+00 1.7647766065214814e+01 1.1505593609259416e+01 0 0 0
1255 3 -2.4761556554977140e-01 3.7816641377572005e+00 1.7647766054948601e+01 1.1505593607007830e+01 0 0 0
1269 3 -2.5282735716757521e-01 3.7816641287212613e+00 2.0168875565226649e+01 1.1505593610227997e+01 0 0 0
1270 3 -2.5604437866780044e-01 6.3027735341098845e+00 2.0168875575403245e+01 1.1505593644724472e+01 0 0 0
1271 3 -2.5438691963539389e-01 6.3027735371899878e+00 1.7647766047475788e+01 1.1505593643436706e+01 0 0 0
1154 1 2.8284145551439543e-01 1.0199506578815910e+01 2.2688979606769696e+01 1.0716445679569777e+01 0 -1 0
1144 1 2.8683232044839763e-01 7.6194585433646136e+00 2.2628780911570715e+01 1.0717376260297865e+01 0 -1 0
1155 1 2.8142900582470831e-01 1.2637581809094248e+01 2.2647076541986589e+01 1.0715631950825955e+01 0 -1 0
1176 1 2.8102793110509033e-01 7.6335182499570324e+00 1.5133846122838486e+01 1.0701560744575460e+01 0 0 0
1192 1 2.8891374210463555e-01 1.0158973373545832e+01 1.5199069656580445e+01 1.0718072896148566e+01 0 0 0
1190 1 3.0066114338685918e-01 7.5291574230109113e+00 1.7676654485190220e+01 1.0793717637055460e+01 0 0 0
1189 1 3.0275484957735160e-01 7.5772133648231117e+00 2.0149100447182917e+01 1.0761728015884007e+01 0 0 0
1191 1 2.8665421176989747e-01 1.0012865968063549e+01 1.7738250048770723e+01 1.0718525196604839e+01 0 0 0
1193 1 2.9716744669804851e-01 1.2605115459927186e+01 1.5210525588998719e+01 1.0759856917876094e+01 0 0 0
1201 1 3.0345139622620204e-01 1.0144373380396228e+01 2.0262535543537371e+01 1.0762888843764211e+01 0 0 0
1202 1 2.9080307111470000e-01 1.2627414446439895e+01 2.0199326170792968e+01 1.0728826727627482e+01 0 0 0
1203 1 2.8711373299317350e-01 1.2595546721726970e+01 1.7697589223727174e+01 1.0723829612813631e+01 0 0 0
1272 3 -2.6123584967323882e-01 8.8238830719799068e+00 1.7647766039757876e+01 1.1505593653123221e+01 0 0 0
1282 3 -2.6034394252954796e-01 8.8238830615477823e+00 2.0168875574289011e+01 1.1505593646271533e+01 0 0 0
1283 3 -2.6300276239953890e-01 1.1344992585877078e+01 2.0168875557918835e+01 1.1505593639100089e+01 0 0 0
1284 3 -2.4205891784052483e-01 1.1344992586762238e+01 1.7647766038090943e+01 1.1505593659637588e+01 0 0 0
1285 3 -2.5319418703912205e-01 1.3866101936509969e+01 1.7647766045503410e+01 1.1505593676833275e+01 0 0 0
1291 3 -2.3487191739338861e-01 1.3866101943166891e+01 2.0168875548611766e+01 1.1505593638094753e+01 0 0 0
1136 1 2.9522507596738451e-01 2.2594315475259460e+01 2.2667127712856708e+01 1.0765738784257390e+01 -1 -1 0
1170 1 2.8714567939257413e-01 1.7726690808885575e+01 2.2671061993196801e+01 1.0712550088546021e+01 0 -1 0
1187 1 2.7514067773207274e-01 2.0187029209509582e+01 2.2689878931320319e+01 1.0695041309740395e+01 0 -1 0
1206 1 3.0283325712153580e-01 1.7648288015521157e+01 1.5166646942936396e+01 1.0773369107621573e+01 0 0 0
1214 1 2.9655025751316505e-01 2.0143784045393492e+01 1.5158012020760472e+01 1.0728771878795699e+01 0 0 0
1156 1 2.8773476257971137e-01 5.0777169760024776e-02 1.7640549470170097e+01 1.0714615227095317e+01 0 0 0
1171 1 2.9617172034369521e-01 3.2852965303646897e-02 2.0152341229961234e+01 1.0747919198076048e+01 0 0 0
1169 1 2.9588638980150656e-01 1.5153090528407251e+01 1.9893912001169411e-02 1.0747768370609524e+01 0 0 0
1205 1 3.0187408060621068e-01 1.5188127867049850e+01 1.5115765505339684e+01 1.0774624987736958e+01 0 0 0
1204 1 3.0048606314086124e-01 1.5135576793817528e+01 1.7677365735698718e+01 1.0763141228475588e+01 0 0 0
1210 1 2.6205688318973575e-01 1.5159328171699430e+01 2.0238173129117708e+01 1.0626823293758321e+01 0 0 0
1157 1 3.1320280986097182e-01 9.3953560981603346e-03 1.5134326625826201e+01 1.0819849843156355e+01 0 0 0
1211 1 2.8749827288581226e-01 1.7656332746804040e+01 2.0249654649588031e+01 1.0737946826180405e+01 0 0 0
1212 1 2.8648585770687929e-01 1.7652022668139768e+01 1.7667804525306988e+01 1.0727153501400293e+01 0 0 0
1213 1 2.8772867184012940e-01 2.0164347931890397e+01 1.7625931575658957e+01 1.0726138749882443e+01 0 0 0
1215 1 2.8692725687767251e-01 2.0202536638371594e+01 2.0138382489387766e+01 1.0705873094832585e+01 0 0 0
1237 3 -2.4375320002516102e-01 2.1429430367734597e+01 1.7647766072634191e+01 1.1505593621500367e+01 -1 0 0
1252 3 -2.4824508190383096e-01 2.1429430373657159e+01 2.0168875584225084e+01 1.1505593615092989e+01 -1 0 0
1292 3 -2.3783356363619632e-01 1.6387211282717807e+01 2.0168875547730853e+01 1.1505593596890506e+01 0 0 0
1293 3 -2.5386674532701958e-01 1.6387211272168013e+01 1.7647766057606052e+01 1.1505593641915143e+01 0 0 0
1294 3 -2.4987453888191069e-01 1.8908320782627484e+01 1.7647766068904637e+01 1.1505593611683556e+01 0 0 0
1296 3 -2.4574984076907885e-01 1.8908320802212270e+01 2.0168875562961922e+01 1.1505593582951416e+01 0 0 0

Velocities

3 0.0000000000000000e+00 0.0000000000000000e+00 0.0000000000000000e+00
4 0.0000000000000000e+00 0.0000000000000000e+00 0.0000000000000000e+00
7 0.0000000000000000e+00 0.0000000000000000e+00 0.0000000000000000e+00
8 0.0000000000000000e+00 0.0000000000000000e+00 0.0000000000000000e+00
9 0.0000000000000000e+00 0.0000000000000000e+00 0.0000000000000000e+00
10 0.0000000000000000e+00 0.0000000000000000e+00 0.0000000000000000e+00
11 0.0000000000000000e+00 0.0000000000000000e+00 0.0000000000000000e+00
12 0.0000000000000000e+00 0.0000000000000000e+00 0.0000000000000000e+00
13 0.0000000000000000e+00 0.0000000000000000e+00 0.0000000000000000e+00
14 0.0000000000000000e+00 0.0000000000000000e+00 0.0000000000000000e+00
15 0.0000000000000000e+00 0.0000000000000000e+00 0.0000000000000000e+00
24 0.0000000000000000e+00 0.0000000000000000e+00 0.0000000000000000e+00
26 0.0000000000000000e+00 0.0000000000000000e+00 0.0000000000000000e+00
27 0.0000000000000000e+00 0.0000000000000000e+00 0.0000000000000000e+00
28 0.0000000000000000e+00 0.0000000000000000e+00 0.0000000000000000e+00
163 2.5219528704905408e-05 2.9300226287401897e-03 -2.2181529597151972e-03
166 -4.6494936039026668e-03 1.0199452260483228e-03 -2.7326690864602557e-03
168 -4.1489495456060160e-03 4.0404471754972304e-03 1.3208859221975563e-03
169 2.6234864569144659e-03 -4.5713063375146376e-03 -2.1095090834193715e-03
171 2.4800751293848600e-03 5.7891338105194355e-03 4.0624766789653221e-03
177 1.0002704860139641e-02 -3.8990891525707556e-03 9.5228874127728389e-05
178 8.2218506097480760e-03 2.6585150054237814e-03 -2.7596610032207701e-03
179 2.7970994098437700e-03 -3.1671807250545844e-03 -3.5717204564093179e-03
180 1.2283684705175575e-02 -3.3333223422502807e-03 -6.8361013576406109e-04
181 -4.1715776315545796e-03 -7.4232942554794549e-03 8.4390160305360465e-03
182 -1.2574403688670481e-03 9.5737643149764445e-03 2.2037276617885133e-03
183 -4.1882369574965045e-03 -4.4389967445724278e-03 -1.1301857191686763e-03
184 2.7690940943404761e-03 -1.4030303680061167e-03 3.0917272540146607e-03
185 -9.8366555252782806e-04 -4.5046299415941917e-04 -1.3275574937756112e-04
186 4.2859496815607833e-03 4.8973404163897378e-03 -1.0758539723711707e-03
187 3.2800993543020754e-03 3.4138154046012754e-03 5.4811960368655512e-03
188 4.6122780608255009e-03 -1.4269310272450358e-02 2.9110825462843521e-03
189 3.6082748288022212e-03 -4.2449564724232405e-03 -1.1223261759693090e-02
190 9.5998633230388231e-06 2.8769803376763564e-03 -2.6637229933237760e-03
191 1.2987883919379642e-02 6.5641161798215145e-03 -2.9943642424851199e-03
192 -6.3866904006632311e-04 -2.5933123159272791e-03 -5.2372983505378024e-03
193 7.4468311521959721e-03 8.0938852387749220e-03 -4.2032673685057625e-03
194 6.1770550202171195e-03 -9.9202681820581146e-03 -1.9518517740316384e-03
213 -2.2640749493496454e-03 -2.4431075019014335e-03 3.4567219585884450e-03
214 5.2731270128633205e-03 3.5972593224832326e-03 -8.5557765626458893e-03
217 -6.3386718593476648e-03 3.3735778012220284e-03 -4.0364778243927877e-04
219 -3.5702345948836296e-03 -2.3148594563023365e-03 -6.4252178703521018e-04
220 6.9507435028619995e-04 -6.3056734460615075e-03 -1.7231433150779790e-03
221 4.9380232498540590e-03 -7.0540622167898021e-03 -1.1871330731847540e-03
222 6.8337089099389508e-05 4.5426353867465850e-03 -2.1147938354063489e-03
223 -6.2876144218325884e-03 3.3313584892653283e-05 -1.4722237418287880e-03
487 -2.8738989900201452e-04 -7.8323576606440231e-04 -5.6003938006794424e-03
501 -8.6165356755316252e-03 6.2892435156078029e-03 6.0850465341151187e-03
504 -2.4815232719861925e-03 -6.9463537339127415e-04 8.0236574812643704e-03
509 -2.8655157435723421e-03 6.2666671609127762e-03 -5.2756912602370497e-03
512 -6.8599208363636123e-03 5.5466141622194350e-03 6.6142617070871473e-03
517 1.5938240086060414e-03 -2.2727025707004423e-03 4.5724119719129912e-03
538 4.7024836436634736e-03 -4.7556856759187665e-04 1.7510244394488886e-04
543 -3.2855762960005189e-03 -7.9685185101725717e-03 -6.0554686076469367e-04
546 -8.2030977198551628e-03 9.7905941746535808e-04 2.4906578435821333e-03
227 1.1401148837702267e-03 -5.2957489421023452e-03 -2.1101360055757203e-03
551 6.4689611834083517e-04 4.6567710371674603e-04 -4.1676476166415625e-03
535 1.8229005806733522e-03 -6.6255214798625495e-03 2.9908610769206283e-03
195 1.8104917811055958e-03 7.8477999700985301e-03 4.5045918384142691e-03
225 -9.2703392339761465e-03 -3.9796314398964066e-03 -1.3327613017307968e-03
519 6.4626660646004629e-04 -1.4266899893300500e-03 -2.8372598924189719e-04
197 1.0039618462820636e-03 3.5626697503598455e-03 -4.2074557390436142e-03
224 -2.9498893480290620e-03 2.9780081821007055e-03 5.5912456398598889e-03
1 0.0000000000000000e+00 0.0000000000000000e+00 0.0000000000000000e+00
2 0.0000000000000000e+00 0.0000000000000000e+00 0.0000000000000000e+00
164 -4.6688844003341104e-03 -6.7358919804508628e-03 -1.1570260695535616e-02
165 -2.6814660330586125e-04 -2.2649782541052715e-03 -2.8149826487461676e-03
175 -2.8965919644844524e-03 2.7075960479035896e-03 -7.3317587414007523e-03
173 -7.0116160813537827e-04 3.6703080592347865e-03 -2.0513208926865550e-03
215 -9.4982994071218171e-03 3.3298814761620380e-03 1.3544431149016261e-03
269 4.6850288923963763e-03 -4.1942228911175548e-03 -3.9593823676318460e-03
497 -6.0583763200893212e-03 9.2485939939412013e-03 -1.8180500516256214e-03
593 -2.6633270863023984e-03 -3.2081746426038233e-03 -9.0040154792657180e-03
176 1.6281440198232077e-03 3.3873313831939852e-03 9.4987311379370477e-04
211 8.3366043294053494e-04 -7.8967055890632812e-03 -4.7134909094552171e-04
218 -9.6332958335996495e-05 7.8814004648555339e-05 -3.3255451467965711e-03
196 -3.6292849857583872e-03 -8.6483574275519268e-03 -3.0996120052298425e-03
167 5.5911294883438474e-03 4.9402193050251250e-03 -6.7629974005486418e-04
491 -9.0945295678619576e-03 1.2260690396712626e-02 -2.7453793600926294e-03
16 0.0000000000000000e+00 0.0000000000000000e+00 0.0000000000000000e+00
30 0.0000000000000000e+00 0.0000000000000000e+00 0.0000000000000000e+00
29 0.0000000000000000e+00 0.0000000000000000e+00 0.0000000000000000e+00
31 0.0000000000000000e+00 0.0000000000000000e+00 0.0000000000000000e+00
32 0.0000000000000000e+00 0.0000000000000000e+00 0.0000000000000000e+00
33 0.0000000000000000e+00 0.0000000000000000e+00 0.0000000000000000e+00
34 0.0000000000000000e+00 0.0000000000000000e+00 0.0000000000000000e+00
35 0.0000000000000000e+00 0.0000000000000000e+00 0.0000000000000000e+00
36 0.0000000000000000e+00 0.0000000000000000e+00 0.0000000000000000e+00
52 0.0000000000000000e+00 0.0000000000000000e+00 0.0000000000000000e+00
54 0.0000000000000000e+00 0.0000000000000000e+00 0.0000000000000000e+00
55 0.0000000000000000e+00 0.0000000000000000e+00 0.0000000000000000e+00
56 0.0000000000000000e+00 0.0000000000000000e+00 0.0000000000000000e+00
57 0.0000000000000000e+00 0.0000000000000000e+00 0.0000000000000000e+00
58 0.0000000000000000e+00 0.0000000000000000e+00 0.0000000000000000e+00
59 0.0000000000000000e+00 0.0000000000000000e+00 0.0000000000000000e+00
60 0.0000000000000000e+00 0.0000000000000000e+00 0.0000000000000000e+00
61 0.0000000000000000e+00 0.0000000000000000e+00 0.0000000000000000e+00
62 0.0000000000000000e+00 0.0000000000000000e+00 0.0000000000000000e+00
87 0.0000000000000000e+00 0.0000000000000000e+00 0.0000000000000000e+00
226 6.1884090080894529e-04 -3.7439251700403147e-03 -2.9549423655654073e-04
228 1.7989386430431087e-03 -5.0489372302014585e-03 -8.3025632221745364e-03
229 -7.5631803915255794e-03 -4.6625359045704244e-03 -1.3876060929974366e-03
230 -8.8197905704825660e-04 3.1131845720315794e-03 -7.8683947266896676e-03
231 1.9383236069105631e-03 1.1480686238043448e-02 -4.2418898725940287e-03
232 1.7738258606536128e-03 9.7638597764491541e-04 -2.6457613090886240e-04
233 3.6361528304087731e-03 -7.0907039377512519e-03 7.5242859217230298e-03
234 3.5733610106888367e-03 2.1184723993022438e-03 -1.4797818696347150e-03
235 -5.0240054322717928e-03 -6.6121029906269320e-04 3.8209567934676448e-03
236 -1.3258371429437923e-03 3.8899739974609335e-04 -2.6368356396747235e-03
237 3.1804959862475153e-03 -4.9276261082679676e-03 3.6660309959916002e-03
239 7.3186586113341149e-03 -4.2864491011070467e-03 1.8188185695908882e-03
240 -7.6664868606476249e-04 -6.5862000569779132e-03 -1.8219557059916717e-03
271 -6.3966807910490657e-03 -7.7516172814611156e-04 3.3470326062133874e-03
273 3.7761033802318237e-03 2.4092284071753518e-03 6.2416551888760654e-03
275 -2.4634596329315087e-03 4.7806899767287147e-03 7.5533283572298921e-03
276 -4.3909115289223746e-03 3.8228487830763171e-03 1.4245200042200291e-03
277 -3.6863124517608762e-04 -5.0126499896073623e-03 5.4836982647712938e-03
278 4.4252037583833387e-03 -3.4236573700531857e-03 2.6856637629290229e-03
279 -5.2668777423010469e-04 -3.0739350219784233e-03 6.6442512514537063e-03
280 5.2812175133830266e-04 -2.1042726430646206e-03 -3.2049227785280699e-03
281 -9.5335020245843304e-03 -2.0137711122946977e-05 3.4558646794379169e-03
282 -2.5230881186778880e-03 1.1319066820303192e-03 -4.3151987625486051e-03
283 -1.0399296545868498e-03 6.5080695780618805e-03 -6.9671902400512548e-03
284 -6.6248816707014414e-03 -2.9343696333683852e-04 -2.2463119605330762e-03
285 -3.7748912066552158e-03 6.0317628631119868e-03 -3.1939114497214205e-03
286 -2.7149984226011552e-03 -3.1382802448993137e-03 -6.3753685976344725e-03
287 -2.9264486210821088e-03 2.5943908612301690e-03 8.7912715728613190e-03
289 6.0090659467616455e-04 -8.9583633607083024e-04 -1.7122552119535649e-03
342 6.4634153722874840e-03 1.8906667113197748e-03 4.6376941836621206e-03
554 -5.0663324072527676e-05 2.3844308321196847e-03 -2.2170546121238754e-03
559 1.1338828969995843e-03 1.0415986837717208e-02 5.4197951256391803e-03
561 4.2516929405932505e-03 -4.1784162212837542e-03 -6.7970228492218168e-03
601 -4.2350389945942464e-03 6.1652615052341956e-03 4.5852686036912949e-03
604 1.0931037210442212e-02 5.5609274074692766e-04 5.2957833254348632e-03
609 -4.5083267533546148e-03 -3.4170302134838566e-03 -1.1348846252636979e-03
89 0.0000000000000000e+00 0.0000000000000000e+00 0.0000000000000000e+00
612 9.0319772119610408e-03 1.0389087523517613e-02 -6.4463132703426089e-03
344 -7.9008378462568987e-03 3.9945623957401646e-04 -4.8847253848346541e-03
290 -2.0266875424992336e-03 3.8240603070879096e-03 -8.9229884321066020e-03
291 -5.3556185047955035e-03 -1.1149204587041384e-02 3.7022850331165399e-03
288 -1.5855926877342075e-03 2.8364755841174582e-03 -6.5164195882760154e-03
346 5.0134469003555327e-03 4.0541957235379353e-03 1.8631170483795344e-03
348 3.0086909774583869e-03 4.6033923616271592e-03 8.2082227522976153e-04
272 7.1815602399008711e-04 -4.6956289643127515e-03 3.7803848057115052e-03
340 3.7247266494333880e-03 -1.3223408476972459e-03 -6.2685258998940669e-03
596 1.8040839632505459e-03 9.0894390066789711e-03 5.3928903321431767e-03
664 -5.5261245455306947e-03 6.3204455357211238e-03 3.4469270779755069e-03
343 -3.6462228033937436e-03 4.4464536477235280e-03 4.8048328493434196e-03
198 -1.7185924869106252e-03 -5.4284643861066163e-03 2.3256054996302210e-03
238 -1.0371766060133061e-03 3.0237542625766319e-03 5.1617741112030685e-03
293 2.4568632098277360e-03 5.4576179079222067e-03 -8.6133868805681104e-03
617 6.1873395247361756e-04 -1.5238009950017594e-03 1.8167304603029742e-03
672 -7.7806610445011349e-03 -4.7253928168373115e-03 -4.1308980094517684e-03
6 0.0000000000000000e+00 0.0000000000000000e+00 0.0000000000000000e+00
63 0.0000000000000000e+00 0.0000000000000000e+00 0.0000000000000000e+00
64 0.0000000000000000e+00 0.0000000000000000e+00 0.0000000000000000e+00
90 0.0000000000000000e+00 0.0000000000000000e+00 0.0000000000000000e+00
91 0.0000000000000000e+00 0.0000000000000000e+00 0.0000000000000000e+00
92 0.0000000000000000e+00 0.0000000000000000e+00 0.0000000000000000e+00
93 0.0000000000000000e+00 0.0000000000000000e+00 0.0000000000000000e+00
94 0.0000000000000000e+00 0.0000000000000000e+00 0.0000000000000000e+00
95 0.0000000000000000e+00 0.0000000000000000e+00 0.0000000000000000e+00
96 0.0000000000000000e+00 0.0000000000000000e+00 0.0000000000000000e+00
97 0.0000000000000000e+00 0.0000000000000000e+00 0.0000000000000000e+00
98 0.0000000000000000e+00 0.0000000000000000e+00 0.0000000000000000e+00
122 0.0000000000000000e+00 0.0000000000000000e+00 0.0000000000000000e+00
124 0.0000000000000000e+00 0.0000000000000000e+00 0.0000000000000000e+00
125 0.0000000000000000e+00 0.0000000000000000e+00 0.0000000000000000e+00
126 0.0000000000000000e+00 0.0000000000000000e+00 0.0000000000000000e+00
292 7.8339893582791958e-03 3.7148587663641585e-03 9.1855177175496454e-03
294 -1.2484798075463109e-03 -1.8803915433552323e-03 -3.8672197947404140e-03
296 1.3950719253071934e-03 7.6823057440388145e-03 9.1215532161770894e-03
297 -5.7096376363808847e-03 1.0786952716637767e-03 3.2194266049841865e-03
298 1.4368182334583658e-03 6.3725434326071433e-03 -2.0149353137280516e-03
347 -8.5512652806556191e-03 -4.6317432216784141e-03 -1.2404879457041582e-03
349 -7.8250150590597634e-03 -5.4853352335179472e-03 -2.1337279807993686e-03
350 -1.8925312904654935e-03 3.5108550838116727e-03 1.5804068592758223e-03
351 3.3040888809010198e-03 -6.5125811039716567e-03 6.4169852943549372e-03
352 -7.7162867800760681e-03 -5.0759046337047701e-04 -2.3065128267021145e-03
353 -4.0209291748303389e-03 6.5891180771145870e-03 1.1510357674559702e-03
354 4.2481041137498667e-04 -6.9964005310367457e-03 -1.9567683596038036e-03
355 2.9044351092941474e-03 3.0095218379553239e-03 1.5106168632400166e-03
356 -9.3773607445702834e-03 6.9641651660182803e-03 1.3254517592318799e-02
357 2.1040081915125459e-03 7.8959217569880506e-03 6.0302749167912158e-04
358 -2.0762681031385052e-03 -5.3564405742177953e-03 -3.4291946255442411e-05
359 2.1449271440942288e-03 8.4737462106599672e-04 1.6134875485055485e-03
360 8.3687631098457553e-03 -1.6795179837604394e-04 3.8021114954210544e-03
361 2.7712802107818951e-03 4.6685951969888699e-03 -2.9319815965370621e-04
362 -5.8464697887859410e-03 -3.8265907461536405e-03 -9.8303695211209245e-03
363 -1.1180286545644192e-03 -5.1759329852833829e-03 2.0295088056713454e-03
365 2.6615736315246585e-03 1.7460923680293497e-03 -6.5784712886328275e-03
366 -3.5026936431609619e-03 3.9379256516616874e-03 1.7734055758628403e-03
409 -1.0811627634325566e-03 -1.5759124107437887e-03 -5.5523137670740203e-03
411 6.4961485548801559e-03 -4.4077120420945378e-04 -9.4205970521623814e-03
415 -7.5357676259330915e-03 -8.6888211075780257e-03 -1.1519037414845916e-02
416 -4.8472018932871437e-03 8.6645202880993623e-03 2.5136740516150040e-03
417 4.1515848197426974e-04 9.2935890164786653e-03 4.1927316197719324e-03
418 -3.7683426374172354e-03 -1.0151070084119850e-02 1.4958511386219649e-03
419 1.8289137565236835e-03 7.9339056849130375e-03 1.9012751376766997e-03
420 -5.6494304780025581e-03 -3.6560424042833221e-03 8.4977383161511932e-03
675 -7.6437937321105912e-03 7.6582461415527605e-03 1.8850902777694902e-03
680 3.0600829232234090e-04 8.6560567578035201e-03 -1.6214517978387095e-03
683 -2.2136730537667634e-03 -3.0347055407358011e-03 -2.8775764156106546e-03
741 -1.2757397019011996e-03 6.6191030383943119e-04 2.2590437737856173e-03
667 5.9780070403260719e-03 -5.1513407628626254e-03 -1.1292946672636594e-02
412 -1.7397444100645321e-03 -1.1460806801483191e-02 1.3844995153408461e-03
413 7.7720213598128087e-04 2.4735994296679908e-03 -6.6966085613440083e-03
295 -7.6402106786142123e-03 4.3416961344455874e-03 2.9995642321570906e-03
364 -1.0908320108914349e-02 -4.2928226726712485e-03 -7.0918583449847399e-03
619 -1.2338972461044557e-03 -1.5666318653072525e-04 -6.3080966842163017e-03
688 -2.7468046596531089e-03 -2.6830277394318250e-03 3.8044247936383636e-03
19 0.0000000000000000e+00 0.0000000000000000e+00 0.0000000000000000e+00
20 0.0000000000000000e+00 0.0000000000000000e+00 0.0000000000000000e+00
21 0.0000000000000000e+00 0.0000000000000000e+00 0.0000000000000000e+00
22 0.0000000000000000e+00 0.0000000000000000e+00 0.0000000000000000e+00
23 0.0000000000000000e+00 0.0000000000000000e+00 0.0000000000000000e+00
25 0.0000000000000000e+00 0.0000000000000000e+00 0.0000000000000000e+00
40 0.0000000000000000e+00 0.0000000000000000e+00 0.0000000000000000e+00
42 0.0000000000000000e+00 0.0000000000000000e+00 0.0000000000000000e+00
43 0.0000000000000000e+00 0.0000000000000000e+00 0.0000000000000000e+00
44 0.0000000000000000e+00 0.0000000000000000e+00 0.0000000000000000e+00
45 0.0000000000000000e+00 0.0000000000000000e+00 0.0000000000000000e+00
46 0.0000000000000000e+00 0.0000000000000000e+00 0.0000000000000000e+00
47 0.0000000000000000e+00 0.0000000000000000e+00 0.0000000000000000e+00
48 0.0000000000000000e+00 0.0000000000000000e+00 0.0000000000000000e+00
75 0.0000000000000000e+00 0.0000000000000000e+00 0.0000000000000000e+00
199 9.8378249098607165e-03 4.3016618070341045e-03 4.5094473863139988e-03
200 -5.0764298533236812e-03 -2.8379413885132707e-03 -1.5763900179328618e-03
202 1.4212628147278437e-03 -4.3140227230281459e-03 -6.8921796841481297e-03
203 5.2195158220159415e-03 5.9531860661263978e-03 3.2787919320298319e-03
204 -1.9803739107437823e-04 -1.1185417357176711e-03 1.3896644362170229e-03
205 3.4549120571734323e-03 -1.0389893447084197e-03 -2.4574378161405248e-03
206 7.7026852766907249e-03 -1.6927944769814604e-04 4.5634357914438864e-03
207 -2.4843993974920037e-04 2.1217878838175651e-03 4.6542939443686400e-03
208 1.2746601460613077e-03 -9.2468075207390189e-03 2.3139518956216982e-03
209 3.8458988720429560e-03 7.8569630195119023e-03 -1.1991447248666878e-03
210 4.7850329395097754e-03 -9.1308009951371477e-03 -2.8360801822246251e-03
212 -5.9843218425320935e-03 3.7263932240567156e-03 -1.0301150154497089e-03
216 5.1185878732004789e-03 3.7640583988934784e-03 -8.9700280947285120e-04
247 8.2140316854558727e-03 1.1334843759555307e-03 -5.4405717279855060e-03
251 6.8021737197621508e-03 4.7639826357327220e-04 1.8128067913920000e-03
253 8.4608583143253643e-03 4.1566924954863776e-03 2.2530621039763606e-03
254 7.4512941061426622e-03 -5.8695839720016114e-03 6.5628866123678400e-03
255 -7.7604482524762364e-04 -7.9117988395351595e-03 -2.4546553177317507e-03
256 8.7764369877997989e-03 -1.3990018955931043e-04 2.1901187748621762e-03
257 7.3495730657505251e-04 1.7302232627067302e-02 2.7448689952399045e-03
258 1.2703539975991382e-03 7.4103740818982997e-04 5.9466694238032537e-03
259 -2.1438269131859346e-03 -3.7284287996580943e-03 6.9207916940010189e-03
260 3.8769184191668883e-04 -1.1046485605749369e-03 3.3713117591797109e-03
261 3.5704585424512769e-03 9.9923508025937836e-04 -7.7850508593124259e-03
262 -2.5724929138235013e-03 1.7496937612874036e-03 1.4144581198084272e-03
263 -2.3165277303062561e-03 -4.2642079181790180e-03 3.8840412161219181e-03
265 4.9530849532941519e-03 -6.8064500644699399e-04 -1.4569152838361150e-03
266 2.4193679944507166e-03 6.7736618245541119e-03 9.8449718537792306e-03
318 3.2477059497774039e-03 2.3023249812905518e-04 -4.5381303670127531e-03
319 -8.9334151772450208e-03 1.3990797306928779e-03 -1.6595998184997683e-03
523 -3.7928550314652557e-04 -5.7195622588054095e-03 -8.8527257696236405e-04
527 -3.2185439986081544e-03 3.4065285733998890e-03 2.1457275822856487e-04
530 -1.4655554081352653e-03 -4.9159458212359904e-03 1.3435004447858137e-03
577 -2.4021042479525009e-03 1.6594852126855159e-04 7.5910192835364713e-03
580 3.0716303584337155e-03 5.3165326249451162e-03 2.7076578492714554e-04
585 7.4564794061250227e-03 -4.1780112630816352e-03 -5.0783994546467186e-03
264 3.6972677286086562e-03 2.7497166644089239e-03 -6.4277630834121537e-04
322 9.0452670799860615e-04 6.1054046082126079e-03 5.3218729362701648e-03
324 2.2805875025087604e-03 6.0557842984028702e-04 -1.6796140047705527e-03
248 9.1799786308328201e-03 1.4670511588435540e-03 -3.3904479926396940e-03
316 2.9537656471356121e-03 3.0772082334522982e-04 -1.2621827716732808e-03
267 1.4891210658295202e-03 3.5289363124953316e-03 -1.8073233405482060e-03
77 0.0000000000000000e+00 0.0000000000000000e+00 0.0000000000000000e+00
588 4.9966171495211655e-03 3.6438615933605191e-03 2.7744648415121264e-03
648 9.4898397154338301e-03 -6.3414194973961295e-03 -1.8116140101469933e-03
17 0.0000000000000000e+00 0.0000000000000000e+00 0.0000000000000000e+00
18 0.0000000000000000e+00 0.0000000000000000e+00 0.0000000000000000e+00
174 -2.3061703891540295e-03 8.8599817606086970e-03 -3.3746305279208372e-03
201 5.5591351017166210e-03 5.9838492451488243e-03 -2.9185943538501910e-03
245 -2.3506266914049740e-04 -3.6447189129491927e-03 1.3516516457443559e-03
252 -3.2322986708663423e-04 5.5763454878187593e-03 -4.8604354887209359e-03
320 -2.1771718482238782e-03 1.1769029299975196e-02 -3.8103800132395487e-03
49 0.0000000000000000e+00 0.0000000000000000e+00 0.0000000000000000e+00
50 0.0000000000000000e+00 0.0000000000000000e+00 0.0000000000000000e+00
51 0.0000000000000000e+00 0.0000000000000000e+00 0.0000000000000000e+00
53 0.0000000000000000e+00 0.0000000000000000e+00 0.0000000000000000e+00
78 0.0000000000000000e+00 0.0000000000000000e+00 0.0000000000000000e+00
79 0.0000000000000000e+00 0.0000000000000000e+00 0.0000000000000000e+00
80 0.0000000000000000e+00 0.0000000000000000e+00 0.0000000000000000e+00
81 0.0000000000000000e+00 0.0000000000000000e+00 0.0000000000000000e+00
82 0.0000000000000000e+00 0.0000000000000000e+00 0.0000000000000000e+00
83 0.0000000000000000e+00 0.0000000000000000e+00 0.0000000000000000e+00
84 0.0000000000000000e+00 0.0000000000000000e+00 0.0000000000000000e+00
85 0.0000000000000000e+00 0.0000000000000000e+00 0.0000000000000000e+00
86 0.0000000000000000e+00 0.0000000000000000e+00 0.0000000000000000e+00
88 0.0000000000000000e+00 0.0000000000000000e+00 0.0000000000000000e+00
110 0.0000000000000000e+00 0.0000000000000000e+00 0.0000000000000000e+00
112 0.0000000000000000e+00 0.0000000000000000e+00 0.0000000000000000e+00
113 0.0000000000000000e+00 0.0000000000000000e+00 0.0000000000000000e+00
114 0.0000000000000000e+00 0.0000000000000000e+00 0.0000000000000000e+00
115 0.0000000000000000e+00 0.0000000000000000e+00 0.0000000000000000e+00
116 0.0000000000000000e+00 0.0000000000000000e+00 0.0000000000000000e+00
268 4.9084860521315206e-03 1.1256836071448614e-02 1.1726861640119998e-03
270 -3.0846051272613254e-03 -6.9995544328490611e-04 1.2026934543420812e-03
274 2.3273765853941185e-03 4.7323058842971399e-03 1.5462316015280248e-03
325 -2.5267179998376419e-03 -9.2081194629216919e-05 -1.4611873690144580e-03
326 8.7737453250346178e-04 -3.5160291848011812e-03 -4.3137033012697603e-03
327 -4.3283800569618594e-03 7.9124645625511889e-03 -1.2782692193213916e-04
328 -4.7244881455562281e-04 -1.5208900095410043e-03 1.9043737013554069e-03
329 3.5101513008543145e-03 -3.4588331042888824e-03 4.7126704375651434e-03
330 -1.9167742673169863e-03 2.8591120684070079e-03 1.3118423923312276e-02
331 -4.6665502236078139e-03 5.1758614423525317e-03 8.7596146828809957e-04
332 -4.5427856870796800e-04 2.8262315408445350e-04 -7.3017899619568479e-03
333 2.6411497216238034e-03 -1.0917206556993419e-02 -4.4398544294925093e-03
334 -3.6011590790029631e-03 1.7142743860309262e-03 1.5217489808512130e-03
335 6.1329553402206085e-03 1.3654046549628782e-03 -1.7765630686557294e-03
336 2.2658751311168102e-03 3.9126854507443957e-03 -1.2203404422280713e-02
337 -1.2576372688636712e-03 2.8328738240479502e-04 3.4860933662834107e-03
338 3.5938508456294996e-03 2.0042500842906048e-03 -1.4850380323485214e-03
339 -9.9623748380438769e-04 -7.0368261003301890e-03 -6.8162396567365781e-04
341 -2.6405682378781610e-03 -1.2045890572368264e-03 4.0934821916924786e-03
385 2.2976178749692695e-04 -1.8409148276279162e-03 -2.5352530986953205e-03
387 -1.0881389435678569e-03 -4.7515275080495543e-04 2.9865175109736485e-03
391 2.6639456596992792e-03 4.3366643072604415e-03 5.2978985319749334e-03
393 1.4294058361113819e-04 -3.4153812576284974e-04 4.6382570576852297e-03
394 -3.5619142610383895e-03 4.4944253490251142e-03 -2.4085151110695546e-03
395 -9.0136224769564021e-04 -8.0004155425987360e-04 1.0762368638674727e-03
397 -1.5018943142631343e-03 7.9434791031782401e-03 -4.0660220172430688e-03
398 3.5785643584758629e-03 4.6710368609932246e-03 -2.3463705193782968e-03
651 -3.3605947379364829e-04 7.4593655674898476e-03 9.6421615371997029e-03
656 9.6381438745567483e-03 -4.2746288194650843e-03 -5.5238072792487807e-03
659 1.1852578092090248e-03 1.0663300421200313e-03 7.1788225309502070e-03
709 -9.1663476343710540e-03 -3.5132628021330710e-04 -1.7698762363383216e-03
717 -4.0807877503957129e-04 -4.3988583244364476e-03 -2.3000168674036413e-03
720 -9.7599802174645029e-04 3.6841908722714382e-03 -4.9593034213649169e-03
388 4.7913050091168393e-03 -1.0595705082134730e-02 6.3616200345625968e-03
396 -2.8833936003067012e-03 5.2469265906180248e-03 4.8192716056107696e-04
323 -4.5307677910318978e-03 4.9546117467302092e-03 -3.3138030081335643e-03
389 6.6473553289595226e-03 1.5053858847886494e-03 1.6775211489131890e-03
439 -6.6456028971720732e-03 -1.8628229107296577e-04 -7.5332473507247191e-03
763 -2.6821580943364666e-03 5.0492205395796840e-03 1.8589693874700819e-03
725 1.1036497329015786e-03 -3.9309310314345810e-03 8.0573696412505509e-03
733 -4.0593101256843345e-03 1.5423669787712521e-03 3.0063659093103312e-04
5 0.0000000000000000e+00 0.0000000000000000e+00 0.0000000000000000e+00
345 -2.9160404385065166e-03 -4.6235159321979663e-03 4.5503010369276663e-03
399 2.7401533473556351e-03 -2.4613903190209147e-03 -7.2515908053930296e-03
401 -9.1617123210998089e-03 8.5292056072263887e-03 -4.0597002336147445e-04
117 0.0000000000000000e+00 0.0000000000000000e+00 0.0000000000000000e+00
118 0.0000000000000000e+00 0.0000000000000000e+00 0.0000000000000000e+00
119 0.0000000000000000e+00 0.0000000000000000e+00 0.0000000000000000e+00
120 0.0000000000000000e+00 0.0000000000000000e+00 0.0000000000000000e+00
121 0.0000000000000000e+00 0.0000000000000000e+00 0.0000000000000000e+00
123 0.0000000000000000e+00 0.0000000000000000e+00 0.0000000000000000e+00
138 0.0000000000000000e+00 0.0000000000000000e+00 0.0000000000000000e+00
140 0.0000000000000000e+00 0.0000000000000000e+00 0.0000000000000000e+00
141 0.0000000000000000e+00 0.0000000000000000e+00 0.0000000000000000e+00
142 0.0000000000000000e+00 0.0000000000000000e+00 0.0000000000000000e+00
143 0.0000000000000000e+00 0.0000000000000000e+00 0.0000000000000000e+00
144 0.0000000000000000e+00 0.0000000000000000e+00 0.0000000000000000e+00
145 0.0000000000000000e+00 0.0000000000000000e+00 0.0000000000000000e+00
146 0.0000000000000000e+00 0.0000000000000000e+00 0.0000000000000000e+00
158 0.0000000000000000e+00 0.0000000000000000e+00 0.0000000000000000e+00
400 6.4938906156003398e-04 3.4181249813982034e-03 -1.4007254527925074e-02
402 -2.5885177350696248e-03 3.0231363841938370e-03 7.1299342558910775e-03
403 1.4382124936550005e-03 1.8225033883971131e-02 -8.7916305435717021e-04
404 -5.4035921594085745e-03 -2.9737512937224389e-03 -5.0942977875274402e-03
405 -5.0507624470122955e-03 2.1730902839872915e-03 1.7839619371827220e-03
406 5.6754220619311558e-03 -9.3743559798187253e-03 -1.6387834520353326e-03
407 4.3240020771006839e-03 1.4131499712384883e-03 -3.1560115010667025e-04
408 4.8002539362824830e-03 -1.6580955538360402e-03 2.1672806898019974e-03
410 5.2731824484157077e-03 -1.7573208059741758e-03 -5.6981381903728110e-04
414 -2.5692439458274334e-03 1.5980149006557020e-03 2.5464825546466273e-03
441 -1.0709979111241607e-03 -7.5770143881045823e-03 -3.5796389545606610e-03
443 -4.3626297290163662e-03 -4.0323117512353962e-03 -4.8195251362998124e-03
445 -1.2445257320718550e-03 2.3799616607695557e-03 3.3103172486879393e-03
447 -1.4373240160532377e-04 -7.5982180908438124e-04 -1.0215902432797016e-02
448 4.7530930195584607e-03 7.2335154902612355e-03 1.5571379700575570e-03
449 9.1556075111839091e-03 -1.1855108543565812e-04 8.1320218438833171e-03
450 3.1426404279801212e-05 -6.4347628039872697e-05 3.7823715287815612e-03
451 3.9970066381396496e-03 1.6833295021642313e-03 3.7858873570766559e-03
452 -3.3218023088840165e-03 -5.4968548057698127e-03 -2.0658077977607813e-03
453 -2.3949903177766258e-03 -9.6460514353470105e-04 -7.2632974374732982e-03
454 -3.4194295099058262e-03 -5.6365197569677025e-03 -8.7983362505207434e-03
455 4.4844613738419959e-03 -1.6797258695211481e-02 -8.3316467791108280e-04
456 6.2886646971664943e-04 9.5946791412229054e-04 -4.2410385066833775e-03
457 -6.5134948622403831e-03 -2.7571286001636233e-04 -4.1398274028282989e-03
458 -3.6603719896096526e-04 1.0041550547079392e-02 8.2183172429637491e-03
479 -3.0572434613516351e-03 -1.1962781949973151e-02 -4.2113903412499647e-03
480 3.6788509674089267e-04 -2.3016570404211225e-03 3.5034424663295217e-03
728 1.0676172711431342e-02 -3.6949885976046673e-03 4.2035599029841917e-03
736 -2.1864180509584123e-03 6.6813814805088186e-03 4.4112349922771875e-03
771 4.9372037942020436e-04 -3.8501733799190360e-03 -1.0040721760287807e-03
774 2.7468070885509057e-03 -2.4511915824013001e-03 2.1393643328733833e-03
779 -5.0749590451839481e-03 -2.0945369089776576e-03 -3.8512081689595005e-03
446 5.6717435215088265e-03 3.0989537682996351e-03 -1.4430167617636494e-03
442 -8.4165639496865867e-04 -7.9315370135057302e-03 -6.1439619290897616e-03
766 2.4988684377322706e-03 -9.0103066166291185e-03 -3.5711586295225296e-03
477 3.5253413039922528e-03 -6.7737620575292843e-03 1.7279771618481743e-03
801 -4.6817663211216089e-03 6.3044976331403544e-03 4.9947386454218621e-03
493 -6.9530463656528891e-03 2.4789799989735572e-03 3.9044661837652362e-03
572 -2.4831942778358257e-03 3.5168626543142650e-03 7.3042595614383381e-03
640 8.4015762850457233e-06 -3.8437159948788427e-03 2.4789462532135834e-03
643 8.0443032724561714e-03 9.5249581559698343e-03 -1.0671713661062430e-03
569 -2.2397894898933341e-03 3.6382159723605772e-03 -2.1606363415664904e-03
170 4.0107640906645037e-03 -7.9401099958292965e-03 4.2483506008185972e-04
172 5.1668619819334278e-03 3.8355777313721084e-03 -1.3043754329674704e-03
249 -1.2295138124752476e-04 -4.2063389556598121e-03 -6.0798058716567942e-03
39 0.0000000000000000e+00 0.0000000000000000e+00 0.0000000000000000e+00
41 0.0000000000000000e+00 0.0000000000000000e+00 0.0000000000000000e+00
66 0.0000000000000000e+00 0.0000000000000000e+00 0.0000000000000000e+00
67 0.0000000000000000e+00 0.0000000000000000e+00 0.0000000000000000e+00
68 0.0000000000000000e+00 0.0000000000000000e+00 0.0000000000000000e+00
69 0.0000000000000000e+00 0.0000000000000000e+00 0.0000000000000000e+00
70 0.0000000000000000e+00 0.0000000000000000e+00 0.0000000000000000e+00
71 0.0000000000000000e+00 0.0000000000000000e+00 0.0000000000000000e+00
72 0.0000000000000000e+00 0.0000000000000000e+00 0.0000000000000000e+00
73 0.0000000000000000e+00 0.0000000000000000e+00 0.0000000000000000e+00
74 0.0000000000000000e+00 0.0000000000000000e+00 0.0000000000000000e+00
99 0.0000000000000000e+00 0.0000000000000000e+00 0.0000000000000000e+00
100 0.0000000000000000e+00 0.0000000000000000e+00 0.0000000000000000e+00
101 0.0000000000000000e+00 0.0000000000000000e+00 0.0000000000000000e+00
102 0.0000000000000000e+00 0.0000000000000000e+00 0.0000000000000000e+00
242 -5.2491866139533312e-03 -5.2493910509217052e-03 -5.9655128589809845e-03
243 3.9970283101187672e-03 9.2428602724004636e-03 4.6618584190170282e-03
244 5.3508756608172964e-03 -5.4731768731525994e-03 -1.1671918791777685e-03
246 2.5706617425973396e-03 2.5096036810514900e-03 3.9623664516567480e-04
250 -1.9495297433081826e-03 5.2902031065028806e-03 -6.8429226127393464e-04
299 -3.9416540313837057e-03 6.7224750236239842e-03 4.5937278786832101e-03
301 -1.7869390271068911e-03 -2.6307951124420331e-03 -1.2017401203922218e-03
302 -6.2301181435010615e-03 -4.3415087382635996e-03 6.7939471603942012e-03
303 -2.3113599887903897e-03 7.6470673065312706e-04 -7.5553336685241328e-03
304 1.5614496583094264e-03 5.9404915008518487e-03 -1.3720689906186883e-04
305 -2.9692209143540199e-03 -7.5538887140741342e-05 3.9927970990711676e-04
306 -1.3303407303444086e-03 6.2949360645500046e-05 1.9013144369688865e-03
307 -1.1536099603514736e-03 5.3989317883632601e-03 1.6422375865414256e-03
308 7.2635686383632752e-03 -9.7979052546011951e-03 -5.9005413043015211e-03
309 -8.5850616236131459e-04 -4.9766570833390039e-03 -2.5498022067751672e-03
310 5.6588283276244261e-03 -2.7843841752024311e-03 -5.8524967544623906e-03
311 -1.4974045618092332e-03 -1.1441492869605212e-02 3.5208037473330048e-03
312 6.9613152061847611e-03 -5.7991690880818706e-03 -1.9665056547005219e-04
313 4.1519761290750527e-03 -2.9749711290783082e-03 -5.3817875106576150e-03
314 5.1874010016884225e-04 7.0528509749668063e-03 -6.7046133930345267e-03
315 -3.2031046601288912e-03 9.1981142094481865e-03 3.9323513013803503e-04
317 -5.0664351415666518e-03 -8.1587113351814112e-03 1.7859645507597923e-04
321 -1.5432884721790754e-03 -5.0054256500899862e-03 -5.3934836515825389e-03
367 -7.4404220530427242e-03 6.6776566616387045e-03 -8.6414032753963661e-03
368 -3.9864992121757536e-03 -8.4756875122912936e-03 2.0171406144101297e-03
369 -5.9921155947440224e-03 -1.1129593481481926e-02 -1.2318498473654311e-02
370 1.2725488931441505e-03 4.6026364240326200e-03 9.3141142707434416e-03
371 -7.0910686126762301e-04 -4.2743645027362685e-03 3.9578109700291577e-03
373 1.1362893809549291e-02 2.8109399613370240e-03 -1.8778374539193535e-03
374 -2.3088558618843433e-03 5.9091299918378601e-03 -5.2476399498074975e-03
627 7.2902597350459238e-03 -3.2028818944534192e-03 -1.5606261468511760e-03
632 1.4517941857139574e-03 3.9572935721349581e-03 -2.0295653379875729e-03
635 2.1292721767749920e-03 -8.0575636309514215e-03 -4.1138110889152530e-03
693 -1.4422751713887884e-03 -5.8714107561718965e-03 -2.1268426211197087e-05
104 0.0000000000000000e+00 0.0000000000000000e+00 0.0000000000000000e+00
375 1.3053343267552726e-03 -6.4643900254211344e-03 9.7319353260501057e-04
76 0.0000000000000000e+00 0.0000000000000000e+00 0.0000000000000000e+00
377 -6.3219582930708574e-03 -1.1706041987866933e-02 -2.5841912097458635e-03
701 9.6015832807115793e-03 6.7252966041630731e-04 2.5021189436401576e-03
372 -1.2418073586443746e-03 -5.9704955500779313e-03 1.0553083698683524e-02
696 -3.1738862763866908e-03 3.3274672263209331e-03 -1.0538984142374583e-03
241 7.3791590224691023e-04 1.0011945839221127e-03 4.6661881730463280e-04
300 2.2561476595299394e-04 7.4466016148324330e-04 2.5072590996049757e-03
565 -2.2090653281585628e-04 -2.4330903984622187e-03 -3.9132805672322116e-03
624 5.2804838074133609e-03 1.0506952088947115e-02 -2.4058079502983381e-03
392 -1.6590556099732336e-03 -8.8147202283853868e-03 5.3759518902710504e-04
712 -2.8589621177464259e-03 1.3231365876507171e-03 -5.4749889411988154e-04
103 0.0000000000000000e+00 0.0000000000000000e+00 0.0000000000000000e+00
105 0.0000000000000000e+00 0.0000000000000000e+00 0.0000000000000000e+00
106 0.0000000000000000e+00 0.0000000000000000e+00 0.0000000000000000e+00
107 0.0000000000000000e+00 0.0000000000000000e+00 0.0000000000000000e+00
108 0.0000000000000000e+00 0.0000000000000000e+00 0.0000000000000000e+00
109 0.0000000000000000e+00 0.0000000000000000e+00 0.0000000000000000e+00
111 0.0000000000000000e+00 0.0000000000000000e+00 0.0000000000000000e+00
127 0.0000000000000000e+00 0.0000000000000000e+00 0.0000000000000000e+00
128 0.0000000000000000e+00 0.0000000000000000e+00 0.0000000000000000e+00
129 0.0000000000000000e+00 0.0000000000000000e+00 0.0000000000000000e+00
130 0.0000000000000000e+00 0.0000000000000000e+00 0.0000000000000000e+00
131 0.0000000000000000e+00 0.0000000000000000e+00 0.0000000000000000e+00
132 0.0000000000000000e+00 0.0000000000000000e+00 0.0000000000000000e+00
133 0.0000000000000000e+00 0.0000000000000000e+00 0.0000000000000000e+00
134 0.0000000000000000e+00 0.0000000000000000e+00 0.0000000000000000e+00
147 0.0000000000000000e+00 0.0000000000000000e+00 0.0000000000000000e+00
148 0.0000000000000000e+00 0.0000000000000000e+00 0.0000000000000000e+00
376 5.1253213112748049e-03 2.3965748161572956e-04 -1.2621152191979474e-03
378 -1.0169330707927806e-02 -5.5237277685585839e-03 -2.5714327742333751e-03
379 -4.7882097806624929e-03 -2.7110390053924583e-03 7.5508429846868870e-03
380 -1.3397424410227341e-03 -2.8448203550715478e-03 1.2266592815397483e-03
381 4.0581031212109930e-03 4.3507586540252694e-03 3.6806312906639675e-03
382 7.1334203928633431e-03 8.7142483416923766e-03 1.9214953123031586e-04
383 1.1749299137128488e-03 -2.9139999225222769e-03 7.2471191078419669e-03
384 -1.4538110559000476e-03 4.5101463496465769e-03 -5.4101169904599671e-03
386 3.9634549539152974e-03 -6.3000570702094272e-03 2.4209140126457470e-03
390 6.8544337381897013e-04 -2.9257572038617272e-03 -1.0287823394557743e-03
421 -2.2039540825599122e-03 6.6057130666032711e-04 7.0560612669219522e-03
422 -6.7644726296960057e-04 2.8662336259179457e-03 -7.6476546697021386e-03
423 -5.9040202559400047e-03 -2.2764648421558396e-03 -3.6032111393836827e-04
424 -1.3356236820931866e-03 4.1760597299814141e-03 3.9494992226123370e-03
425 5.8869243216670575e-03 6.0309190955116284e-04 -6.3010862007122680e-03
426 -4.7748911495793045e-03 -6.9532307464153578e-03 -2.7677363889642244e-03
427 -7.3751401869035444e-03 -2.5646926136421310e-03 6.5315130793431918e-03
428 2.2106740197193366e-03 2.3381449499238673e-03 4.6135108010889834e-04
429 2.0416953290998130e-03 3.2336433517791995e-03 6.3301472523483457e-03
430 -7.5403902274561270e-03 -2.2477528768774973e-03 -5.9460574784953720e-03
431 -4.6146747105509254e-03 -1.2314354333723509e-03 9.9722158234222674e-03
432 4.1665440749557404e-04 -3.7254542221968729e-03 4.8715459028370947e-03
433 3.0815312932846992e-03 -1.2947542100379397e-03 9.9278405196597409e-04
435 1.0740263512058201e-03 3.3902978416270333e-03 -9.8132835626814317e-03
437 -3.3559724659805888e-03 2.5815551318370518e-03 7.4166189260524255e-03
459 -8.2247882447715177e-04 3.6038200278265850e-03 -2.3630772985364758e-03
460 -2.3000696393593529e-03 4.2550905758835831e-04 2.0226733902993601e-03
704 1.3576294880342970e-03 -2.3080825048250662e-03 -5.8717829227738555e-03
747 -6.6769148556314658e-03 -1.7353059349342686e-03 -9.9596158360042240e-03
750 -3.8357441314133484e-03 5.5434510227339853e-03 -2.3112085687596036e-03
755 6.1897290666647396e-04 -4.5122554213826611e-03 3.3886134494355807e-03
135 0.0000000000000000e+00 0.0000000000000000e+00 0.0000000000000000e+00
436 6.3823457860636068e-03 1.1243016041052776e-02 -5.2763036352733170e-03
434 8.4997420013953058e-04 6.4128578602919645e-03 3.4188361278863844e-03
758 9.1572894375464378e-05 2.2573314819313898e-03 5.5645352944130770e-03
461 1.8403381997987394e-05 -2.6372119931935291e-03 3.6340598167308490e-03
785 -6.3679273655424624e-03 -2.6279192782855394e-03 3.2034839839505573e-03
37 0.0000000000000000e+00 0.0000000000000000e+00 0.0000000000000000e+00
38 0.0000000000000000e+00 0.0000000000000000e+00 0.0000000000000000e+00
65 0.0000000000000000e+00 0.0000000000000000e+00 0.0000000000000000e+00
136 0.0000000000000000e+00 0.0000000000000000e+00 0.0000000000000000e+00
137 0.0000000000000000e+00 0.0000000000000000e+00 0.0000000000000000e+00
139 0.0000000000000000e+00 0.0000000000000000e+00 0.0000000000000000e+00
149 0.0000000000000000e+00 0.0000000000000000e+00 0.0000000000000000e+00
150 0.0000000000000000e+00 0.0000000000000000e+00 0.0000000000000000e+00
151 0.0000000000000000e+00 0.0000000000000000e+00 0.0000000000000000e+00
152 0.0000000000000000e+00 0.0000000000000000e+00 0.0000000000000000e+00
153 0.0000000000000000e+00 0.0000000000000000e+00 0.0000000000000000e+00
154 0.0000000000000000e+00 0.0000000000000000e+00 0.0000000000000000e+00
155 0.0000000000000000e+00 0.0000000000000000e+00 0.0000000000000000e+00
156 0.0000000000000000e+00 0.0000000000000000e+00 0.0000000000000000e+00
157 0.0000000000000000e+00 0.0000000000000000e+00 0.0000000000000000e+00
159 0.0000000000000000e+00 0.0000000000000000e+00 0.0000000000000000e+00
160 0.0000000000000000e+00 0.0000000000000000e+00 0.0000000000000000e+00
161 0.0000000000000000e+00 0.0000000000000000e+00 0.0000000000000000e+00
162 0.0000000000000000e+00 0.0000000000000000e+00 0.0000000000000000e+00
438 -1.2920946693079430e-03 1.6399442758536834e-03 9.8356241287718958e-04
440 1.7946786426332685e-03 -9.8101183455604653e-03 2.7199887729890313e-03
444 -1.2470378120790408e-03 -1.9092753233221609e-03 -2.5614344296539145e-03
462 2.2759264951719062e-03 -2.0513160311185605e-03 1.9138461996202399e-03
463 -5.9348296881235286e-03 -4.5339608034156579e-03 4.6390576083152873e-03
464 3.0288697441384488e-03 1.8569247483798414e-04 -2.3178330486485254e-03
465 -5.2885881150775953e-04 1.5591458388034848e-03 -4.0721958716919823e-03
466 -1.1197473931998272e-03 5.1272355851003423e-03 1.0188717075634301e-03
467 6.9696629829827860e-03 4.0385159134117268e-03 2.6385157286175861e-03
468 -5.3600552836798026e-03 -1.5410751723175340e-03 1.6237572330166758e-03
469 7.0249397928705591e-03 -3.3747708511527607e-03 1.9449127400801730e-03
470 -1.8544775069129324e-03 2.2019573587635016e-03 2.5460196968832816e-03
471 5.3655848314629034e-03 2.9906660153976128e-03 -2.0603413403960835e-03
472 3.6470873716664748e-03 1.3274958526139288e-03 -2.2385739621484692e-03
473 -5.7307430078225802e-03 -4.0540587166419031e-03 3.5168563820073395e-03
474 -1.3095493196331835e-03 3.7251298469533262e-03 -8.6913177958398004e-04
475 -1.1717337390428729e-02 -9.9343897039965465e-04 -6.8307907109520661e-04
476 6.5098566375716297e-03 1.0022041749994201e-02 5.1486151541346430e-03
478 3.0962382958336673e-03 -6.7751703147551946e-03 -1.2877654437401430e-02
481 4.7499216415887701e-04 -1.2899878793884614e-03 -5.2584156522830078e-03
482 3.8854689110405087e-03 -7.1343514402766170e-03 -4.4219636185690043e-03
483 7.7984820127907075e-04 7.7278565266442065e-03 2.8674356631149677e-03
484 -5.9601742723511025e-04 2.8718086206293416e-04 -3.6064641795811349e-03
485 -7.7892806341036097e-04 -4.9169342722040444e-03 1.2909312280017559e-03
486 -5.6143204618746276e-04 -1.0574819380701319e-02 -4.2730669235782580e-03
788 -1.2326428026161751e-03 3.7153573947115307e-03 -7.3161961044652360e-04
793 3.5236082500160878e-03 -2.1794354789150851e-03 -7.3745688647213088e-04
796 -4.5126483007369468e-03 -9.3361616719628577e-03 1.6676882936750592e-03
807 -1.4548642093750066e-03 -2.6140348896647545e-03 -1.2692465119738270e-03
490 6.7301325823285500e-04 -5.1463133512929995e-03 -7.1080110896170343e-03
492 9.1876606379729872e-03 1.1358885293536081e-03 4.1822880029081426e-03
495 4.7727243424304259e-03 1.0571199142259651e-03 -1.1215426197181926e-02
502 6.7752944803259841e-03 7.6611224304388801e-03 -8.5682107829430382e-03
503 -2.9314315135134435e-03 -4.0499272918708652e-03 -3.4130529537013832e-03
505 -5.5165257464701040e-03 1.8539675827192242e-03 -1.8000060474558728e-03
506 -4.5659181162757004e-03 -3.4243089994804746e-03 -7.3956157978717517e-03
507 -8.6386196554376817e-03 2.6363802271897460e-03 -4.1780474967385442e-03
508 -3.4773691930207202e-03 -4.4687140684366378e-03 -5.3884625565965814e-03
510 -3.5603114520136045e-03 -1.9046177139690225e-03 8.0516299356068952e-03
511 2.2793319085601220e-03 -7.5915738571805357e-03 -4.0523009197378345e-03
513 2.7285204730439516e-03 -2.0785028691682954e-03 3.7516982594965813e-03
514 4.3216972005417735e-03 7.5759676051145354e-04 4.2114928624192244e-03
515 -4.7670333799630926e-03 -1.9123615224124043e-04 9.9113902065202930e-03
516 2.2518867927092696e-03 -9.3801105453504095e-03 -2.6112343925597916e-03
518 4.8677991764446990e-03 -4.9895608469337411e-04 1.5148739096490476e-03
537 1.1156745623868749e-02 -3.1718496610810888e-03 4.9641482202370437e-03
541 7.0548640337471141e-04 -6.0501119240805273e-04 -4.5466638640603765e-03
544 -8.4968440774722386e-03 4.6537984470467640e-03 -1.1711546564409600e-03
545 -8.4750457994209501e-03 1.3818094468745242e-02 -3.6450353790913451e-03
547 -4.9765383842925622e-03 2.8420897011855548e-03 -5.1695192911164270e-03
814 1.0436453988302832e-03 -2.7582214488465632e-03 -4.3547873869819367e-03
816 5.4635855087781411e-03 -7.8578327449418310e-04 -3.3721962562203815e-04
819 7.9727339186320707e-03 2.1255761064579034e-03 7.4881692681012099e-03
826 5.0453262926529116e-03 -6.5865533914534922e-03 4.3900945283727472e-03
827 7.4618642286570906e-04 2.3758053561824728e-03 -2.8466796134927626e-03
828 -8.1393402460670002e-03 1.7803663690730989e-03 2.1534525616942286e-03
829 2.0860846396792191e-03 7.6065034213185817e-05 5.8791065111024696e-04
830 6.7059031725708405e-03 -8.2771722852665556e-04 -3.5039641607791869e-03
831 -6.5969469664408278e-03 -9.2300949017762451e-03 9.6931467017171424e-03
832 -2.7851053907296626e-03 1.5302072930175781e-04 -1.2476959227768741e-03
833 1.4320699256803418e-03 6.3239799267189676e-03 5.5888413184083368e-03
834 -6.8942944486310651e-04 6.0508374688898227e-04 -3.8083043997425119e-03
835 4.9081888585356653e-03 -2.4225304936804418e-04 2.6674790185884588e-03
836 -1.3288428116666939e-03 1.2200662758471662e-03 -3.7731129250817698e-03
837 6.4486678860058047e-04 3.6705039810556572e-03 -2.8913427314076405e-03
838 -6.3143474815264928e-03 5.4243794973510917e-03 2.5338484074836826e-03
839 -2.9583906922590062e-03 -1.7259819793575437e-02 2.0317352393786261e-03
840 5.7272305200471970e-03 -3.5902035609985438e-03 4.8959756911490567e-03
842 -5.8652492025954442e-03 2.0805807082760392e-03 -1.4538939984645483e-04
861 6.0388352613961324e-03 -3.7984917728742774e-03 -3.8944753416699819e-03
865 -1.2332931195081836e-03 2.6244062919319666e-03 -1.5023157428759024e-03
867 1.1018106230303484e-02 4.0111021389764801e-04 8.0415853148136894e-03
868 -4.1627680731013954e-03 1.3549778713687738e-03 1.3356746273330286e-04
869 -7.2778745462726718e-04 -3.6562461455100646e-03 -2.4412540253384235e-03
870 -2.9497549613644171e-03 -1.8632365036298267e-03 2.2478077371557771e-03
871 4.3980225222960837e-03 -2.1289183133794813e-03 -1.4034950670840543e-03
845 3.4668059441354004e-03 3.1561506862575052e-03 4.5346403110156479e-04
823 2.5133634430369589e-03 8.1146071563224249e-03 9.5101958935136562e-03
873 -4.5059682560309377e-03 -1.4333313820727588e-03 -1.3403978422140447e-03
812 1.3871736786292112e-03 1.5939179316759220e-04 -8.1070797362855947e-03
813 1.7785478649966235e-03 -5.4341467385781873e-03 -6.2686067581820938e-03
539 2.3127571157053510e-03 -5.0138276935536704e-03 2.5907959156119308e-03
542 6.9381485290173099e-03 -1.9508817041057949e-03 -8.5171980968829376e-03
824 -5.7130581819336695e-03 -5.5393522211969462e-03 -2.9186378742874740e-03
494 -4.3643269239130901e-03 8.7194380711695108e-03 -2.5346339515388626e-03
520 7.4247899042504699e-03 9.1062543559333152e-03 -4.9233326879470447e-03
844 7.3282598049245491e-03 6.2854264748918862e-04 -6.7915981135933782e-04
521 -9.9380741135663767e-03 -6.8946887307054757e-03 -5.9004090698240447e-03
875 -5.8425823700299355e-04 4.8936416982448281e-03 9.9917754160964295e-04
549 2.1728936357552900e-03 -4.1782615348595099e-03 -3.5966452019654122e-03
548 6.2834419900964708e-03 -8.4273021975866911e-05 -7.2486858492089073e-04
550 4.6207056076188946e-03 8.1051183952530917e-04 -1.1439733281275257e-02
552 3.7178380747315002e-04 -1.0658883178515797e-02 -7.6040296293822983e-05
553 -2.4297202098582548e-04 2.9236597633449076e-03 3.4082819413460939e-03
555 8.9005927455425900e-03 8.7986874807880562e-04 -3.4684602442732323e-03
556 -3.8475264421341960e-03 6.6722436820172001e-03 -7.9265954789033699e-03
557 -1.1176220353960658e-03 1.2981689785254748e-03 1.8791834694181565e-03
558 2.4871780186086329e-03 -1.4463791721637312e-03 -6.4461392176608087e-03
560 2.9601967806661806e-03 -1.1360031745462647e-04 -2.3399543145399587e-03
563 1.3098195317953704e-03 -9.3544956850834856e-03 -1.5568184349969776e-03
564 -4.0349564075367571e-03 7.3320997635448757e-04 -5.2950215666195261e-03
595 1.1367459974412518e-04 -8.0936953060907577e-04 -4.6165969825518287e-03
597 -5.7047574466152174e-03 -5.2711281649381308e-03 7.5827036114993552e-03
599 8.6086231166069736e-04 4.7770701268315639e-03 -2.1639166843317212e-03
600 -1.5807267601830987e-03 4.6644412134261761e-03 8.8084340898699712e-03
602 1.2727727711416815e-03 4.3583293023787611e-03 2.7657553721744478e-04
603 -3.6578635050085163e-03 8.9674514478120838e-03 -6.2243647539009378e-03
605 7.3689677734838071e-03 6.8733777890795274e-03 1.3112435647286641e-03
606 4.1777159287365783e-03 -8.6591617628153575e-05 2.6695721541008530e-03
607 -1.1574158001757318e-02 7.9368316004153406e-04 8.2203406609720649e-03
608 3.1822373257548615e-03 7.3928620504626705e-03 -5.9751786010803210e-04
610 2.6641711325470929e-04 -6.5094409255937865e-03 -3.9576166627075544e-03
611 2.6672228822948357e-04 3.3177416103070765e-03 -5.5563408658796277e-04
613 6.3197065251964708e-04 3.4117573235398222e-03 2.3329326402053295e-04
666 1.5623392780585237e-03 -2.9132047957330372e-03 2.8548704085614388e-05
872 6.7296649957317651e-03 6.1561724365528578e-03 -9.1790546932456561e-03
874 2.5716991472028755e-03 7.3758303164308111e-03 7.2507737558008016e-03
876 -5.5933106535327060e-03 -2.9002777512148461e-03 -2.8065888908642999e-03
877 -9.1044976615630747e-03 -4.1118420666344749e-03 5.6897618324761989e-03
878 -5.1367147913248708e-03 -3.9731199369044852e-03 3.5532714087361710e-03
879 7.7083307958549061e-04 3.2492332596226179e-03 -4.3595996189314846e-03
880 6.8771702404486759e-03 1.2634691317852565e-03 -5.6918883948792751e-03
881 -5.9591569994008435e-03 5.5903079521442411e-03 -7.6454842062686264e-03
882 -3.2593948560093902e-03 4.5387930542666738e-03 2.4889594894342403e-03
884 7.7271063168119739e-04 -1.0055818386435659e-02 8.0177749586992832e-03
887 -1.1160875911053950e-02 1.3965317984576970e-03 -7.2696515770323085e-03
888 -4.5628833288532847e-04 7.1482578623011245e-03 -1.0228667466743303e-03
919 -5.9285443757173392e-03 8.6100653542451567e-05 -1.1942578706581655e-02
923 -4.1355160368663187e-03 7.4660409818970656e-03 -4.2547096848718569e-03
924 -2.6741456994175787e-03 -4.2860347732932120e-04 -1.3976911138591681e-03
925 -2.9437731747056330e-03 -1.0996787714053870e-03 -1.9558794228459114e-04
926 -7.9610941150371397e-03 -2.6068941796079360e-03 1.0551473092671657e-02
927 -8.0254159313809231e-03 5.9316351285169445e-04 6.6448028786264546e-03
928 -6.6134448416346556e-03 3.9577261255446562e-03 9.5406571164429969e-03
929 -8.3379114065919406e-03 -4.2722202561533279e-03 5.4091918775515703e-03
930 -6.3296949081759601e-03 -9.1950278780718840e-04 -7.6717413372507188e-03
931 8.4836925883181782e-03 -2.7104710465564144e-03 -3.6553855992736018e-03
932 -1.4449352410153249e-02 1.5258259188608104e-04 -1.7767027340422554e-03
933 4.4339200699068926e-05 5.1835229498267531e-03 -2.0778076133417664e-03
934 -9.0526529266688285e-04 9.5426579551803037e-05 2.9115335167984920e-03
935 1.0212328933438836e-02 2.1796062571529493e-03 -2.0076380114335849e-03
937 -4.3880652588330852e-03 -7.9403227627282188e-03 -9.8524410879601790e-04
990 4.1525311797998470e-03 -5.2163146749762139e-04 -6.4794999745571777e-03
994 -7.6285367528845389e-05 -9.6428714663737685e-03 3.0668687352817989e-03
668 7.2006877068093924e-04 1.0775226612598814e-02 1.1685247748655443e-03
992 2.7672120378071301e-03 -1.8047363684105784e-04 -3.1155715182357370e-03
939 4.4859074061525138e-04 -1.1572602896323666e-02 -1.1067280712668309e-02
921 -1.4689962847720854e-03 -5.1491809144141581e-04 1.3712632835495408e-03
522 4.1212322890596155e-03 2.6300202283032767e-03 -8.1261412345983476e-03
562 3.2730549788035552e-03 -1.8139167169306529e-03 -1.6505112746103812e-03
846 -6.5771162764464560e-03 -4.7227241060020407e-03 -7.0815743841443598e-03
886 4.3411233557142928e-03 -1.2001069312167832e-03 -5.3043003182336162e-03
489 9.0770486829560831e-03 3.4897041671034293e-03 -7.7900955214986233e-03
811 -6.1731438869353592e-03 -6.4152237555565005e-03 -3.0727703599437110e-03
825 5.0296609745026132e-03 1.4195492870167102e-02 -4.3748996114714158e-03
936 2.5649636132321295e-03 2.1139694969640409e-03 -4.8983984921663467e-03
996 -1.0481605843164085e-04 -1.0587226556845877e-02 2.9003702769373209e-03
488 -3.6959479529295757e-03 -3.0089520146089925e-03 1.3956237872484846e-03
499 6.0524848970505748e-03 6.3162920816860610e-03 -5.9229257607781522e-03
614 -7.7579751928997694e-03 -1.6898080972917464e-03 -1.8669000916348719e-03
615 5.9295561113106342e-03 -1.0755689960835792e-02 -1.6353738674349245e-03
938 6.0926395856392504e-04 3.0734629460210197e-03 -6.0451954707679790e-03
616 3.0240118843743095e-03 -3.2352246459686324e-03 3.8780676273456136e-03
618 -1.6020966858432621e-03 -6.2821443149322625e-03 2.4525490656209284e-03
620 -1.2354778796628101e-02 6.5344475244250664e-03 -8.4149391636182142e-03
621 -7.4433472119895859e-03 -4.8390618826951431e-03 9.7233161351649092e-05
622 -7.6600121925279128e-03 -6.8039565443151163e-03 -1.0397015259737017e-02
670 -8.9171181096227878e-04 -1.2917566045287368e-03 6.5535024363968294e-03
671 -1.8953876597361833e-03 -1.1730016880279328e-02 -8.7726117511598893e-04
673 2.8287102953360463e-03 2.6488848224442306e-03 3.2549864047791096e-03
674 -5.9571041546575242e-03 3.3004807957943402e-04 2.8803875224819838e-03
676 -7.2326590882012516e-03 -2.8652021319421580e-03 1.0639903200173911e-02
677 -6.3148986611127878e-04 -1.1279467855605390e-03 -1.5171202970057250e-03
678 -1.5207555797956138e-03 -7.3401207533604056e-03 5.6559817479230384e-04
679 7.0528398758678600e-03 -1.5992973115252862e-03 2.5290140286725491e-03
681 1.2787554620981158e-03 1.9662116734764083e-04 1.2070759201429334e-02
682 2.6503773011186341e-04 3.0683341019537478e-03 4.5277976404607713e-03
684 -2.7413859117094114e-03 -3.3514625017574194e-03 1.0949543386428636e-02
685 -4.0303975652115900e-03 -1.3958828797720974e-03 -9.6389599168491998e-03
686 1.9406473831464631e-03 -4.0900084370440407e-03 9.0849405690433924e-04
687 4.5513563609097659e-03 -8.6297629759209647e-04 1.0794523575012821e-03
689 -9.6411146742909014e-04 -5.1311791820282948e-03 -8.2837394161384068e-03
690 5.0641020336154440e-04 -1.5575540459664345e-03 8.0302550836205584e-03
735 1.9069011681296392e-03 -1.1415657164386875e-02 -4.2404373002349121e-03
739 -4.6923673380494203e-03 3.3653063493938582e-03 -7.3334122419926968e-03
742 -5.1229170243900649e-03 7.0700442569593641e-04 4.1775382991926773e-03
743 6.5255282673586396e-03 6.1015554146387034e-03 2.2824229452644198e-03
744 5.7596828468215308e-03 -5.4628422299346511e-03 1.1014490046413209e-04
940 6.6942411696678753e-03 -2.6197679847176111e-03 -2.3827234354635237e-04
942 2.2929458114226281e-03 7.0604614016379613e-03 4.1571444337971577e-03
944 5.5753589747956382e-03 4.1497941842872314e-03 7.4959685564111311e-03
945 -5.2446749407528918e-05 5.9917359595135621e-03 5.7834491636950822e-03
946 -6.9068017908546255e-03 -1.2917034799071627e-02 4.7676269350463343e-03
995 3.7617968054591746e-03 -4.0202156443800109e-03 -5.5434425080311094e-03
997 3.9877799128033298e-03 6.0100082897602486e-03 2.3182890617324844e-03
998 -1.4276978129566207e-04 -2.6415596675316375e-03 -7.8288548085892785e-03
999 2.0387436209377643e-03 -1.3066817208116917e-03 2.3692304861856646e-03
1000 7.9470609321292442e-03 -1.3838917721579226e-03 -5.2100515354807867e-03
1001 8.2612639177214019e-03 -2.3205104062886716e-03 -2.9852579552721789e-03
1002 1.6433849852892485e-03 -3.7927042301882068e-05 9.2120644519389113e-04
1003 4.6514520015838957e-03 -4.1340658116882957e-03 4.2076960512456981e-03
1004 3.1786064247614622e-03 1.0682161756187475e-02 -7.2468175610557336e-04
1005 3.5749674820809057e-03 -2.1381638005929788e-03 -9.6392996805550243e-03
1006 2.5193465217407331e-03 4.9541226712181662e-03 7.3303898736621744e-03
1007 -4.4338792720957938e-03 -1.0347985965730739e-02 7.0200688081711534e-05
1008 -4.9086025489037807e-03 -5.4538543034164640e-03 -9.3751681017753708e-03
1009 -1.3337759417547262e-03 -7.1062602330601750e-03 7.2117775187129363e-03
1010 -8.0280003113620234e-03 6.0764510492401355e-03 -7.9300602482697546e-03
1011 -1.7014542624128870e-04 5.9307903713367324e-04 9.1952819712147948e-04
1013 3.3541142336549657e-03 8.3995868876426544e-03 -1.8256266962447506e-03
1059 1.0617376979590056e-02 1.8059802746670239e-03 -1.4432608401067435e-04
1063 -4.3371047216955979e-03 -3.7801034206259220e-03 -3.1705179349826281e-03
1065 3.5489615607864180e-03 -4.7720565944877709e-03 7.8694969530746189e-04
1066 -3.5457850616496169e-03 1.8853516459605667e-03 2.3004102506507520e-03
1067 -4.4332675552912143e-03 -8.4927575652828449e-04 -3.8616822145086135e-03
1068 1.9468042329349735e-03 4.6210851221197427e-03 1.7750099044940490e-03
737 7.7996736579426663e-04 4.8355087519179468e-03 1.9458799783556276e-03
1064 1.2104967760209974e-03 -4.7844018652008578e-03 1.8402694189110671e-03
1061 -4.7500541861509489e-03 9.7985243560184206e-05 -1.2440447513243076e-03
941 3.1822601030532661e-03 -9.3732442400664921e-03 -8.8164635196889881e-03
815 -7.1490698093831838e-03 -1.7983409109295108e-04 -1.9793925929090196e-03
943 -3.0495901847118869e-03 -3.9298545986310354e-03 -2.7345831500567435e-04
1012 -2.4302234722872024e-04 3.5936031996519884e-03 1.2688980246859693e-03
862 4.1672271106493056e-03 8.4521433244020075e-03 -3.9629064484282195e-03
917 1.1324022679473620e-03 5.8644756078287015e-03 -9.9706917404961924e-03
500 6.4895395912202567e-03 -2.2736585332382899e-03 -2.1609791009109796e-03
859 3.1822640486021724e-03 -8.6734986887482858e-03 -7.2394776563608418e-03
863 2.7868686894800131e-03 2.2692143195541144e-03 -2.4953042623702985e-03
526 -3.3508931667551871e-03 6.4580826017832339e-03 -7.0881732777739034e-03
528 2.8062791925083318e-03 3.4911303694129779e-03 -1.0680466923501471e-03
529 3.0356631011607634e-03 -9.3814447046649586e-04 1.2083863132407416e-03
531 -4.3424025138784177e-03 3.0877410542842661e-03 -5.8171566572315315e-04
532 9.6462094828305561e-03 2.1131427989386580e-03 3.1458217094727427e-03
533 -6.2927147294791694e-03 2.1986939677718039e-03 3.6048666609756600e-03
534 8.6364990581923821e-03 7.1869836109639880e-04 -1.1730792245519369e-02
536 7.6838054795458572e-03 -1.2577090325648378e-03 -6.7703823066853630e-03
540 1.0442069056186512e-03 7.7461907238423374e-04 -4.2767332392564224e-03
571 3.2472759702092528e-03 -1.9074619892233408e-04 -6.2646234091945545e-03
575 -2.0026748083480173e-03 -1.5344586331529255e-03 -9.6077237531375925e-03
578 -6.3169311964583657e-03 -8.4828298774030399e-03 -5.0445416229653846e-03
579 -1.1219434923152962e-03 1.0341857145145035e-03 3.0966548967299315e-03
581 6.0244033114107446e-03 -2.4273151579328567e-03 -9.9285096238143277e-04
582 -4.3363883018785881e-03 5.0859770003800972e-03 -2.3355136582886957e-03
583 2.0975293719936810e-03 4.9184361676988713e-03 -2.2391740102410953e-03
584 1.0727277714513053e-02 5.4651896467144594e-03 -3.1420047017380634e-03
586 -1.2193541379352591e-03 1.5472317216245132e-03 -4.6012425584629748e-03
587 1.0003828693724914e-02 -3.1730721422063555e-03 4.9493025661040673e-03
589 7.7283699524571181e-03 2.5576345576891488e-03 -9.1550672636176358e-03
642 -5.3427608703596405e-03 -4.2626552618935734e-03 1.1313239880862544e-02
849 -2.6338434155334530e-03 1.8754625800396082e-03 -6.3244114683180686e-03
850 1.7447147179207073e-03 -1.3760597978671474e-03 4.3310183612939573e-03
852 -1.3686495529774516e-03 -4.4091884789723952e-03 -8.8637536928054084e-04
853 1.5907907601248412e-03 3.9831439244694634e-03 -9.5916407562512736e-03
854 3.0966052662659781e-03 -9.3004061416860175e-04 -6.6109968084799471e-03
855 5.1230509053516110e-03 5.4450850318110396e-04 -1.0147712675661318e-02
856 -4.7771990216321806e-03 -6.5586093443088739e-03 -2.6299087919229012e-03
857 3.8655785954674611e-03 -6.9315159569077580e-03 -5.1057179678660920e-03
858 1.0669218637289215e-03 3.1605970989357912e-03 1.3100421635073717e-03
860 3.1650527825254869e-03 -2.4024405426521997e-03 -5.5201954464370125e-05
864 -1.0044527420212579e-03 -5.9762601557479152e-03 -3.9954129504234608e-04
866 -8.1994440970632170e-03 4.5862990248205070e-03 -5.3829661822891372e-03
895 3.4911366782964951e-04 1.7660785516480603e-03 1.8783463123880947e-03
897 2.3215982129617977e-03 -1.8993686252624048e-03 2.9436598508278938e-03
899 -3.2305205669978351e-03 6.8371579638129322e-03 1.6957187847445787e-03
900 4.5906055223931142e-03 -7.6782710378337632e-04 1.9162287992094661e-04
901 -8.2010313718899087e-03 6.2525816489535160e-03 -1.4773831625257757e-03
902 2.0542273634931532e-03 6.1674421325815182e-03 -5.5533589942703297e-03
903 -5.8620937113479351e-03 4.6372547138220418e-03 -3.4215830566356132e-04
904 1.7078734761701037e-03 9.2866594548921509e-03 -1.3777577849798056e-03
905 7.0420128088170180e-04 -3.3774515409831503e-03 3.0050595089100136e-03
906 7.8174827153847277e-03 -2.9425058556505263e-03 2.7465335870063678e-03
907 2.5655112556354082e-03 1.4922018295576993e-04 -1.0234024413182529e-03
908 -4.0109178946303682e-03 3.6891840282643961e-04 -2.2761927016845254e-03
909 -5.6164137751268791e-03 -5.8673590242334095e-03 -1.2036358295851928e-03
910 -1.8018276116764040e-04 -2.2227946868812127e-03 2.9407897893865302e-03
911 4.9546607838940630e-03 2.2721700103125516e-03 5.1708308796286932e-03
913 2.9363860167212169e-03 5.1303224678584235e-03 -2.0476199241416071e-03
914 -4.4431140036754694e-03 6.3241906336606356e-03 -3.1721677637457681e-03
915 5.5123299582496860e-03 2.2939179958875395e-03 3.7425402932178523e-03
966 -1.7461967645704039e-03 3.0483650942103673e-03 -5.3686738447883365e-03
970 2.1737353548037536e-03 6.2786739754139070e-04 6.3853386979216501e-03
968 2.5150649406148048e-03 2.7672729389461147e-03 -3.0470452624925671e-03
822 -1.1352679791779162e-02 2.5012130958031818e-03 -3.7924856935975778e-03
848 -4.1963604153070584e-03 1.5104138217997543e-03 2.5019911342665777e-03
590 -2.6091601781257582e-03 2.4805138945852541e-03 -1.6668843246564874e-03
591 4.1183137829196720e-03 6.7556796815265562e-03 5.7804167592408629e-03
646 -1.0999131090503572e-03 3.6048413161466853e-03 8.8177362421678843e-03
592 2.0042782267086232e-03 7.8501451656956336e-03 7.8446041734610509e-03
594 -3.9206110702655664e-04 5.8714651012659056e-03 -4.4630406876477909e-03
598 1.3901350267781724e-03 -4.3659022670062206e-03 1.0886092125265673e-04
649 -3.8335938648485549e-03 2.6986755093549265e-03 -3.1048455280796128e-03
650 -5.3907945845545424e-05 -3.9159234082426905e-03 -6.5715354428220792e-03
652 -1.1953363824144535e-02 -2.2180434400457770e-03 -1.8707558707226704e-03
653 1.0027938820880098e-02 2.7786188914460130e-03 9.0632905003993052e-03
654 5.5445271523101572e-03 3.6123999959501059e-03 -6.5322954761402796e-03
655 -6.5609584626623828e-03 -7.6958833404099161e-03 7.9246374288868403e-04
657 -4.0941564749211500e-03 -1.6135659345218021e-03 -1.4791481179638110e-03
658 3.5192960292712920e-05 6.0354696476392607e-03 9.8752715428271983e-04
660 -3.9349519637842112e-03 1.9760921970314893e-03 9.4875592725584702e-03
661 3.6613002839889488e-03 -6.1151972679006992e-03 3.3628584274810387e-03
662 -2.1363215933074935e-03 -6.6786954924241443e-04 -2.6438676650021465e-03
663 3.1312458868414149e-03 1.6583952216093628e-03 -4.6513980201918171e-03
665 -3.9168615131885732e-04 5.6539546554036351e-03 -7.4711911948549894e-04
711 7.0146021370325346e-03 3.2458956765167575e-03 1.9389388127968025e-04
715 4.1188957024490347e-03 -4.7108756933419999e-03 -5.8659273576991793e-03
716 6.8895878622338416e-03 2.4422446634663475e-03 -3.5484204174263457e-03
718 3.0026547551927074e-03 -9.2433432494503781e-03 -6.5110627622592693e-04
719 1.2611733236384476e-03 4.4296133945161166e-03 9.9691971315712721e-03
721 -6.7655562856266506e-03 -3.6917132436067625e-03 -1.5179770118358656e-03
912 9.4663338859622475e-05 -2.1128674705768267e-03 1.9688024995038627e-03
916 -5.2575829242948709e-03 -2.6302095771554516e-03 -2.0455701129777838e-03
918 -6.4890746582335146e-03 3.6682497486264239e-05 -6.1121359354814747e-03
920 2.3639161434943672e-03 9.5848360483853524e-03 -2.0392817400533775e-03
922 5.1444631958294258e-03 1.5333268143375826e-03 -6.4676332118689646e-03
972 6.2788198030103871e-03 2.0473770071022445e-03 -8.9721828397313127e-03
973 4.0573916301488702e-03 2.0247036047766160e-03 -8.3766124979623869e-03
974 -1.3539329915701903e-03 -3.3466195247263677e-03 -7.6778364911420788e-04
975 2.6372434550744721e-03 1.2358681139644315e-02 -3.5861902814936096e-03
976 3.5696545102110815e-03 -5.1538495618311097e-03 3.7721687538379033e-03
977 1.5109726139450699e-03 5.1820684515599038e-03 -8.6825939280828332e-04
978 -1.0721926663910702e-03 -1.1401301365192868e-02 -5.4475653929323669e-03
979 -3.6634860696363315e-03 -6.3577489279733846e-03 4.9637064106249204e-03
980 -8.3880317076635135e-03 4.1917516148330409e-03 -5.2953412113155704e-03
981 8.6508417358997260e-03 -2.1932636137818062e-03 -1.4332879315675495e-03
982 -4.1421943957594600e-03 -3.0289203262102854e-03 1.5257078511533874e-03
983 -6.8643470080521872e-03 1.3251694206975093e-03 2.9681453811143503e-03
984 -8.4725162875960835e-03 2.9048763921723912e-03 -1.0820209581151091e-03
985 5.9841630242147325e-03 -2.7518743037961203e-03 2.0078155773069696e-03
986 4.1211672134499515e-03 6.7967427303303818e-03 -2.5705333771485466e-03
987 4.0283191882945048e-03 -1.8327426202237873e-03 2.4807945945408248e-04
988 9.4789645496686967e-04 -7.2397780434483670e-03 3.5087968189956311e-03
989 2.1453738919314047e-04 -5.9767605539713870e-04 5.7631166029430700e-03
1035 7.1577361604207483e-03 3.1067741076259959e-03 -3.9359594770675983e-03
1039 1.5260927921836554e-03 1.4005898538725675e-03 1.4041043393097003e-03
1041 -3.9825218343269084e-04 1.4292189363760180e-02 4.9494925623399747e-03
1042 6.1530755454444431e-03 1.0407062529462848e-03 -4.9374290111456175e-03
1043 -6.4714160111932213e-04 3.2577748640418031e-03 -6.1422544740681942e-03
1045 -6.6026139651334456e-03 -6.8863379798485454e-03 -5.3690067800558506e-03
993 -2.6407172515361321e-03 3.7488500007532002e-03 5.6824923455275353e-03
1046 1.6263624609932123e-03 1.0582783598249271e-02 4.5876455085795930e-04
647 -9.1228384442061357e-04 2.7610399987029462e-03 8.2185323977742360e-03
713 6.1956521147820652e-03 3.4687775105644203e-03 -2.2983989359087759e-03
1033 4.2871148657609281e-03 -4.4933735286322718e-03 -3.9929704933133227e-03
1036 -2.1516624264012636e-03 6.1300041376285107e-03 -4.7913018392514778e-03
740 -4.2759983546286897e-03 7.8176323747534970e-03 -7.9057901462078770e-05
1057 -1.5624554250608768e-03 -4.1239472377600801e-03 -7.0245471758250994e-04
1060 -1.7959661881782000e-03 2.2188339315334545e-03 1.6913342838590991e-03
821 2.2316468735895616e-04 4.0007344121738078e-03 8.7576019166221413e-03
524 -4.1903137739767162e-03 -1.2567356903020509e-03 -4.0965402072868796e-03
851 6.2992352689781690e-03 -5.4056912185144372e-04 -9.1737678846127296e-03
991 6.8703853824242638e-03 7.4558556407148128e-03 4.0375018975476462e-03
1049 1.6267941595162585e-03 1.3660305151003854e-03 1.7431002637089252e-03
1044 -3.0981407661831422e-03 8.8135991549325267e-04 3.8783640637821836e-03
498 -7.9472797440381989e-03 -4.9172146587611546e-03 2.0163859027223091e-03
525 3.8340815986445346e-03 -6.9178903709894270e-03 -3.5394578872510792e-03
847 -1.0591788076362743e-04 3.4790348601607802e-04 -1.1782228470436051e-04
893 7.6936588635631228e-03 -2.1881358373054514e-03 -4.9965195654194314e-04
669 -1.2136117756301877e-02 5.7549194044529605e-03 -3.4029031165926176e-03
722 -4.2059792227284835e-03 -1.3341904050638744e-03 -7.1825113410952284e-03
723 -7.8180652908307706e-04 4.8151277591215735e-03 5.1931956221584292e-03
1047 2.9909414857930243e-03 -5.3630136021438923e-04 2.3586128611435544e-03
724 -1.4408242106040376e-02 2.6852291068442066e-03 1.2531936401411917e-03
726 -1.0387008530167081e-03 -5.0599265991921622e-03 -1.2553961375882650e-03
727 3.0628785965723347e-03 8.4430839751159226e-03 2.8980928915435192e-03
729 -5.7482321201002594e-03 4.5850446486284573e-03 -2.6765321190382408e-03
730 -2.4303947822745787e-03 -6.0951449167356104e-04 1.4220228416465109e-03
731 -6.7274407959121837e-03 -2.7008482733699231e-03 -1.8090700429343545e-03
732 1.0205796619601887e-03 -7.9678739259914748e-03 -1.0133603216581489e-02
734 -3.8689632245798100e-03 -5.2803193834227366e-04 -6.0207549401770010e-03
738 1.6827062671670497e-03 -3.1660200895019272e-04 7.1204753347659739e-03
765 4.1253869741754339e-03 9.5291407066598523e-03 2.8756808306500000e-03
767 -9.7495863260642997e-04 2.7702735047302135e-03 -2.4479333009284972e-03
769 -5.7262643934259993e-03 9.4222659300161864e-03 -4.0758327286801697e-03
772 -7.2127576192367211e-03 -1.0946043735027117e-03 3.8203232939216275e-03
773 6.8160597286163402e-03 -1.4540432708656564e-03 4.6113875626348791e-04
775 -9.5810097632765424e-03 -5.8989362516236033e-04 2.3303924562577752e-03
776 -5.1401268632238553e-03 -1.9778204871019806e-03 -3.5002598834894439e-03
777 -1.7892960555639891e-03 3.8560733792155090e-03 -2.1720221409786905e-03
778 -1.2396507902031167e-04 -2.3372651378901488e-03 -3.2379903990685339e-03
780 3.2207758100332661e-03 2.2926904151674002e-05 -2.1430176593742562e-03
781 -6.6023070505753572e-03 -1.1538772814817756e-03 -7.5546208746927980e-04
782 -5.6878204004981155e-04 7.2578230432423421e-03 -9.0916439904448147e-03
803 -1.2112724373979534e-03 -1.9863073501543340e-03 -6.3432661754221501e-03
804 -5.7934161273071841e-04 4.1948744566624313e-03 -8.0940753354624207e-04
1048 4.3091162431872715e-03 2.7724382950780452e-03 -3.4618376838474775e-03
1050 6.5114836942583940e-03 -2.0654549734696096e-03 1.4710165570726362e-03
1051 3.3856148745277518e-03 7.1995397743518841e-04 2.6120808470004365e-03
1052 -7.6717166214031120e-04 2.0804249626884402e-03 -8.7346045905524316e-03
1053 -3.1863012012812444e-04 1.1146801380919530e-02 -9.4258747742495368e-03
1054 -1.2458703310431987e-02 -2.8882426264765656e-03 -9.4573904231088374e-03
1055 1.0470031580615475e-02 1.8598303013345962e-03 -6.1242512909375933e-03
1056 7.4961384816287218e-04 3.1979325695885583e-03 -3.6529100675960276e-04
1058 1.8776184772664576e-03 -3.9259001775987243e-03 -7.5429172295360582e-03
1062 -1.1360255235038516e-02 -5.6924628007249158e-03 5.9629102803424221e-03
1089 -1.7042139525509437e-03 -1.2333188049131398e-03 -6.1739139527748239e-03
1093 3.5928348178688275e-04 7.7346122431459245e-03 -1.4588048987392958e-03
1095 5.3295696877558706e-03 7.9238100699366206e-03 -4.4015812906685161e-03
1096 4.3857206238679305e-03 -5.5025719734846735e-03 -3.7190181914708120e-03
1097 -5.5785381756092997e-03 -3.1802321674759154e-03 -5.4798100384645838e-03
1098 5.0981049132877805e-03 -7.1197795709510958e-04 -4.9966384197871350e-03
1099 1.7411075352922313e-03 -2.9088373017314229e-03 -2.2465614117065107e-03
1100 -1.0850098666831125e-03 -6.2466095261604175e-03 -3.6997829216780243e-03
1101 1.0480062134002087e-02 2.1509321335616968e-03 5.1614793850502513e-03
1102 -3.4283353749678734e-03 -2.7718258286667792e-03 -3.5597418284707225e-03
1103 -6.3885553596575032e-03 -4.6962822952238458e-03 -1.0997648441858429e-02
1104 4.5968520043527883e-03 3.9393876260913679e-03 3.1815430068699428e-03
1105 -5.8025684334831826e-03 1.3740907876852065e-03 4.4418631790334442e-03
1106 4.3040943513898899e-03 3.4988141218866490e-03 1.7794023391481863e-03
1127 -4.0115160883644864e-03 -2.3064476514946225e-04 6.3176968040563495e-03
770 6.5539029814381498e-03 -3.1189439224928650e-03 5.4618160888275768e-03
1087 -2.7649746227333162e-03 3.6628966923208188e-03 -7.0363886451363042e-04
1090 1.6400851016246173e-03 -2.1995199587011599e-06 -2.3771643668967150e-04
1125 -4.9908784150278916e-04 -5.4953677618484126e-03 -1.1671916519563330e-03
817 -2.9740249914695441e-03 -6.8811276177402712e-03 -2.3995011984446683e-03
818 3.3071432008351361e-03 6.1652106844539943e-03 -6.7717694756854819e-03
841 1.4317301386829137e-03 -1.7723104135147520e-03 -8.5018884207122578e-05
496 8.0519048941349695e-03 -4.7778723231330037e-03 4.3816942113789137e-03
820 -8.6825845749401978e-04 -1.3358800943655688e-03 -1.3397928327092271e-03
573 1.9926316374236147e-03 -1.0695387328415568e-02 -5.8389372069262459e-03
576 5.1500330913230525e-03 -4.4362906727063219e-03 -6.3420841330161732e-03
568 4.4416663651199876e-03 7.8610340121227978e-04 -8.3727393025506795e-03
570 3.6032211734319543e-03 5.3993529494085939e-03 -5.8999328234489541e-03
574 1.1548722354931765e-03 4.9895440981982406e-03 -2.4812399285440291e-03
625 2.4782330544286420e-03 -1.0585607099630498e-04 -1.7503130260996817e-03
626 1.5359472426248950e-03 4.4053035337281946e-03 -3.0735895390155143e-03
628 -1.2691017994678532e-03 1.1998473763417892e-02 4.2803494451635078e-03
629 -2.9092798927833803e-04 5.3089153852758373e-03 4.4110437124552249e-03
630 2.9650842785588914e-03 6.9377372846433230e-03 -1.0225444609320388e-02
631 2.0159241194698148e-03 -9.6356871699826759e-03 -1.2788055524038837e-03
633 -1.2198874232794003e-03 -2.8490306575296091e-03 3.4413973755912982e-03
634 1.8838186228519829e-03 1.5924566051354911e-03 -3.4451064901106225e-03
636 5.0397521030490786e-04 5.9225566915380376e-03 -2.2622109950389433e-03
637 3.7591205192539119e-03 4.6447103997627283e-04 3.5286859417467859e-04
638 7.0519048661463763e-03 3.2532893256065469e-03 1.6076352706034887e-03
639 -2.7121266522298856e-03 -9.6009355709143740e-04 -3.5473504535780036e-03
641 -5.2136708886527643e-03 1.7507104387377247e-03 -1.0614184749957011e-03
644 5.0363555030778632e-04 -1.2187797690205535e-03 5.5043346910184122e-03
691 1.4255430327178276e-03 9.4073817636258182e-03 -8.6322200621761786e-03
692 -4.3105634370966166e-03 -3.7350760197109615e-03 -2.1862058649966274e-05
694 -1.4057607462653427e-03 1.9543182603219875e-03 -4.4342594724555177e-03
695 2.6864172922011452e-03 -1.2273741431030575e-02 4.6881477750404044e-03
697 -8.2509164177966918e-03 6.2715038800698134e-03 1.6274527830079627e-03
892 3.2331030422417468e-03 4.0794674434621245e-03 -4.4264186555130099e-03
894 1.9951283956191643e-03 1.1750506543682024e-02 2.0156985340386061e-03
896 -6.7249654385752172e-03 -6.8537096468168981e-03 1.1950969921452916e-03
898 1.0100832424576486e-02 9.1847269012508480e-05 1.3096439677333672e-04
949 -6.7488284457896423e-03 -2.0484530806543343e-03 1.3789053446742854e-03
950 -4.2682968795686197e-03 2.4473614869616376e-03 -5.2421286376529083e-03
951 2.7117993370501985e-03 -1.5157669383115604e-03 -3.4675192130500616e-03
952 -1.7124872242119647e-03 -4.9370134725301338e-04 -2.4400387409075765e-03
953 7.1739344280657535e-04 8.6818369309553407e-03 -4.0951484818127657e-03
954 -3.5221689947466281e-04 -5.2622502919484589e-03 7.9251135851656905e-04
955 -1.4260014083360163e-03 -3.8456707618372598e-03 1.4342354462396313e-03
956 -3.7250782845523770e-03 1.0344890998574382e-04 2.0069595318868900e-03
957 -1.4996003283905913e-02 2.3224748660222853e-03 -4.8002855162232625e-03
958 -1.6969219130853800e-03 -2.3160207267729398e-03 -7.7694865429384615e-03
959 1.8588905470670756e-03 -4.2263701548422015e-04 5.7754816465021303e-03
960 -7.5197687846415891e-03 -5.3483675578862029e-04 -2.3051094896016800e-03
961 -4.5728140901262386e-03 -7.3557101677660015e-04 -7.3987107933247984e-03
962 -5.1161480044472933e-03 -2.9796849665994957e-04 -2.2344802520400378e-03
963 7.7612505626652685e-03 -4.2532339625316546e-03 2.9724050613974783e-03
964 -1.0403251255844858e-02 5.4010821975794213e-03 -6.3536222859235597e-03
965 -6.3953826462646258e-03 7.3175080469251171e-04 3.9743667944475071e-04
1015 3.1562524352905848e-03 -8.5024209365392085e-04 1.8868967830676017e-03
1016 9.3680303598026656e-04 4.2494884163599249e-03 1.9554088312006704e-03
1017 1.0731348077007510e-02 4.2752191131387313e-03 5.6336150470802707e-04
1018 -4.1371569113602021e-03 -1.0776958860534357e-03 1.1923683382347687e-04
1019 6.8739876338730892e-03 -6.5062836807433513e-03 1.2374561989090740e-03
1021 -6.3389805759204582e-03 -8.3284349338307532e-03 -3.1476913711342247e-03
1022 5.9301554455099947e-03 -1.3638028726329766e-03 -5.7047201336137285e-03
1023 3.5878572827422804e-03 -1.1448869693553669e-03 5.5126795778216659e-03
890 1.4299851089753018e-03 -8.4234068496977232e-03 -4.8272387494924343e-04
891 2.8675343257296231e-03 8.6942856162582956e-03 -6.5609520087101412e-03
947 -2.0420056203535133e-03 -4.4916120821704552e-03 -1.3158263344335839e-03
843 1.2853954801889378e-03 2.3253427636765358e-03 -3.1341369429365462e-03
883 5.6501038524061050e-03 -3.1941473375775606e-03 2.5642633314073709e-03
885 3.3758728720114204e-03 5.8640388987701662e-03 3.4800463988067559e-03
971 -4.3569759644385353e-04 -6.4682068709847370e-04 3.1025035343675259e-03
1037 -3.6752328693432975e-03 -7.0506913450587329e-03 -4.0854269912084379e-03
1040 -8.3949209875187579e-03 4.7547898592732740e-04 9.5989364721521151e-04
645 9.7211364586465756e-03 4.7474708897827745e-03 2.6979429589544086e-03
698 -6.1502760001775703e-03 7.3309808411551915e-03 -5.9707145747460305e-03
969 8.6622845541560051e-03 -3.6508431110135502e-04 1.2692737429873631e-03
699 -1.0314839447608064e-02 -3.1534352563993332e-03 1.0167501045215271e-02
967 -3.9854165809138104e-03 5.7459426980190544e-03 5.9012711642212126e-03
1025 -3.3975817838269919e-04 -9.2241059123446979e-03 -5.3427425913827875e-03
700 -2.7291063185830391e-03 1.6597808729063193e-03 3.1414503338375597e-03
702 3.3642832191936017e-03 4.6004554291496358e-03 5.5495900631454039e-03
703 1.1197595471311664e-03 1.7580021827185708e-03 -2.1303951438937069e-04
705 7.1373627212132518e-03 2.6373582770666823e-03 -6.2424542460510924e-03
706 -4.7296568735548687e-03 1.2642483722927898e-03 4.4705808110079579e-03
707 -2.5484402492507306e-03 1.7240268435272873e-03 -1.0539272516981075e-02
708 3.4794984391922322e-03 8.4878517913673929e-03 3.5858060863529521e-03
710 -2.1239506712886543e-03 5.0045922013891558e-03 1.2107551784281100e-03
714 -2.8424361854855867e-04 -4.5737420275263046e-03 -5.2009656888034259e-03
745 2.8106157455598073e-03 7.4150850054802847e-04 -3.5008025415530671e-03
746 5.4388396155763720e-03 1.7792335151692947e-03 -5.4052308194103421e-03
748 -6.1592333303797479e-03 -2.6985095745783085e-03 5.4083279676110487e-03
749 2.7911307024574327e-03 -1.0780125121614973e-02 -4.1771227327527813e-03
751 -1.5452332080897913e-03 -1.2061456766367858e-02 -3.0389487796217444e-03
752 -5.2674565878727281e-03 -1.8300455539306795e-03 1.2417598157802827e-04
753 -3.5927316980891824e-04 4.3403631392325264e-03 -7.2923926579438391e-04
754 1.0660866867483296e-03 2.9331087724222024e-03 -6.0695558875280423e-03
756 1.7661311073153038e-03 1.9322120179307975e-03 -2.0526024048002629e-03
757 -1.0535680873938534e-03 2.9991993199341826e-03 1.3228683088594291e-02
759 2.9216380596351703e-03 -1.0632659633977141e-03 -4.5909951047548017e-03
783 6.0909901776542786e-03 -9.3217185425261591e-03 6.9568332249243543e-03
1020 4.8357116049655215e-05 6.0213325256576918e-03 2.0587552161268389e-03
1024 -1.5688637440059250e-03 -3.1436764366578416e-03 6.7314094215979135e-03
1026 3.5706275896451489e-03 2.0058613910320139e-03 2.3429118639960530e-04
1027 3.9076775474453321e-03 -2.5464643631964924e-03 -3.1373476411861861e-03
1028 1.8155301219392082e-03 4.4594451625530225e-03 -5.7689217530226111e-03
1029 -4.2675998929436821e-03 4.1979473866549663e-04 -1.1631082429790663e-03
1030 4.8031261254350499e-03 -4.5689269071331231e-04 4.9685402039167945e-03
1031 -9.9562716475073403e-03 6.9137908633242675e-03 -6.4400793460905742e-03
1032 -4.9171209150028223e-03 5.5772764334394587e-04 2.9774460039092353e-03
1034 7.3338859920211276e-03 6.7450090125757596e-03 5.1476447076718151e-03
1038 9.4257857793555403e-04 4.6549285080331806e-03 -1.7560154057776452e-04
1069 -3.4452051142041798e-03 -6.1375086744993874e-04 -6.1302747192571857e-05
1070 -4.7833261045092928e-03 2.7790425607781498e-03 -5.7604817915853559e-03
1071 -6.4224207092257648e-03 -6.5153190665618857e-03 -3.6846438918515458e-03
1072 4.7107797166540347e-03 2.0199057008481757e-03 -1.3006000098814469e-03
1073 1.4307796517744778e-03 -1.0434544656276437e-03 5.3262315753277740e-03
1074 -5.7190617222257871e-03 3.9661167971249047e-03 -2.4151468452957158e-03
1075 7.2984292916574824e-03 -3.2637064344223018e-03 2.5861989647343918e-03
1076 1.5841402736577360e-03 3.5171479758012328e-03 3.4131968163723103e-03
1077 -9.0090538971030042e-03 6.0719535322242703e-05 -3.0007370996379765e-03
1078 -4.5715678725686028e-03 4.7543135923233870e-03 -4.7215084864655503e-03
1079 3.1483852766617006e-03 -2.1852976214456910e-03 -1.2778164334357911e-03
1080 3.5938922991114656e-03 5.2229111189913396e-03 7.1017097173736927e-04
1081 -4.3685573701247741e-03 6.3523916403532693e-03 -1.0267064712648414e-02
1083 -5.5913578035938301e-04 3.6869045307483532e-03 -1.7260060355486727e-03
1107 -4.9004491116018184e-03 7.6321663930385914e-03 6.0860251266560061e-03
1085 -1.1164901267458503e-02 -3.3305199710720345e-03 4.1107849972061884e-03
1108 -5.1253993138629496e-03 -2.0030303730613941e-03 3.7792905008345837e-03
1084 -1.3301559047751911e-03 5.4870911118626922e-03 5.4934730127552129e-04
1014 1.9056217031231896e-03 -5.4047266880237017e-03 -8.2142675282142873e-03
1091 9.2142549622783055e-04 -1.5101141658142047e-03 1.8763126982085205e-03
1094 -2.9532934178994681e-03 1.6169660749449433e-03 -3.8952336831932352e-04
566 -2.2493454359940592e-03 2.4918282254126293e-03 -1.4638683150985864e-03
567 -3.5732217672091587e-03 2.7947655595830383e-04 -7.2842330732737293e-03
623 -9.7769299514800789e-03 -8.6882346147401437e-03 -7.9640259318010213e-03
761 8.8481887258909566e-03 -9.6204354100661062e-03 -1.7233394249970648e-03
1082 6.8918115281487021e-03 -1.8528825526519159e-03 -5.8199708212049771e-03
760 4.1482708041870276e-03 2.9369591483148776e-03 5.7068127399129403e-04
1109 -2.3084211471782574e-04 2.9661056431504228e-04 -9.5808094845510304e-03
1128 -1.0743744870565340e-02 3.0122299665078910e-03 1.0021003920328326e-02
889 2.4393248955501706e-03 1.4368189965121799e-03 -1.3996792156169837e-03
948 7.8188989533374241e-03 -1.8507158649666555e-03 -2.7975283648087250e-03
784 5.8068839808544702e-03 -1.3394458901104883e-02 2.1464427162456220e-03
762 -1.3215142957384321e-04 1.6778070089624880e-03 -1.1977963387530488e-02
764 -6.1208832667305829e-04 -8.4321490819827885e-03 -3.7051631261910008e-03
768 4.3131369865766463e-03 2.9107305644012135e-03 -1.1289109406060949e-02
786 5.9271932271703414e-03 1.9095167265219168e-03 -9.4127276338232865e-03
787 2.5568272932213203e-03 -1.9238503508227981e-03 -1.0754534297700874e-03
789 -6.4008988721931141e-03 2.5807282143111687e-03 -3.9896043335170168e-03
790 -1.0718569682227120e-03 -4.3078010090386153e-03 9.7338176180401699e-03
791 1.1642438951513965e-02 -7.5536604324807407e-03 -1.6103635619257855e-03
792 -7.2306745832019525e-04 7.4315095133783522e-03 -3.4970566331892811e-03
794 -2.4722714969826775e-03 3.9690079834723583e-03 -1.1291068069143389e-03
795 2.9635639812716588e-03 -1.3092572164272757e-03 -2.4196346070918871e-03
797 4.3253268660887407e-03 -4.5964413073295027e-03 -1.1409255209818231e-03
798 -1.2710183337073723e-03 1.7225352138406809e-03 4.8482465987083256e-03
799 4.0805584782311419e-03 4.0760023415986813e-04 4.9146915289867707e-03
800 2.8487829592518730e-03 4.6742877192196644e-04 -2.6964134253581970e-03
802 1.4224770571557821e-02 7.3737126747608654e-03 -1.2013540813872233e-03
805 -2.9096663986168643e-03 9.6506717879294174e-03 2.9745330615080540e-03
806 -2.5609463233808487e-03 1.0212102528419652e-02 4.5662299163882871e-03
808 -8.3893136044178602e-03 -3.7289224288229042e-03 8.4209799401583438e-03
809 -4.2434036275189064e-03 1.7096215793430012e-03 -3.4429846588196014e-03
810 1.0077315434211002e-03 -1.1611117238474076e-03 -7.0845252213534715e-04
1086 -8.4326669723199064e-04 1.1783853638061994e-02 1.1244454645200504e-03
1088 -8.5407092486206350e-03 6.8673508655280888e-03 1.2087993597240984e-03
1092 2.4014066905153966e-03 7.9994731233123118e-03 -5.2503028254521893e-03
1110 2.2629458275568461e-03 3.3306878220557001e-03 4.1293212513252827e-03
1111 4.7244717197229055e-04 -4.5967869634624470e-04 -2.2429261994076442e-03
1112 9.8734582313474476e-04 7.1297639265826230e-03 -1.3163240961689120e-03
1113 -2.5135986654279169e-03 -4.9608717953198243e-03 1.4176814647941707e-03
1114 1.3672438964872184e-03 9.3952914871411365e-03 5.3737625651925748e-03
1115 1.1779900196537266e-03 5.3526443256586356e-03 4.5409597027990991e-03
1116 -2.4393422987604063e-03 6.6686919657621786e-03 3.7497819827962174e-05
1117 1.6458971366307860e-03 5.5390731945165004e-03 -8.0216737186024941e-04
1118 -1.3516036882751910e-03 -7.9940178538046233e-03 5.4566729974919190e-03
1119 2.4317123908326565e-03 -5.9982642736153132e-03 -3.2559895011489595e-03
1120 1.8561575474051639e-03 -9.4102614668306189e-03 4.5756096947374304e-03
1121 -2.0429278156705801e-03 2.1318858599681960e-04 3.8558899785980762e-03
1122 -7.2201353845289112e-03 3.3956664541814549e-03 4.3719057556696759e-03
1123 3.6697078764727558e-03 1.8358102080803639e-03 9.9303503147581615e-03
1124 7.7407700806695519e-03 7.5551459238895032e-03 8.6744516803620199e-03
1126 3.2079318640119729e-03 -3.6387020730005294e-03 -1.9107764029413062e-04
1129 -2.2277648378461121e-03 -2.9672281940844930e-03 7.4392319619438086e-03
1130 -1.5705995654174507e-03 -1.7247415018021746e-03 -1.6033207569153252e-03
1131 -3.1676128597635292e-03 -3.6417623772759906e-03 -1.9668670802432012e-03
1132 4.7115805353101703e-03 -1.4948669711364064e-03 -1.4278142869856782e-03
1133 -1.9643496461501583e-03 1.1164577851223097e-02 -4.1402494664611132e-03
1134 1.3797172096600171e-03 -1.6418177723569573e-03 -2.7651423720812846e-03
1140 -3.9175138055948192e-03 7.0909569452466664e-03 -1.1971830348717049e-02
1141 -2.9103519389094079e-03 1.0409941768631447e-02 -4.7278902578245371e-03
1142 -3.6102922041369914e-03 -7.1033963127090606e-03 3.8115318672190474e-03
1149 2.5382709461958738e-03 6.6215630272710531e-03 -7.6460727757955453e-03
1150 -2.4993982320817773e-03 -3.3521654478882645e-03 3.2565574707301612e-03
1218 0.0000000000000000e+00 0.0000000000000000e+00 0.0000000000000000e+00
1221 0.0000000000000000e+00 0.0000000000000000e+00 0.0000000000000000e+00
1222 0.0000000000000000e+00 0.0000000000000000e+00 0.0000000000000000e+00
1223 0.0000000000000000e+00 0.0000000000000000e+00 0.0000000000000000e+00
1224 0.0000000000000000e+00 0.0000000000000000e+00 0.0000000000000000e+00
1225 0.0000000000000000e+00 0.0000000000000000e+00 0.0000000000000000e+00
1230 0.0000000000000000e+00 0.0000000000000000e+00 0.0000000000000000e+00
1231 0.0000000000000000e+00 0.0000000000000000e+00 0.0000000000000000e+00
1232 0.0000000000000000e+00 0.0000000000000000e+00 0.0000000000000000e+00
1233 0.0000000000000000e+00 0.0000000000000000e+00 0.0000000000000000e+00
1244 0.0000000000000000e+00 0.0000000000000000e+00 0.0000000000000000e+00
1229 0.0000000000000000e+00 0.0000000000000000e+00 0.0000000000000000e+00
1151 -6.3234543428196616e-03 3.6139835986531360e-03 -5.3984891648042339e-03
1152 2.9124117363244365e-03 2.4427940643089734e-03 -9.4050983483298257e-03
1153 4.0504631805511398e-04 2.5735303986829045e-03 -4.5834922764456123e-04
1165 3.7110531161156624e-03 6.2849873472494216e-03 -1.7921523154602749e-03
1166 2.5044129574969994e-03 -6.5639389848083684e-04 -2.1209285185476937e-03
1167 1.5735630324667897e-03 1.9522557798382926e-03 -6.0726709747336415e-03
1234 0.0000000000000000e+00 0.0000000000000000e+00 0.0000000000000000e+00
1235 0.0000000000000000e+00 0.0000000000000000e+00 0.0000000000000000e+00
1236 0.0000000000000000e+00 0.0000000000000000e+00 0.0000000000000000e+00
1246 0.0000000000000000e+00 0.0000000000000000e+00 0.0000000000000000e+00
1247 0.0000000000000000e+00 0.0000000000000000e+00 0.0000000000000000e+00
1248 0.0000000000000000e+00 0.0000000000000000e+00 0.0000000000000000e+00
1249 0.0000000000000000e+00 0.0000000000000000e+00 0.0000000000000000e+00
1250 0.0000000000000000e+00 0.0000000000000000e+00 0.0000000000000000e+00
1263 0.0000000000000000e+00 0.0000000000000000e+00 0.0000000000000000e+00
1264 0.0000000000000000e+00 0.0000000000000000e+00 0.0000000000000000e+00
1245 0.0000000000000000e+00 0.0000000000000000e+00 0.0000000000000000e+00
1262 0.0000000000000000e+00 0.0000000000000000e+00 0.0000000000000000e+00
1139 -5.0092514721650715e-04 4.6787745133277988e-03 -4.2394730786737330e-03
1168 7.4605368706840963e-03 3.1300993558761345e-03 5.6865040480366374e-03
1135 4.9517772145431299e-03 4.7749950142161662e-04 4.1520526340454783e-04
1183 2.3159710973370499e-03 4.2478056962873901e-03 -4.2558919693478671e-03
1184 3.7455690360893834e-04 7.0024264800712984e-04 -1.0248269025035053e-03
1185 -2.2351997202213181e-03 -1.5190362114746496e-02 -5.5571116841137153e-03
1186 -3.3490409721281698e-03 2.6552355321196744e-03 -7.8847615403160112e-03
1200 -8.1946763874155666e-04 -4.0260009239856415e-03 -2.1977518311087074e-03
1216 0.0000000000000000e+00 0.0000000000000000e+00 0.0000000000000000e+00
1217 0.0000000000000000e+00 0.0000000000000000e+00 0.0000000000000000e+00
1219 0.0000000000000000e+00 0.0000000000000000e+00 0.0000000000000000e+00
1220 0.0000000000000000e+00 0.0000000000000000e+00 0.0000000000000000e+00
1251 0.0000000000000000e+00 0.0000000000000000e+00 0.0000000000000000e+00
1265 0.0000000000000000e+00 0.0000000000000000e+00 0.0000000000000000e+00
1266 0.0000000000000000e+00 0.0000000000000000e+00 0.0000000000000000e+00
1267 0.0000000000000000e+00 0.0000000000000000e+00 0.0000000000000000e+00
1268 0.0000000000000000e+00 0.0000000000000000e+00 0.0000000000000000e+00
1279 0.0000000000000000e+00 0.0000000000000000e+00 0.0000000000000000e+00
1281 0.0000000000000000e+00 0.0000000000000000e+00 0.0000000000000000e+00
1280 0.0000000000000000e+00 0.0000000000000000e+00 0.0000000000000000e+00
1148 -2.5842889015688700e-03 -2.2370949538373054e-03 -1.0443282379699841e-04
1147 -6.2098713876832740e-03 4.3282178205627094e-03 -1.8933865182496875e-03
1159 2.0861990836008250e-03 7.0771667168512721e-03 3.2150113424393592e-03
1160 5.7849137912529035e-03 -1.5121761307949457e-03 7.4268422405031715e-03
1161 -5.3882919231395569e-03 4.4429383314809707e-03 1.5084832772035287e-03
1228 0.0000000000000000e+00 0.0000000000000000e+00 0.0000000000000000e+00
1240 0.0000000000000000e+00 0.0000000000000000e+00 0.0000000000000000e+00
1241 0.0000000000000000e+00 0.0000000000000000e+00 0.0000000000000000e+00
1242 0.0000000000000000e+00 0.0000000000000000e+00 0.0000000000000000e+00
1243 0.0000000000000000e+00 0.0000000000000000e+00 0.0000000000000000e+00
1257 0.0000000000000000e+00 0.0000000000000000e+00 0.0000000000000000e+00
1258 0.0000000000000000e+00 0.0000000000000000e+00 0.0000000000000000e+00
1239 0.0000000000000000e+00 0.0000000000000000e+00 0.0000000000000000e+00
1256 0.0000000000000000e+00 0.0000000000000000e+00 0.0000000000000000e+00
1163 -4.5827128987644397e-03 -4.3204511493554129e-03 1.1096982553232854e-03
1162 6.6098999981906003e-03 -1.8739997727297993e-03 -5.3519763090316601e-03
1164 2.1720875752903671e-03 9.9952703693357448e-03 -2.8542060451194119e-03
1177 -9.0658431758619887e-04 -5.5672218731121622e-03 -9.7922882393942073e-03
1178 -6.2056772950570783e-03 4.8911487666946033e-03 -1.3553788343375608e-03
1179 -2.5068229512496616e-03 1.4401817411958874e-03 4.7112413718851465e-03
1180 4.4038174843964353e-03 -5.8400837863180621e-03 -2.5959578895201744e-03
1181 5.9902179691297304e-04 -8.0667989541721493e-03 1.9200296676726823e-03
1194 1.8008870764962700e-03 1.0766359720767353e-03 3.3006493964048019e-03
1259 0.0000000000000000e+00 0.0000000000000000e+00 0.0000000000000000e+00
1260 0.0000000000000000e+00 0.0000000000000000e+00 0.0000000000000000e+00
1261 0.0000000000000000e+00 0.0000000000000000e+00 0.0000000000000000e+00
1273 0.0000000000000000e+00 0.0000000000000000e+00 0.0000000000000000e+00
1275 0.0000000000000000e+00 0.0000000000000000e+00 0.0000000000000000e+00
1276 0.0000000000000000e+00 0.0000000000000000e+00 0.0000000000000000e+00
1277 0.0000000000000000e+00 0.0000000000000000e+00 0.0000000000000000e+00
1286 0.0000000000000000e+00 0.0000000000000000e+00 0.0000000000000000e+00
1274 0.0000000000000000e+00 0.0000000000000000e+00 0.0000000000000000e+00
1138 -5.4026616290225810e-03 -1.8082134431271595e-03 8.5089455200507570e-04
1182 7.9258958025810405e-04 1.0155008198675761e-03 2.1919195084109167e-03
1196 3.8437619834962664e-03 -8.7588915610989024e-04 1.3264332114024859e-03
1195 6.0640634506729362e-03 -1.0068734433280300e-02 9.1360728234646466e-04
1198 7.3954345255998763e-03 -9.1531299193523281e-03 -6.6706118233895637e-04
1145 5.1548621969844406e-03 -7.0875150765655429e-03 -1.1090869975299960e-02
1146 -8.9609584353689915e-04 1.3432870082216190e-03 -6.5960100713735310e-04
1197 -4.6413006028886263e-03 7.0729747390633610e-03 3.0338351922996410e-03
1199 7.2622414772448140e-03 4.3097788297543418e-03 5.7077456691962212e-03
1207 -2.7061989656676060e-04 4.3440647065876477e-03 1.2373107166533739e-02
1208 -5.3599419517416985e-03 2.6886225379160397e-03 5.3312931023813577e-04
1209 -1.0081222776027379e-03 2.7745488044663199e-03 -1.3147835507239688e-02
1226 0.0000000000000000e+00 0.0000000000000000e+00 0.0000000000000000e+00
1227 0.0000000000000000e+00 0.0000000000000000e+00 0.0000000000000000e+00
1238 0.0000000000000000e+00 0.0000000000000000e+00 0.0000000000000000e+00
1278 0.0000000000000000e+00 0.0000000000000000e+00 0.0000000000000000e+00
1287 0.0000000000000000e+00 0.0000000000000000e+00 0.0000000000000000e+00
1288 0.0000000000000000e+00 0.0000000000000000e+00 0.0000000000000000e+00
1289 0.0000000000000000e+00 0.0000000000000000e+00 0.0000000000000000e+00
1290 0.0000000000000000e+00 0.0000000000000000e+00 0.0000000000000000e+00
1295 0.0000000000000000e+00 0.0000000000000000e+00 0.0000000000000000e+00
1137 6.3519562669877207e-03 3.1687161534641622e-03 -7.9895968067037436e-03
1143 6.2110824266119443e-03 6.1452901599047876e-03 -4.3264698852383422e-03
1158 -6.3726488249856118e-03 -6.4314330203031596e-03 5.4128377618843657e-03
1172 -6.0645819290079681e-03 1.0658770542277944e-03 -9.6186321953850953e-04
1173 5.8274553033156517e-03 -2.4487376924819840e-03 9.5448587311942434e-04
1174 2.4475630895968623e-03 3.6023586959846253e-03 -3.9319869505969650e-03
1175 -5.4144928258573746e-03 -9.2675040077050061e-03 -3.2891633517981001e-03
1188 -1.1373041212808556e-03 -7.9485703120290054e-03 -2.5524252771809870e-03
1253 0.0000000000000000e+00 0.0000000000000000e+00 0.0000000000000000e+00
1254 0.0000000000000000e+00 0.0000000000000000e+00 0.0000000000000000e+00
1255 0.0000000000000000e+00 0.0000000000000000e+00 0.0000000000000000e+00
1269 0.0000000000000000e+00 0.0000000000000000e+00 0.0000000000000000e+00
1270 0.0000000000000000e+00 0.0000000000000000e+00 0.0000000000000000e+00
1271 0.0000000000000000e+00 0.0000000000000000e+00 0.0000000000000000e+00
1154 7.2828578250857144e-03 -5.9732497817485495e-03 3.3514527385992750e-03
1144 -8.3574470509417496e-03 -9.4408468968161310e-03 -3.0911796558755009e-03
1155 6.3563056019483679e-04 1.4338737253496696e-04 4.0245005458812034e-03
1176 -1.6360614823152115e-03 1.2559509238787409e-03 9.4079862209647683e-04
1192 -3.3749803879662274e-03 -2.5652256973739676e-03 -8.6026376022281126e-03
1190 1.5006005717519036e-03 -5.3861593818815539e-03 1.3869260172326395e-04
1189 -2.9099575082846187e-03 3.5301594800462681e-03 3.3227996559072239e-03
1191 4.9536063391837065e-03 3.2693009511955248e-03 -2.0135587720678376e-04
1193 4.7080597798575628e-03 -6.4735672347745327e-03 -1.4045240945502013e-03
1201 7.9604030864210435e-03 -5.4508648670751293e-03 1.7689040265808419e-03
1202 3.9300192910164400e-03 -1.5816448534242648e-04 1.9092778811628131e-03
1203 -7.9267045823073069e-04 -4.7363729301393058e-03 -1.0444599921655823e-02
1272 0.0000000000000000e+00 0.0000000000000000e+00 0.0000000000000000e+00
1282 0.0000000000000000e+00 0.0000000000000000e+00 0.0000000000000000e+00
1283 0.0000000000000000e+00 0.0000000000000000e+00 0.0000000000000000e+00
1284 0.0000000000000000e+00 0.0000000000000000e+00 0.0000000000000000e+00
1285 0.0000000000000000e+00 0.0000000000000000e+00 0.0000000000000000e+00
1291 0.0000000000000000e+00 0.0000000000000000e+00 0.0000000000000000e+00
1136 1.3668148596814222e-03 -3.7105916182989551e-03 8.3062336055010951e-03
1170 -3.1762428538846927e-03 -3.7489470934213630e-03 -5.9567955534458386e-03
1187 7.8642908425575076e-03 -4.7511195825662876e-03 -4.4785341158359061e-03
1206 -9.5144510231545271e-03 -4.2694712652788470e-03 1.0212603610857473e-02
1214 1.1484348185170504e-02 2.1609426440737222e-03 -6.2705189532389861e-03
1156 -8.1020477958906444e-03 4.6173339643850782e-03 9.0039207418796310e-03
1171 -1.1646858081433016e-03 1.7384362963616981e-03 -1.2660716284268554e-03
1169 -5.3720282837439685e-03 3.9655935361406726e-03 -2.1039165171467325e-03
1205 -3.4572105139891326e-03 -4.9831035922277512e-03 1.0781580672205625e-02
1204 1.1577811505196559e-02 -7.6137580766118826e-04 1.2567673301934438e-03
1210 -5.7881657259036389e-03 -7.6632899006062963e-03 -7.1957824007958383e-04
1157 -2.0270400437160984e-03 1.3359580150694051e-03 -1.0604038020439628e-03
1211 5.3897069422117853e-03 -1.1856478011472462e-02 1.1659829435896621e-02
1212 5.1685333867781459e-04 4.0884568347475956e-03 -1.1478516196505302e-03
1213 6.7987959974194151e-03 2.6345493316554981e-03 2.8676440835309967e-03
1215 -8.1147055359321422e-03 -7.2943718745803758e-04 -5.6534547013377887e-03
1237 0.0000000000000000e+00 0.0000000000000000e+00 0.0000000000000000e+00
1252 0.0000000000000000e+00 0.0000000000000000e+00 0.0000000000000000e+00
1292 0.0000000000000000e+00 0.0000000000000000e+00 0.0000000000000000e+00
1293 0.0000000000000000e+00 0.0000000000000000e+00 0.0000000000000000e+00
1294 0.0000000000000000e+00 0.0000000000000000e+00 0.0000000000000000e+00
1296 0.0000000000000000e+00 0.0000000000000000e+00 0.0000000000000000e+00
