Loading lammps/kokkos/gpu_della9_2022
  Loading requirement: gcc-toolset/14 openmpi/gcc/4.1.6
    fftw/gcc/openmpi-4.1.6/3.3.10 cudatoolkit/12.8
LAMMPS (23 Jun 2022)
KOKKOS mode is enabled (src/KOKKOS/kokkos.cpp:105)
  will use up to 1 GPU(s) per node
WARNING: When using a single thread, the Kokkos Serial backend (i.e. Makefile.kokkos_mpi_only) gives better performance than the OpenMP backend (src/KOKKOS/kokkos.cpp:217)
  using 1 OpenMP thread(s) per MPI task
BOTTOM -0.625
Lattice spacing in x,y,z = 2.5211094 2.5211094 3.5653872
Created orthogonal box = (0 0 -2.228367) to (22.689985 22.689985 28.523097)
  1 by 1 by 1 MPI processor grid
Created 1215 atoms
  using lattice units in orthogonal box = (0 0 -2.228367) to (22.689985 22.689985 28.523097)
  create_atoms CPU = 0.005 seconds
Setting atom values ...
  1215 settings made for charge
N_LAT_0 1944
162 atoms in group anchor
0 atoms in group insert
1053 atoms in group mobile
1215 atoms in group carbon
Reading potential file ffield.reax with DATE: 2011-02-18
WARNING: Changed valency_val to valency_boc for X (src/REAXFF/reaxff_ffield.cpp:296)
Changing box ...
  orthogonal box = (0 0 -2.228367) to (22.689985 22.689985 28.523097)
  orthogonal box = (0 0 -2.228367) to (22.689985 22.689985 28.523097)
  orthogonal box = (0 0 -2.228367) to (22.689985 22.689985 28.523097)
System init for delete_atoms ...
Neighbor list info ...
  update every 1 steps, delay 10 steps, check yes
  max neighbors/atom: 2000, page size: 100000
  master list distance cutoff = 12
  ghost atom cutoff = 12
  binsize = 12, bins = 2 2 3
  3 neighbor lists, perpetual/occasional/extra = 2 1 0
  (1) command delete_atoms, occasional
      attributes: full, newton on
      pair build: full/bin/atomonly
      stencil: full/bin/3d
      bin: standard
  (2) pair reaxff/kk, perpetual
      attributes: half, newton off, ghost, kokkos_device
      pair build: half/bin/ghost/kk/device
      stencil: full/ghost/bin/3d
      bin: kk/device
  (3) fix qeq/reaxff/kk, perpetual
      attributes: full, newton off, kokkos_device
      pair build: full/bin/kk/device
      stencil: full/bin/3d
      bin: kk/device
WARNING: Fixes cannot yet send exchange data in Kokkos communication, switching to classic exchange/border communication (src/KOKKOS/comm_kokkos.cpp:581)
Deleted 0 atoms, new total = 1215

CITE-CITE-CITE-CITE-CITE-CITE-CITE-CITE-CITE-CITE-CITE-CITE-CITE

Your simulation uses code contributions which should be cited:
- pair reaxff command:
- fix qeq/reaxff command:
The log file lists these citations in BibTeX format.

CITE-CITE-CITE-CITE-CITE-CITE-CITE-CITE-CITE-CITE-CITE-CITE-CITE

WARNING: Using 'neigh_modify every 1 delay 0 check yes' setting during minimization (src/min.cpp:187)
Neighbor list info ...
  update every 1 steps, delay 0 steps, check yes
  max neighbors/atom: 2000, page size: 100000
  master list distance cutoff = 12
  ghost atom cutoff = 12
  binsize = 12, bins = 2 2 3
  2 neighbor lists, perpetual/occasional/extra = 2 0 0
  (1) pair reaxff/kk, perpetual
      attributes: half, newton off, ghost, kokkos_device
      pair build: half/bin/ghost/kk/device
      stencil: full/ghost/bin/3d
      bin: kk/device
  (2) fix qeq/reaxff/kk, perpetual
      attributes: full, newton off, kokkos_device
      pair build: full/bin/kk/device
      stencil: full/bin/3d
      bin: kk/device
Setting up cg/kk style minimization ...
  Unit style    : real
  Current step  : 0
Per MPI rank memory allocation (min/avg/max) = 38.44 | 38.44 | 38.44 Mbytes
   Step          Temp          E_pair         E_mol          TotEng         Press          Volume    
         0   0             -210443.5       0             -210443.5       42752.228      15831.943    
         4   0             -210644.91      0             -210644.91     -3962.8872      15831.943    
Loop time of 0.574217 on 1 procs for 4 steps with 1215 atoms

99.5% CPU use with 1 MPI tasks x 1 OpenMP threads

Minimization stats:
  Stopping criterion = energy tolerance
  Energy initial, next-to-last, final = 
     -210443.500576604  -210643.442580299  -210644.910348723
  Force two-norm initial, final = 998.72246 307.09751
  Force max component initial, final = 63.863581 16.227677
  Final line search alpha, max atom move = 0.0030518976 0.049525209
  Iterations, force evaluations = 4 32

MPI task timing breakdown:
Section |  min time  |  avg time  |  max time  |%varavg| %total
---------------------------------------------------------------
Pair    | 0.3573     | 0.3573     | 0.3573     |   0.0 | 62.22
Neigh   | 0          | 0          | 0          |   0.0 |  0.00
Comm    | 0.00078938 | 0.00078938 | 0.00078938 |   0.0 |  0.14
Output  | 0          | 0          | 0          |   0.0 |  0.00
Modify  | 0.2042     | 0.2042     | 0.2042     |   0.0 | 35.56
Other   |            | 0.01193    |            |       |  2.08

Nlocal:           1215 ave        1215 max        1215 min
Histogram: 1 0 0 0 0 0 0 0 0 0
Nghost:           3919 ave        3919 max        3919 min
Histogram: 1 0 0 0 0 0 0 0 0 0
Neighs:         716037 ave      716037 max      716037 min
Histogram: 1 0 0 0 0 0 0 0 0 0
FullNghs:  1.03923e+06 ave 1.03923e+06 max 1.03923e+06 min
Histogram: 1 0 0 0 0 0 0 0 0 0

Total # of neighbors = 1039230
Ave neighs/atom = 855.33333
Neighbor list builds = 0
Dangerous builds = 0
WARNING: Using 'neigh_modify every 1 delay 0 check yes' setting during minimization (src/min.cpp:187)
Setting up cg/kk style minimization ...
  Unit style    : real
  Current step  : 0
Per MPI rank memory allocation (min/avg/max) = 38.42 | 38.42 | 38.42 Mbytes
   Step          Temp          E_pair         E_mol          TotEng         Press          Volume    
         0   0             -210644.91      0             -210644.91     -3962.8872      15831.943    
         5   0             -210714.49      0             -210714.49     -3134.3002      15831.943    
Loop time of 1.46627 on 1 procs for 5 steps with 1215 atoms

99.7% CPU use with 1 MPI tasks x 1 OpenMP threads

Minimization stats:
  Stopping criterion = linesearch alpha is zero
  Energy initial, next-to-last, final = 
     -210644.910348844  -210714.489374527  -210714.489373551
  Force two-norm initial, final = 307.09751 268.17151
  Force max component initial, final = 16.227677 14.986194
  Final line search alpha, max atom move = 9.7102143e-14 1.4551915e-12
  Iterations, force evaluations = 5 89

MPI task timing breakdown:
Section |  min time  |  avg time  |  max time  |%varavg| %total
---------------------------------------------------------------
Pair    | 0.87645    | 0.87645    | 0.87645    |   0.0 | 59.77
Neigh   | 0          | 0          | 0          |   0.0 |  0.00
Comm    | 0.0019213  | 0.0019213  | 0.0019213  |   0.0 |  0.13
Output  | 0          | 0          | 0          |   0.0 |  0.00
Modify  | 0.56163    | 0.56163    | 0.56163    |   0.0 | 38.30
Other   |            | 0.02626    |            |       |  1.79

Nlocal:           1215 ave        1215 max        1215 min
Histogram: 1 0 0 0 0 0 0 0 0 0
Nghost:           3919 ave        3919 max        3919 min
Histogram: 1 0 0 0 0 0 0 0 0 0
Neighs:         716748 ave      716748 max      716748 min
Histogram: 1 0 0 0 0 0 0 0 0 0
FullNghs:  1.03793e+06 ave 1.03793e+06 max 1.03793e+06 min
Histogram: 1 0 0 0 0 0 0 0 0 0

Total # of neighbors = 1037934
Ave neighs/atom = 854.26667
Neighbor list builds = 0
Dangerous builds = 0
Created 81 atoms
  using lattice units in orthogonal box = (0 0 -2.228367) to (22.689985 22.689985 28.523097)
  create_atoms CPU = 0.001 seconds
81 atoms in group O
Displacing atoms ...
WARNING: Using 'neigh_modify every 1 delay 0 check yes' setting during minimization (src/min.cpp:187)
Setting up cg/kk style minimization ...
  Unit style    : real
  Current step  : 0
Per MPI rank memory allocation (min/avg/max) = 44.39 | 44.39 | 44.39 Mbytes
   Step          Temp          E_pair         E_mol          TotEng         Press          Volume    
         0   0             -220270.56      0             -220270.56      3185.4049      15831.943    
         4   0             -221871.06      0             -221871.06      7558.401       15831.943    
Loop time of 0.96779 on 1 procs for 4 steps with 1296 atoms

99.7% CPU use with 1 MPI tasks x 1 OpenMP threads

Minimization stats:
  Stopping criterion = energy tolerance
  Energy initial, next-to-last, final = 
     -220270.556664919  -221871.055280682   -221871.05765161
  Force two-norm initial, final = 2258.0687 192.38567
  Force max component initial, final = 202.93601 12.000448
  Final line search alpha, max atom move = 2.4834338e-10 2.9802318e-09
  Iterations, force evaluations = 4 53

MPI task timing breakdown:
Section |  min time  |  avg time  |  max time  |%varavg| %total
---------------------------------------------------------------
Pair    | 0.56274    | 0.56274    | 0.56274    |   0.0 | 58.15
Neigh   | 0          | 0          | 0          |   0.0 |  0.00
Comm    | 0.0011917  | 0.0011917  | 0.0011917  |   0.0 |  0.12
Output  | 0          | 0          | 0          |   0.0 |  0.00
Modify  | 0.38495    | 0.38495    | 0.38495    |   0.0 | 39.78
Other   |            | 0.01891    |            |       |  1.95

Nlocal:           1296 ave        1296 max        1296 min
Histogram: 1 0 0 0 0 0 0 0 0 0
Nghost:           4180 ave        4180 max        4180 min
Histogram: 1 0 0 0 0 0 0 0 0 0
Neighs:         788038 ave      788038 max      788038 min
Histogram: 1 0 0 0 0 0 0 0 0 0
FullNghs:  1.14242e+06 ave 1.14242e+06 max 1.14242e+06 min
Histogram: 1 0 0 0 0 0 0 0 0 0

Total # of neighbors = 1142424
Ave neighs/atom = 881.5
Neighbor list builds = 0
Dangerous builds = 0
System init for write_data ...
WARNING: Temperature for thermo pressure is not for group all (src/thermo.cpp:520)
Setting up Verlet run ...
  Unit style    : real
  Current step  : 0
  Time step     : 1
Per MPI rank memory allocation (min/avg/max) = 44.01 | 44.01 | 44.01 Mbytes
   Step          Time           Temp     
         0   0              300          
      1000   1000           366.49547    
      2000   2000           378.01583    
      3000   3000           370.7351     
      4000   4000           386.44149    
      5000   5000           365.98473    
      6000   6000           364.12419    
      7000   7000           371.09966    
      8000   8000           362.69542    
      9000   9000           369.08735    
     10000   10000          355.62764    
Loop time of 133.379 on 1 procs for 10000 steps with 1296 atoms

Performance: 6.478 ns/day, 3.705 hours/ns, 74.974 timesteps/s
99.6% CPU use with 1 MPI tasks x 1 OpenMP threads

MPI task timing breakdown:
Section |  min time  |  avg time  |  max time  |%varavg| %total
---------------------------------------------------------------
Pair    | 90.085     | 90.085     | 90.085     |   0.0 | 67.54
Neigh   | 0          | 0          | 0          |   0.0 |  0.00
Comm    | 2.9719     | 2.9719     | 2.9719     |   0.0 |  2.23
Output  | 0.0041514  | 0.0041514  | 0.0041514  |   0.0 |  0.00
Modify  | 39.948     | 39.948     | 39.948     |   0.0 | 29.95
Other   |            | 0.3701     |            |       |  0.28

Nlocal:           1296 ave        1296 max        1296 min
Histogram: 1 0 0 0 0 0 0 0 0 0
Nghost:           4180 ave        4180 max        4180 min
Histogram: 1 0 0 0 0 0 0 0 0 0
Neighs:         787694 ave      787694 max      787694 min
Histogram: 1 0 0 0 0 0 0 0 0 0
FullNghs:   1.1421e+06 ave  1.1421e+06 max  1.1421e+06 min
Histogram: 1 0 0 0 0 0 0 0 0 0

Total # of neighbors = 1142100
Ave neighs/atom = 881.25
Neighbor list builds = 0
Dangerous builds = 0
System init for write_data ...
System init for write_data ...
0 1944 0 0
0 -0.625 1944
Total wall time: 0:02:17
srun: error: della-i14g13: task 0: Exited with exit code 1
srun: Terminating StepId=6632483.1
LAMMPS exited with code 1 — not re-submitting.
