# head.lmp — generated by DiamondEtchMD
# orientation=100  species=O  0.5eV  300.0K  angle=0.0deg
package kokkos neigh/qeq full neigh half newton on
units		real
include     config.lmp
if "${pot} == COMB3" then &
"atom_style charge" &
elif "${pot} == REAX" &
"atom_style charge" &
else &
"atom_style atomic"

boundary	p p m

# create_box with 4 types then merge data file so type 4 (Ar) is available
region      dummy_region block 0 1 0 1 0 1
create_box  4 dummy_region
read_data   ${data_file} add merge

variable 	lp equal $(v_end_fluence*v_ML)-${n_complete} # impacts left
variable    a loop ${lp}
variable    bottom equal $(zlo/(v_lat_a))
print       'BOTTOM ${bottom}'
print       'N_LAT_0 ${n_lat_0}'

# Regions — lattice must match make_surf.lmp for this orientation
lattice    diamond ${lat_a} orient z 0 0 1 orient x 1 1 0 orient y -1 1 0 spacing $(1/sqrt(2)) $(1/sqrt(2)) 1 origin 0 0 0
region          bbox block EDGE EDGE EDGE EDGE EDGE EDGE
variable        sublat equal ${bottom}+1/2
region          anchor block INF INF INF INF ${bottom} ${sublat} units lattice

# Groups
group 	anchor region anchor
group	insert empty
group 	mobile subtract all anchor
group   carbon type 1

# Particle masses (4 types: C, H, O, Ar)
mass        1 ${M_C}
mass        2 ${M_H}
mass        3 ${M_O}
mass        4 ${M_Ar}

# Potential
if "${pot} == REAX" then &
"pair_style reaxff NULL mincap 200 safezone 1.5" &
"pair_coeff * * ffield.reax C H O NULL" &
"fix reax_qeq all qeq/reaxff 1 0.0 6.0 1e-6 reaxff"

# Pre-run counters
variable c equal ${n_complete}
variable event_count equal ${n_events}

# Atom counts
variable	nfixed   equal count(anchor)
variable	nmobile  equal count(mobile)
variable 	ninject  equal count(insert)

# Incident particle velocity components
variable 	vel equal sqrt(2*${energ}*6.02214129*1.0e+7/${M_incident}/6242)/1000
variable 	velz equal cos(${angl}*PI/180)*${vel}
variable 	vely equal sin(${angl}*PI/180)*${vel}

# Energy conservation check
compute     ake all ke
compute     ape all pe
compute     ike insert ke
variable    ate equal c_ake+c_ape+ecouple

# Clustering
variable	checkevery equal 1000
compute	    clusts all cluster/atom 3.0
compute	    clust_min all reduce min c_clusts
compute	    clust_max all reduce max c_clusts
variable    one_clust equal "c_clust_min == c_clust_max"
fix		    stopclust all halt ${checkevery} v_one_clust == 0 error continue message yes

# Carbon cluster event tracking
compute     cclusts carbon cluster/atom 1.8
compute     cc1 carbon chunk/atom c_cclusts compress yes
compute     nclusts carbon reduce max c_cc1

# Thermo
thermo_style    custom step time v_ninject temp c_ike dt ecouple v_ate v_one_clust c_nclusts
compute     	mtemp mobile temp
compute_modify  mtemp dynamic/dof yes
thermo_modify   temp mtemp
thermo_modify   lost warn flush yes

print "${c}" file begin.txt

# ========================= Begin Per-Impact Outer Loop =========================
label		loop

dump current_dump all custom 100 dumps/event_dump_${event_count}.dump id type x y z vx vy vz fx fy fz q

group       insert clear
group 	    mobile subtract all anchor

variable    c equal ${c}+1
variable    deposeed equal floor(random(1,72099+${seed_adjust},${c}))
fix     depo insert deposit 1 ${incident_type_index} 10000000000 ${deposeed} global ${i_above} ${i_above} vx 0.0 0.0 vy ${vely} ${vely} vz -${velz} -${velz} region bbox units box

fix     2 mobile nve
fix     3 insert nve

# Run 1 fs timestep to place incident particle
timestep 1e-10
run 1 post no
variable starting_nclusts equal $(c_nclusts)

# Adaptive timestep
fix ats all dt/reset 1 NULL 1.00 0.01 units box
thermo      100

variable    t0 equal $(time)
variable    time_elapsed equal time-${t0}
fix         thalt all halt 1 v_time_elapsed > ${impact_time} error continue message yes

run         0 post no
# =========================== begin inner loop ===========================
label		continue_impact

run         1000000000 pre no post no
if "$(time-v_t0) > ${impact_time}" then "run 0"
if "${one_clust} == 0" then "include sweep.lmp"
if "$(c_nclusts) > ${starting_nclusts}" then &
"variable event_count equal ${event_count}+1" &
"variable starting_nclusts equal $(c_nclusts)"
if "$(time-v_t0) < ${impact_time}" then "jump SELF continue_impact"
unfix thalt
# ============================ end inner loop ============================

unfix   depo
unfix   ats

# Thermalize
include thermalize.lmp

unfix       2
unfix       3

# Replenish carbon if etched below baseline
group       carbon type 1
group       hydrogen type 2
group       oxygen type 3
variable    ncarbon equal count(carbon)
variable    nhydrogen equal count(hydrogen)
variable    noxygen equal count(oxygen)
label addfix
if "${ncarbon}<${n_lat_0}" then &
"include addfix.lmp" &
"fix 2 mobile nve" &
"include thermalize.lmp" &
"unfix 2"
if "${ncarbon}<${n_lat_0}" then "jump SELF addfix"

print "Run ${c} complete"
print "C_COUNT: ${ncarbon}"
print "${c} ${ncarbon} ${nhydrogen} ${noxygen}" append ncarbon.txt

write_data data_files/${c}.data nofix nocoeff
if '$(v_c%v_ML) == 0' then "write_dump all custom dumps/dump.dump id type x y z vx vy vz modify sort id append yes"

undump current_dump
# ========================= End Per-Impact Outer Loop =========================
next		a
jump		SELF loop
