ITEM: TIMESTEP
0
ITEM: NUMBER OF ATOMS
3264
ITEM: BOX BOUNDS pp pp mm
0.0000000000000000e+00 2.0168875556741614e+01
0.0000000000000000e+00 2.1392323012619400e+01
-4.7270802086113157e+00 7.5633283337781052e+01
ITEM: ATOMS id type x y z vx vy vz
1 1 2.52111 0.891347 -3.78166 0 0 0
2 1 1.26055 1.78269 -3.78166 0 0 0
3 1 0 0 -2.52111 0 0 0
4 1 0 0.891347 -3.78166 0 0 0
5 1 1.26055 2.67404 -2.52111 0 0 0
6 1 0 0.891347 -1.26055 0 0 0
7 1 7.56333 0.891347 -3.78166 0 0 0
8 1 6.30277 1.78269 -3.78166 0 0 0
9 1 3.78166 1.78269 -3.78166 0 0 0
10 1 5.04222 0 -2.52111 0 0 0
11 1 5.04222 0.891347 -3.78166 0 0 0
12 1 6.30277 2.67404 -2.52111 0 0 0
13 1 3.78166 2.67404 -2.52111 0 0 0
14 1 5.04222 0.891347 -1.26055 0 0 0
15 1 2.52111 0 -2.52111 0 0 0
16 1 3.78166 1.78269 -1.26055 0 0 0
17 1 1.26055 1.78269 -1.26055 0 0 0
18 1 2.54052 0.0234528 0.0539759 -0.00193212 -0.00152105 0.00164011
19 1 2.52111 0.891347 -1.26055 0 0 0
20 1 3.84546 2.69462 0.026836 0.00186579 0.00348565 0.000102161
21 1 1.22784 2.70805 0.00501111 4.59833e-05 -0.000518503 -0.00423888
22 1 2.48182 0.923945 1.29542 -0.00479514 -0.00021829 -0.0117829
23 1 0.00724984 21.375 -0.000959304 0.000584736 0.0081708 -0.00539656
24 1 1.21124 1.79009 1.25957 -0.000844016 0.00677159 0.0024105
25 1 0.0530952 0.0121536 2.51095 -0.000646214 0.001753 -0.000791235
26 1 20.1333 0.915645 1.27199 -0.00213999 -0.00107086 -0.0051777
27 1 1.24917 2.67275 2.54076 -0.000258071 0.00120469 0.00262202
28 1 20.1345 0.845041 3.85804 -0.000564158 0.000822051 0.0060137
29 1 12.6055 0.891347 -3.78166 0 0 0
30 1 11.345 1.78269 -3.78166 0 0 0
31 1 8.82388 1.78269 -3.78166 0 0 0
32 1 10.0844 0 -2.52111 0 0 0
33 1 10.0844 0.891347 -3.78166 0 0 0
34 1 11.345 2.67404 -2.52111 0 0 0
35 1 8.82388 2.67404 -2.52111 0 0 0
36 1 10.0844 0.891347 -1.26055 0 0 0
37 1 7.56333 0 -2.52111 0 0 0
38 1 8.82388 1.78269 -1.26055 0 0 0
39 1 6.30277 1.78269 -1.26055 0 0 0
40 1 7.56328 21.3881 0.0353397 0.00175372 0.00806613 0.00651238
41 1 7.56333 0.891347 -1.26055 0 0 0
42 1 8.79397 2.66217 0.0348594 0.00364765 0.00175859 0.00760975
43 1 6.3523 2.66639 0.0453919 -0.00136673 0.0013889 -0.00818075
44 1 7.60644 0.834376 1.28618 0.00679226 -0.00802698 -0.00191491
45 1 5.01817 21.3596 0.063762 0.00649266 3.18518e-06 -0.0023763
46 1 6.29443 1.78492 1.29317 0.00225213 0.00335235 -0.00305114
47 1 3.79027 1.8009 1.29599 0.00469813 -0.00226658 0.0101269
48 1 5.00998 0.0407967 2.61657 -0.00136761 0.00183829 -0.005572
49 1 5.04549 0.888729 1.31244 -0.00539403 0.00705064 -0.00177329
50 1 6.22293 2.71711 2.54737 -0.00805452 -0.0022959 0.00137394
51 1 3.7717 2.69715 2.55997 0.00108484 0.00337349 0.00514304
52 1 5.04602 0.906924 3.81393 0.00671513 -0.00439982 -0.00197134
53 1 2.53428 0.0127628 2.55253 0.0084061 -0.00442035 0.00443011
54 1 3.7596 1.85295 3.82156 0.00846859 0.000234124 0.00972529
55 1 1.25166 1.77199 3.85543 0.00270016 -0.00118697 -0.00290924
56 1 2.51113 0.0293271 5.08067 -0.00466855 -0.00451899 -0.00360515
57 1 2.5353 0.915294 3.78959 0.00135251 0.00658748 0.00257285
58 1 3.74133 2.75229 5.09379 -0.00140185 -0.00221283 -0.00286168
59 1 1.25473 2.71465 5.173 0.000772298 0.00100124 -0.00054411
60 1 2.47768 0.915391 6.33669 -0.00349872 -0.00492746 -0.000731143
61 1 20.1602 21.3739 5.17531 -0.00243629 -0.00946332 -0.000847894
62 1 1.22959 1.80768 6.37922 -0.00890593 -0.00325223 -0.000609538
63 1 20.1608 21.3398 7.67219 -0.0133032 -0.000618598 -0.00147659
64 1 0.00156427 0.879879 6.40492 -0.00320403 -0.00821115 0.00696913
65 1 1.27224 2.63531 7.62987 0.00253731 -0.00211497 -0.00207786
66 1 0.0657247 0.8232 8.89756 -0.00258248 -0.00494456 -0.00713496
67 1 17.6478 0.891347 -3.78166 0 0 0
68 1 16.3872 1.78269 -3.78166 0 0 0
69 1 13.8661 1.78269 -3.78166 0 0 0
70 1 15.1267 0 -2.52111 0 0 0
71 1 15.1267 0.891347 -3.78166 0 0 0
72 1 16.3872 2.67404 -2.52111 0 0 0
73 1 13.8661 2.67404 -2.52111 0 0 0
74 1 15.1267 0.891347 -1.26055 0 0 0
75 1 12.6055 0 -2.52111 0 0 0
76 1 13.8661 1.78269 -1.26055 0 0 0
77 1 11.345 1.78269 -1.26055 0 0 0
78 1 12.5773 0.0811568 0.0209203 -0.00231396 -9.87931e-05 -0.0010769
79 1 12.6055 0.891347 -1.26055 0 0 0
80 1 13.8801 2.71636 0.0144851 0.00698395 -0.00214912 -0.00369978
81 1 11.3246 2.68076 -0.0478818 -0.00301133 -0.010643 -0.00104793
82 1 12.5894 0.951529 1.29723 -0.00445586 -0.00242238 -0.00376897
83 1 10.0486 0.0218948 0.0562674 0.00403397 0.00282367 -0.00592825
84 1 11.3519 1.81974 1.31446 0.00302923 0.00246923 0.00377502
85 1 8.81948 1.79969 1.27839 0.00117189 -0.00712015 -0.00919522
86 1 10.0865 21.3874 2.59387 0.00355726 -0.0017902 -0.0091784
87 1 10.0727 0.92068 1.28051 0.000559961 -0.00606145 0.00698192
88 1 11.3737 2.68856 2.57397 0.00312158 -0.00181151 -0.000377968
89 1 8.74508 2.667 2.53506 0.00988789 0.00367115 -0.00603583
90 1 10.0577 0.908221 3.82352 -0.00578611 -0.00881801 0.00413612
91 1 7.57617 21.3605 2.55458 -0.0101033 -0.00222172 -0.00629881
92 1 8.77247 1.77766 3.89427 -0.00709075 -0.00900537 0.00342258
93 1 6.26653 1.82876 3.80074 -0.00148149 0.000611708 -0.000209213
94 1 7.50947 0.0268521 5.06034 -0.00284277 -0.000906866 -0.000880662
95 1 7.55431 0.899228 3.82191 -0.00203084 -0.00288305 -0.00209229
96 1 8.80225 2.65556 5.11046 0.0019768 -0.00899385 0.0036443
97 1 6.27136 2.71287 5.06949 0.00356853 0.003885 0.00223554
98 1 7.54815 0.927295 6.38284 0.00196853 -0.00175018 0.000537237
99 1 4.9924 21.375 5.09787 -0.00272818 -0.00473922 -0.000469378
100 1 6.25637 1.82236 6.31922 -0.00179237 -0.00464196 0.00130421
101 1 3.76641 1.83395 6.33739 0.00670296 0.00393949 -0.00246993
102 1 5.02362 0.00282043 7.67647 -0.00360499 -0.00331179 0.00619409
103 1 5.05404 0.925734 6.38717 -0.00392724 -0.00864498 0.000654182
104 1 6.22309 2.72203 7.61865 0.00357877 -0.00460816 -0.00549575
105 1 3.79761 2.78051 7.61 -0.000629936 0.000179934 -0.00731676
106 1 5.03315 0.913948 8.94288 0.00723735 -0.00132746 -0.00729837
107 1 2.54403 0.0340433 7.6163 0.000866552 -0.00189745 -0.00401367
108 1 3.77395 1.79724 8.90506 -0.00302006 -0.00728009 0.000230171
109 1 1.24559 1.77241 8.89538 -0.00148088 9.93892e-05 -0.00194114
110 1 2.53305 0.0347964 10.1993 -0.00315996 0.000570763 -0.00499327
111 1 2.56523 0.890198 8.87792 -0.00498043 -0.00237775 0.0046005
112 1 3.76219 2.6955 10.1935 -0.00266785 -0.00219893 -0.00428625
113 1 1.19856 2.71715 10.2107 0.00208863 -0.00136375 -0.00150656
114 1 2.53022 0.912096 11.4528 0.00171619 0.000292285 0.000182804
115 1 0.0333426 21.3692 10.1376 0.0011052 0.00886226 0.00603973
116 1 1.2146 1.79669 11.474 -0.00505038 -0.00760464 0.00103803
117 1 20.1475 0.0286703 12.717 0.00438085 -0.00574491 0.00411475
118 1 20.1449 0.884883 11.4221 -0.00286168 -0.00023365 0.0074154
119 1 1.27084 2.6857 12.7439 -0.00940004 0.0096874 0.00443091
120 1 0.00305319 0.868579 13.9956 0.0039436 -0.00756585 0.00289355
121 1 18.9083 1.78269 -3.78166 0 0 0
122 1 18.9083 2.67404 -2.52111 0 0 0
123 1 17.6478 0 -2.52111 0 0 0
124 1 18.9083 1.78269 -1.26055 0 0 0
125 1 16.3872 1.78269 -1.26055 0 0 0
126 1 17.6714 0.0212974 -0.0104692 0.00547548 -0.00266541 0.00486973
127 1 17.6478 0.891347 -1.26055 0 0 0
128 1 18.8877 2.65608 -0.00359694 -0.00280715 -0.0073432 0.00219408
129 1 16.388 2.62882 -0.0174639 0.00439256 0.00844593 0.00232277
130 1 17.662 0.935675 1.33405 -0.0113401 -0.00785032 0.00626199
131 1 15.1477 0.0216299 -0.0110318 0.00271348 0.00868417 -0.000525314
132 1 16.4 1.81001 1.26024 -0.00511184 0.000857787 -0.00942989
133 1 13.8535 1.80529 1.28831 0.000335732 -0.00452129 -0.0166264
134 1 15.1013 0.00448732 2.55551 0.000493896 0.000340479 -0.000483637
135 1 15.1016 0.914095 1.2789 -0.00311896 0.00376709 -0.0112784
136 1 16.3868 2.69964 2.53809 -0.00174546 -0.00442467 -0.00186459
137 1 13.8688 2.73871 2.58104 -0.0107173 -0.00391202 0.00243248
138 1 15.1047 0.90839 3.81766 -0.00769553 0.00266498 -0.00364043
139 1 12.5562 0.0213011 2.5525 -0.00344875 0.00731411 0.00757184
140 1 13.8379 1.80606 3.85333 0.00339687 -0.00610925 -0.0117502
141 1 11.3674 1.79179 3.85935 -0.00269552 0.00796731 -0.00203096
142 1 12.6015 21.383 5.08413 0.00619277 0.00322955 -0.0133747
143 1 12.5752 0.898139 3.85834 0.00804757 0.00215941 0.00363417
144 1 13.8356 2.65672 5.11657 -0.00374381 -0.00298893 -0.00621104
145 1 11.3073 2.6852 5.10515 -0.00537187 0.00300895 -0.00608783
146 1 12.6328 0.854148 6.37993 -0.00393565 0.00340902 -0.00227724
147 1 10.0802 0.0352497 5.11074 0.00288941 -0.00315615 -0.0035821
148 1 11.3658 1.74042 6.45109 0.00408238 -0.00221574 0.00883019
149 1 8.83855 1.7541 6.43427 -0.00461054 -0.00153351 0.00841855
150 1 10.0519 21.3684 7.68278 -0.000445267 -0.00833939 0.000361247
151 1 10.1012 0.899288 6.40685 -0.00151418 0.00138397 0.000966866
152 1 11.3789 2.58811 7.64928 -0.00430036 0.00421481 -0.00247117
153 1 8.74991 2.6534 7.69506 -0.00417252 -0.000146014 -0.00219479
154 1 10.0443 0.835671 8.9418 -0.00702589 -0.00285348 0.00135156
155 1 7.50323 0.00456872 7.61898 0.000116811 -0.00169702 -0.000860519
156 1 8.76689 1.73927 8.91931 -0.0101968 0.010444 0.00670231
157 1 6.27205 1.77781 8.89175 0.00476421 -0.00549719 -0.00374055
158 1 7.55274 21.3701 10.1754 0.00910392 0.0059151 -0.00810945
159 1 7.51926 0.835326 8.94393 0.00453288 0.00613297 0.00488024
160 1 8.78841 2.66298 10.2244 0.00675364 0.00301675 -0.00135322
161 1 6.28293 2.61867 10.1749 -0.000194729 -0.00566667 0.00282692
162 1 7.55826 0.874187 11.4579 0.00914089 -0.00808415 -0.00487755
163 1 5.07711 21.3707 10.218 0.00557346 0.00628459 -0.000622072
164 1 6.27369 1.77263 11.4504 0.00863326 -0.00506997 -0.00860536
165 1 3.80345 1.82401 11.4763 0.00121269 0.000587146 0.00669087
166 1 5.00618 0.0417998 12.7462 -0.00142336 0.00183551 0.00182989
167 1 5.04229 0.913841 11.4454 0.00110718 0.00423683 -0.0030208
168 1 6.29939 2.70593 12.7734 0.00160698 -0.000676713 -0.00194447
169 1 3.79795 2.72574 12.7972 -0.00249285 -0.00453317 0.00236907
170 1 5.03172 0.97657 14.0226 -0.00242606 -0.00167391 -0.00425941
171 1 2.5284 0.0762299 12.7831 -0.00472599 -0.00513245 -0.00363591
172 1 3.8053 1.89365 14.061 -0.000454187 0.00115985 0.00750052
173 1 1.26406 1.78378 13.9716 -0.00318763 -0.00922517 -0.00359098
174 1 2.53064 0.0171592 15.3099 0.0062796 -0.00234099 0.00677912
175 1 2.56103 0.908508 14.0647 -0.00487834 0.00917915 -8.8342e-05
176 1 3.8195 2.71344 15.3302 -0.000686222 -0.000300674 -0.00377364
177 1 1.3099 2.67038 15.2818 0.00101133 -0.00438714 -0.00582141
178 1 2.54285 0.884332 16.5726 -0.007915 0.000221605 0.00118468
179 1 20.1586 21.364 15.2827 -0.0117084 -0.0083949 0.00521115
180 1 1.30278 1.77337 16.5097 -0.00454834 0.00229371 -0.00381284
181 1 0.0444211 21.3796 17.8084 0.00653334 -0.00518147 0.000252166
182 1 0.0285534 0.877058 16.5721 0.0017488 -0.0102579 0.00886659
183 1 1.30457 2.72898 17.8122 -0.00172646 -0.0025802 -0.00992508
184 1 0.0395765 0.904777 19.1052 -0.00269828 0.00276102 0.00160865
185 1 18.8607 1.81382 1.30638 -0.00441185 -0.00331553 0.00351921
186 1 18.8823 2.64247 2.5779 -0.00268259 0.00215405 0.00357917
187 1 17.6334 21.3797 2.52049 0.000856531 -0.00422944 0.0023819
188 1 18.8829 1.71313 3.82361 -0.00103079 0.0032617 0.000315291
189 1 16.3295 1.75822 3.80653 -0.00716403 0.00037268 0.0018879
190 1 17.661 0.00534805 5.12439 -0.000520861 -0.00418395 -0.00299288
191 1 17.6205 0.89648 3.83518 -0.00231191 0.00197868 -0.00884363
192 1 18.8825 2.67049 5.16461 0.00420567 -0.00548629 0.00286954
193 1 16.3579 2.6377 5.09949 0.00111693 -0.00485411 0.00404112
194 1 17.6382 0.890003 6.42098 -0.00253144 0.00168208 0.00141592
195 1 15.1211 21.3711 5.0816 -0.00604674 0.00103821 -0.00174128
196 1 16.3482 1.75661 6.39182 0.000492857 0.00450402 0.00563321
197 1 13.892 1.73561 6.35568 0.0042705 -0.00143892 -0.001725
198 1 15.2204 21.3737 7.6861 -0.00102642 0.00957707 -0.00587002
199 1 15.1301 0.859324 6.36049 0.00379305 0.00165762 -0.00591738
200 1 16.3908 2.57879 7.64447 -0.00725058 -0.00105438 0.00256374
201 1 13.9038 2.61832 7.67177 -0.00607031 0.00455707 0.00466953
202 1 15.1374 0.859813 8.96941 -0.00227704 0.00623462 0.0143733
203 1 12.6173 21.3741 7.6414 -0.00426421 -0.00143424 -0.00209645
204 1 13.9345 1.72523 8.98502 0.00511811 0.00156359 0.0030074
205 1 11.3122 1.77458 8.96541 -0.00450281 0.00685125 -0.00705261
206 1 12.6059 21.3816 10.2156 0.00315182 0.00111353 0.0105092
207 1 12.6082 0.880895 8.96611 -0.0034685 -0.00800528 0.0057968
208 1 13.9283 2.63407 10.2016 -0.00363734 -0.00523931 -0.00888818
209 1 11.2929 2.68242 10.172 0.00189382 -0.0114721 0.000773346
210 1 12.5539 0.877732 11.48 0.00392951 0.00566716 0.00811989
211 1 10.0649 21.3362 10.2076 0.00941851 0.00358707 0.000680521
212 1 11.3509 1.77164 11.4433 -0.000626332 -0.00692668 -0.000102262
213 1 8.83238 1.7697 11.4403 -0.00496925 0.000681225 -0.00970057
214 1 10.06 21.3897 12.7748 -6.84164e-06 -0.000324721 -0.00764275
215 1 10.0633 0.885905 11.4587 -0.00551198 0.00398965 -0.00562511
216 1 11.2615 2.62492 12.7719 -0.00155584 -0.000663478 -0.00796073
217 1 8.79998 2.67078 12.7416 0.00767455 0.00322808 0.00699517
218 1 10.0473 0.897853 14.0474 0.000252585 -0.000764585 -0.00985641
219 1 7.58103 0.0392967 12.7951 -0.00879214 -0.00168968 -0.00277597
220 1 8.83005 1.81227 14.0043 -0.0015518 -0.00412286 0.00266796
221 1 6.30965 1.82868 14.0354 0.00144155 0.00386912 0.00186575
222 1 7.56746 0.0308807 15.2667 -0.00495153 -0.000629022 -0.00114308
223 1 7.54657 0.91002 13.9941 -0.0062691 0.000551962 0.00320319
224 1 8.85116 2.62105 15.3242 -0.000179949 0.00222287 -0.00597507
225 1 6.37036 2.66826 15.3248 -0.000783376 -0.00771219 0.00480859
226 1 7.59649 0.849165 16.5819 0.00409653 0.00316729 0.00142118
227 1 5.05676 0.00100589 15.2836 0.00283728 0.00455886 -0.00372205
228 1 6.31923 1.77485 16.5543 0.000350285 0.00702555 -0.00552264
229 1 3.7993 1.80702 16.5752 -0.00931877 -0.00144928 -0.00279976
230 1 5.05956 0.00228771 17.8835 -0.00477188 -0.00134211 0.00112394
231 1 5.05408 0.918133 16.5637 -0.00581262 -0.002856 0.00149657
232 1 6.32984 2.60808 17.8483 0.00381921 -0.0051234 -0.00424178
233 1 3.83271 2.72505 17.9194 0.00236963 -0.00835317 -0.00347039
234 1 5.07945 0.930153 19.1256 0.00064135 0.00507517 -0.0120603
235 1 2.54168 21.3891 17.8206 0.00091552 0.00331804 -0.00894859
236 1 3.77583 1.79408 19.0954 0.00346129 -0.00103481 0.00308289
237 1 1.2886 1.77554 19.0847 0.00124432 -0.00291149 -0.00823465
238 1 2.53256 0.0401847 20.326 -1.77735e-05 -0.000271188 0.00182473
239 1 2.55421 0.923223 19.1225 -0.00241214 0.00240482 -0.00104571
240 1 3.81571 2.64886 20.3969 0.00361006 -0.00335796 -0.0048509
241 1 1.26546 2.72148 20.3524 0.00597357 0.000615383 -0.0162507
242 1 2.47117 0.932146 21.6014 0.000644479 0.000828647 0.00442385
243 1 0.0266573 21.302 20.3412 -0.00450471 -0.00378287 -0.00199619
244 1 1.26288 1.86264 21.6156 -0.00555776 0.00137317 -0.0074737
245 1 0.0577563 0.000945475 22.9193 -0.00312899 -0.00596509 0.000467056
246 1 20.1567 0.852943 21.6912 -0.00345699 0.000877111 -0.0088801
247 1 1.25631 2.73566 22.8787 -0.0026671 0.00397884 0.000375061
248 1 0.0310321 0.948017 24.1855 0.0115366 -0.00229173 0.00544271
249 1 18.8742 1.78243 6.45216 0.000771319 0.00171757 -0.0033601
250 1 18.9193 2.6391 7.66058 0.00378092 -0.00629249 0.00431493
251 1 17.6444 21.3437 7.70325 -0.00787495 0.00204319 0.00399432
252 1 18.958 1.74198 8.92547 0.000955139 0.00331988 -0.00225947
253 1 16.4227 1.75089 8.97597 -0.00873521 -0.0029292 0.0032821
254 1 17.6751 21.3795 10.1522 0.000430268 -0.00232081 0.00614832
255 1 17.6923 0.85572 8.92249 -0.00646672 0.00913403 0.00126729
256 1 18.9134 2.68136 10.1503 -0.00198358 0.00471974 -0.00410607
257 1 16.3989 2.70038 10.2206 -0.0106148 -0.00490486 -0.00425428
258 1 17.6709 0.890165 11.4487 0.000107091 0.00790763 0.00867117
259 1 15.1393 0.00807773 10.2534 0.00138117 -0.0113002 -0.00108342
260 1 16.4276 1.75583 11.4199 0.00356231 -0.00470797 -0.00100079
261 1 13.8633 1.76542 11.5058 -0.00690295 0.00195177 -0.0122968
262 1 15.1329 21.3623 12.6972 0.000195112 0.00696821 0.00211723
263 1 15.1346 0.887994 11.5252 -0.00205553 0.00458831 0.00227319
264 1 16.4132 2.63457 12.7321 0.00222508 -0.00106613 0.00551501
265 1 13.7969 2.63866 12.7037 -0.00388531 0.000367247 0.000158343
266 1 15.1178 0.876605 14.0439 -0.000258532 0.00474255 -0.00162436
267 1 12.5639 0.0031226 12.7374 0.00142111 -0.00474562 -0.000184631
268 1 13.8466 1.72742 13.9746 -0.00820645 -0.00296461 -0.00593025
269 1 11.311 1.78969 14.0248 -0.00643061 -0.00184157 -0.010662
270 1 12.6194 0.0254736 15.3119 0.00790304 0.00206824 -0.00166329
271 1 12.5957 0.900709 14.0192 -0.00025241 -0.000764899 -0.00127935
272 1 13.8626 2.6733 15.3111 -0.00613756 -0.00243777 -0.00100691
273 1 11.3256 2.71343 15.3377 -0.000406532 0.00482232 -0.00392967
274 1 12.6478 0.916008 16.5623 0.00439425 0.00336635 -0.00381601
275 1 10.1147 21.3577 15.31 -0.00233054 0.00141968 -0.00515089
276 1 11.3242 1.81661 16.5692 0.00449109 -0.00300489 -0.010937
277 1 8.82717 1.79696 16.5768 0.00440413 0.000662173 0.00338346
278 1 10.0759 21.3639 17.8859 0.00217529 0.00606504 0.00432725
279 1 10.088 0.888865 16.607 0.00589467 0.00141433 0.00168131
280 1 11.3175 2.64782 17.8395 -0.00200591 -0.00425175 0.00246202
281 1 8.8399 2.60166 17.8311 -0.000210246 0.00346015 -0.0039462
282 1 10.0877 0.865171 19.13 -0.00116818 0.00242769 -0.00057722
283 1 7.56456 21.3684 17.8402 -0.00130504 0.00344844 -0.00962462
284 1 8.84068 1.71498 19.1118 -0.00260707 -0.000221957 -0.00894688
285 1 6.34489 1.73324 19.1205 -0.00147621 0.00142917 0.00179799
286 1 7.54247 21.3678 20.3975 0.00194425 0.00552049 0.00428252
287 1 7.60393 0.881753 19.141 0.000821832 -2.22513e-05 -0.000147946
288 1 8.8726 2.69304 20.3637 0.00145484 -0.00438101 0.00317654
289 1 6.34875 2.68796 20.3844 -0.00224168 0.00386825 0.00839248
290 1 7.55708 0.91005 21.649 -0.00280723 0.00776253 0.00970036
291 1 5.03433 21.373 20.3688 -0.00681341 0.00387979 -0.00241027
292 1 6.32453 1.7729 21.6394 0.00124352 -0.0116188 0.000986436
293 1 3.81168 1.73833 21.6183 0.000999656 0.00235285 -0.00750899
294 1 5.05207 21.3384 22.8714 0.00622129 -0.00395604 -0.00509592
295 1 5.06045 0.918581 21.5966 -0.00793141 0.0044278 -0.00134969
296 1 6.31997 2.67047 22.8936 -0.00102866 0.00716885 0.00124639
297 1 3.82287 2.68886 22.9117 -0.00047093 0.00251702 -0.000510066
298 1 5.03306 0.805717 24.2023 -0.00261221 0.00482392 -0.00409737
299 1 2.52221 0.0356326 22.8256 -0.000835741 -0.00127888 -0.00654685
300 1 3.81942 1.78631 24.2063 0.000639307 0.0159292 0.00310252
301 1 1.29267 1.79789 24.1192 0.00481414 -0.00503508 0.00292709
302 1 2.50154 21.3513 25.4085 -0.00531578 -0.00445793 -0.0088019
303 1 2.55116 0.920537 24.1289 0.00457667 -0.000913829 -0.0030638
304 1 3.78888 2.67952 25.4798 -0.000208245 0.00102416 -0.00551841
305 1 1.27486 2.68436 25.4163 -0.00355179 -0.00029208 -0.000218807
306 1 2.47423 0.85509 26.6714 0.0104279 0.00235927 0.00245218
307 1 0.0217199 21.387 25.4683 0.0124884 -0.00525335 -0.00183571
308 1 1.2845 1.78168 26.6841 0.00369082 -0.00986288 -0.00257915
309 1 0.0213304 0.0675551 28.0423 -0.00408741 -0.00403337 0.00103307
310 1 20.1599 0.921189 26.7147 0.00863524 0.00300199 -0.00767775
311 1 1.25695 2.69846 27.9388 0.00026702 0.00357573 -0.00735287
312 1 0.0254484 0.937399 29.2405 -0.00150952 -0.00779286 -0.00117121
313 1 18.9039 1.7931 11.4462 -0.00200097 0.00241957 -0.000438261
314 1 18.9213 2.68317 12.7007 0.00839674 -0.00302082 -0.00324809
315 1 17.6758 21.3882 12.73 0.00475768 -0.00305279 -0.00267532
316 1 18.8661 1.80002 14.0724 -0.00182556 0.000270517 -0.00468556
317 1 16.3508 1.7319 14.0668 -0.00510493 -0.00302585 0.00337007
318 1 17.617 21.3599 15.3046 -0.00329955 -0.00348836 -0.0104261
319 1 17.6078 0.91108 14.0662 0.00106936 -0.00173782 -0.00618593
320 1 18.9035 2.63844 15.3192 -0.00157026 -0.00556694 0.00391489
321 1 16.359 2.71902 15.315 -0.000684628 -0.0035633 -0.0108168
322 1 17.6708 0.937228 16.5765 -0.00371645 0.00810613 -0.00106849
323 1 15.118 21.3424 15.3375 0.00775966 0.00284357 0.00194418
324 1 16.4399 1.83485 16.5766 -0.00207547 -0.00179042 0.00241445
325 1 13.899 1.79713 16.5616 0.0104076 -0.00363693 -0.00396994
326 1 15.1631 0.00819377 17.8508 -0.00380787 0.000532935 0.00380477
327 1 15.1521 0.880958 16.561 0.000429763 -0.00310121 0.00649561
328 1 16.3939 2.7289 17.8647 -0.00163372 -0.00283449 -0.000161583
329 1 13.9162 2.67581 17.8347 -0.00609457 0.00717636 0.00579405
330 1 15.1243 0.911542 19.1392 -0.0011489 0.00756763 -9.92388e-05
331 1 12.605 0.0784089 17.8196 5.06072e-05 0.00328401 -0.00105952
332 1 13.8372 1.79091 19.1442 0.00737203 0.00248952 -0.000355562
333 1 11.2873 1.81694 19.1508 0.00152619 0.00760324 -0.00240787
334 1 12.6143 0.0779572 20.3868 -0.00282993 -0.0048097 -0.00024824
335 1 12.5937 0.93866 19.1095 -0.00579983 -0.000417583 0.000755258
336 1 13.8687 2.71165 20.4073 0.00125652 -0.00260046 -0.00526992
337 1 11.3745 2.71291 20.3922 0.0104763 0.00306538 0.000234885
338 1 12.628 0.905633 21.6777 -0.0012044 -0.00486782 -0.00246575
339 1 10.101 21.3515 20.4696 0.00397976 -0.00358668 -0.0124292
340 1 11.3675 1.82168 21.6509 0.00508937 0.000223124 -0.00118452
341 1 8.84756 1.81006 21.6208 0.00200816 0.00889968 -0.00325762
342 1 10.144 0.00655434 22.9461 -0.00562628 -0.00389818 -0.000621167
343 1 10.096 0.905035 21.7106 0.00320834 0.002601 -0.0054024
344 1 11.389 2.68922 22.9335 -0.00895783 -0.00872212 -0.00843372
345 1 8.88749 2.66329 22.8972 0.00721541 -0.00362572 -0.0033015
346 1 10.121 0.882309 24.2044 -0.00484006 -0.00396956 -0.0088536
347 1 7.60168 0.0165315 22.9239 -0.00303543 0.00107271 -0.00541476
348 1 8.85744 1.77566 24.2111 9.03613e-05 -0.00223089 -0.00580262
349 1 6.31768 1.79083 24.1723 -0.00566701 0.00694582 -0.00925792
350 1 7.59569 0.015919 25.5114 0.00571038 -0.00090332 -0.00547152
351 1 7.57191 0.840721 24.219 -0.000579841 -0.000650609 -0.00169296
352 1 8.85212 2.70165 25.417 0.00057162 0.00487606 -0.00324184
353 1 6.32615 2.67149 25.4844 -0.00609015 0.00366814 0.00117826
354 1 7.61091 0.950196 26.7328 -0.00846292 -0.00409563 -0.00540578
355 1 5.03296 21.342 25.5003 -0.0109005 0.00878664 0.0043308
356 1 6.28914 1.76219 26.7923 -0.00448529 0.00592855 -0.00650858
357 1 3.77157 1.74924 26.718 -0.00804402 -0.00055699 -0.000880966
358 1 5.02333 21.3657 27.9868 0.000879924 -0.00596948 -0.0102683
359 1 5.05234 0.866605 26.7344 0.00695635 -0.00784128 -0.00231047
360 1 6.28736 2.68897 28.0259 -0.00120807 0.0033695 -0.00181582
361 1 3.78124 2.64037 27.9558 0.00357631 -0.00923997 -0.00638016
362 1 5.02032 0.888293 29.2583 -0.0052342 -0.00247198 0.00336088
363 1 2.47986 21.3567 27.9745 4.13484e-05 -0.0088528 -0.0022913
364 1 3.75476 1.80632 29.2807 -0.000585304 0.00546332 -0.00239046
365 1 1.31299 1.82591 29.2445 0.00104357 -0.0024349 -0.00550682
366 1 2.53107 0.0217339 30.5262 9.73773e-05 -0.00256942 0.00244359
367 1 2.50458 0.882784 29.2098 -0.0098767 0.00216772 -0.00574097
368 1 3.76608 2.67057 30.5681 -0.00844765 0.00492567 -0.00124553
369 1 1.21088 2.66912 30.5358 -0.00419574 -0.000912771 -0.00456421
370 1 2.52259 0.866893 31.8013 0.0025464 -0.00534386 -0.00284438
371 1 20.1482 0.0409751 30.5498 0.00670147 -0.00370979 -0.00495168
372 1 1.26196 1.80504 31.8098 -0.0101998 0.0082654 -1.82807e-05
373 1 0.0267737 21.3923 33.0517 -0.0104307 -0.0018687 0.0122329
374 1 20.145 0.924785 31.7757 0.00677535 0.00139248 -0.00354663
375 1 1.33892 2.72347 33.0601 0.00101144 0.00426228 -0.00694726
376 1 0.00278089 0.901052 34.3361 -0.00425388 -0.00458271 0.00133016
377 1 19.0065 1.72035 16.5655 -0.00877149 0.00625467 -0.00835576
378 1 18.9382 2.66665 17.8395 -0.00308876 -0.000713414 0.000965444
379 1 17.7254 0.00499001 17.8162 -0.00438011 0.00350006 0.00101092
380 1 18.9421 1.76653 19.1234 0.00266344 0.00287659 0.000452497
381 1 16.3972 1.7884 19.1144 -0.00279325 -0.000387213 -0.00203432
382 1 17.7038 0.0202533 20.3539 -0.00703622 -0.00432013 -0.00955413
383 1 17.6756 0.882452 19.083 -0.00654355 0.00698415 -0.00240093
384 1 18.9897 2.69069 20.4001 -0.00844381 -0.000791634 -7.44921e-05
385 1 16.4388 2.67863 20.3786 -0.0023816 -0.00577537 -0.000866481
386 1 17.6766 0.903308 21.6479 0.00315686 0.00378595 -0.00853614
387 1 15.1885 21.3901 20.4061 0.00611294 0.00457045 -0.00128232
388 1 16.4267 1.77784 21.6354 -0.000891759 0.00125756 -0.00321893
389 1 13.9094 1.79435 21.665 0.000208539 -0.00255801 0.0056791
390 1 15.1213 0.0460618 22.897 -0.00953468 0.00338532 0.00244121
391 1 15.1773 0.924029 21.5729 0.00187785 0.000720841 0.00213868
392 1 16.4262 2.7213 22.8695 0.00167372 0.001437 0.00722307
393 1 13.8588 2.71358 22.9239 -0.00126155 0.00394354 -0.00129027
394 1 15.1783 0.909826 24.1688 -0.00392587 -0.0111361 -0.00924774
395 1 12.6251 0.00799509 22.8971 -0.00753663 -0.00427828 -0.00172606
396 1 13.8657 1.81849 24.1526 -0.00436246 0.0054401 0.000746369
397 1 11.3919 1.75853 24.2029 0.000384227 0.00461095 0.00515294
398 1 12.6347 0.0129183 25.4216 0.0043931 0.000864907 0.00560294
399 1 12.6024 0.880574 24.1802 -0.0020874 0.00857503 0.00143883
400 1 13.9288 2.67069 25.4221 0.00652958 0.00420201 0.00191801
401 1 11.3643 2.69774 25.4413 0.00431855 -0.00960915 -0.00500066
402 1 12.6446 0.90552 26.7069 -0.000125182 -0.000696515 0.00161263
403 1 10.1766 0.00923335 25.4519 0.00475063 0.00402144 3.71067e-05
404 1 11.3603 1.8111 26.7118 0.000288663 0.00255177 -0.00502808
405 1 8.85725 1.83903 26.6986 0.0083929 -0.00391342 -0.00340045
406 1 10.0613 0.00722159 27.9502 -7.27936e-05 0.00167564 0.00283114
407 1 10.1157 0.900214 26.6934 -0.0100777 0.00328061 -0.00717916
408 1 11.353 2.68094 27.9873 0.00623232 -0.00444109 0.00177524
409 1 8.85354 2.72171 27.9845 -0.00125471 -0.00093886 -0.000657672
410 1 10.0749 0.933594 29.2368 0.00551558 0.000649963 -0.00761835
411 1 7.54003 0.0645887 27.9504 -0.00328155 0.00118447 -0.00290597
412 1 8.81065 1.79945 29.2729 0.000437492 -0.00529971 -0.0180169
413 1 6.25684 1.80376 29.3054 -0.00162805 -0.00403856 0.00149284
414 1 7.55874 0.00176638 30.5376 -0.00408189 -0.00300691 -0.00429943
415 1 7.53764 0.910918 29.2276 0.00593236 0.00308941 0.00210912
416 1 8.7648 2.65355 30.5543 0.00100393 0.00316307 -0.00443543
417 1 6.31272 2.71584 30.5384 -0.00269782 0.00025776 0.00598994
418 1 7.52193 0.891266 31.7976 -0.00507609 -0.00449483 -0.0037721
419 1 5.03255 0.0134955 30.5103 0.00176677 0.00231371 -0.0069795
420 1 6.32912 1.8071 31.7983 0.00858578 -0.00839067 -0.00720031
421 1 3.79388 1.77055 31.7895 -0.00326748 0.00226731 -0.00398298
422 1 5.01375 21.3765 33.0874 -0.00395942 -0.00156276 -0.00565886
423 1 5.01614 0.912439 31.7882 -0.00172815 -0.00439925 0.0014527
424 1 6.35757 2.76518 33.0328 0.0020399 0.000729393 -0.00418551
425 1 3.78648 2.72837 33.0742 -0.0027258 -0.000989074 0.00245443
426 1 5.02687 0.950132 34.294 0.00763849 -0.00777881 -0.00793703
427 1 2.47951 21.3718 33.0345 -0.00218046 -0.0031908 -0.000454338
428 1 3.74595 1.83891 34.3344 0.00157462 0.00182953 -0.00699756
429 1 1.27767 1.76871 34.3493 -0.00403614 0.00388212 -0.00329444
430 1 2.52922 0.0119473 35.6117 0.00166748 0.00429678 0.00193007
431 1 2.52324 0.871275 34.3182 0.00544574 -0.00559251 -0.0144106
432 1 3.75641 2.73645 35.561 0.00426975 0.00732219 -0.00403721
433 1 1.27328 2.68386 35.5941 -0.0133211 -0.000606626 -0.00412653
434 1 2.49266 0.881262 36.94 0.0041301 -0.00271169 -0.00327164
435 1 20.1176 0.0347762 35.5878 -0.00269458 -0.00172705 -0.00497645
436 1 1.23714 1.78484 36.9267 0.000521268 0.00376939 0.000341048
437 1 20.1299 21.2857 38.0867 0.00369745 0.000662531 -0.00117921
438 1 20.1262 0.929361 36.9099 0.00310852 -0.00252172 -0.00302999
439 1 1.2384 2.76894 38.0022 -0.000617704 -0.00324681 -0.00465442
440 1 18.9251 1.78199 21.6577 -0.00489881 0.00313577 0.00599329
441 1 18.9774 2.70083 22.9221 -0.00651032 0.00443487 -0.00289088
442 1 17.6825 0.0267878 22.9537 -0.00280701 -0.0047615 0.00131338
443 1 18.9697 1.8081 24.1657 -0.00524311 -0.00411671 0.00686735
444 1 16.4217 1.80418 24.1838 -0.00306288 0.0033807 -0.0021624
445 1 17.6618 0.00994347 25.4433 0.00339483 -0.00306352 -0.00484246
446 1 17.6664 0.945173 24.1856 -0.00212011 0.000102102 0.00110587
447 1 18.9325 2.70975 25.4387 0.00288026 0.00346749 0.00580379
448 1 16.4329 2.66398 25.4497 -0.00588728 -0.00725473 0.00707407
449 1 17.6337 0.902625 26.7367 0.00637043 -0.0077053 -0.00615875
450 1 15.2019 0.0371421 25.4751 -0.000579834 0.00916294 0.000314107
451 1 16.4343 1.81021 26.7058 -0.00722919 0.00732863 -0.00290895
452 1 13.919 1.81919 26.7178 0.0026713 -0.00495795 0.00598397
453 1 15.2118 0.0238792 27.9658 -0.00763139 0.00405889 -0.00525846
454 1 15.1739 0.871819 26.7292 0.00133997 0.000262489 -0.00442314
455 1 16.4251 2.67819 27.9746 0.000308893 -0.000118891 0.00258179
456 1 13.8963 2.63888 27.9508 -8.33397e-05 0.00401801 -0.00340378
457 1 15.1518 0.863055 29.245 -0.00412045 -0.00279177 0.00150563
458 1 12.5817 0.0493014 28.0221 -0.00276435 0.00538565 0.0041412
459 1 13.9091 1.82762 29.26 -0.00710992 -0.0037949 -0.00629851
460 1 11.3729 1.7758 29.2439 -0.00328286 -0.00728942 0.00683051
461 1 12.589 0.0150819 30.5251 -0.00190497 0.000222931 -0.00136118
462 1 12.6093 0.951518 29.2858 0.00120161 -0.000477161 -0.00261887
463 1 13.9054 2.66027 30.5118 0.0016364 0.00153837 -0.000112732
464 1 11.3463 2.73236 30.5156 -0.00276868 0.00628665 0.00508932
465 1 12.5668 0.888667 31.7712 -0.00975513 -0.00292775 -0.00865205
466 1 10.0676 21.367 30.5093 0.00655268 0.00594362 0.000659718
467 1 11.3407 1.80454 31.7975 -6.5635e-05 -0.00265727 0.00417637
468 1 8.80289 1.72243 31.8121 0.000683899 0.0016606 0.00533504
469 1 10.0483 21.3766 33.0492 0.0032093 -0.00236247 -0.00240003
470 1 10.1045 0.876359 31.7759 -0.00343007 -0.00154964 -0.00630925
471 1 11.4035 2.71464 33.0104 0.00228897 -0.00402122 0.00153779
472 1 8.88066 2.64414 33.0419 0.00779153 0.00312622 -0.00847386
473 1 10.0746 0.945422 34.2923 -0.0044253 0.00138109 -0.004907
474 1 7.51944 21.3708 33.0766 -0.00542946 4.6598e-05 0.00192639
475 1 8.75377 1.80121 34.3412 -0.0018522 0.00659624 3.64849e-05
476 1 6.31469 1.80383 34.3043 0.00201318 0.00188278 -0.00303085
477 1 7.59815 0.0150039 35.5791 -0.0107854 -0.00691081 -0.00674388
478 1 7.52745 0.888887 34.3595 0.00250927 -0.0024951 0.003917
479 1 8.83246 2.69547 35.592 0.00218478 -0.0029887 -0.00826851
480 1 6.34274 2.66373 35.5902 -0.00367935 -0.00519277 -0.00400967
481 1 7.60299 0.947263 36.9205 -0.00403654 -0.00371448 0.00145426
482 1 5.05446 0.0573172 35.6192 0.00639489 0.00915317 0.00123305
483 1 6.31922 1.80519 36.9208 0.000533213 -0.00358424 -0.00509397
484 1 3.80696 1.7957 36.9141 -0.00252098 0.00745338 0.000393206
485 1 5.02982 21.2913 38.0292 0.00536354 0.0104167 0.00171034
486 1 5.06565 0.939334 36.9233 0.00261336 0.00589125 -0.0018512
487 1 6.30343 2.86779 38.038 0.00378111 0.00971459 -0.0041421
488 1 3.79205 2.78122 38.0365 -0.00406536 -0.0027083 0.00625147
489 1 2.5115 21.2776 38.1191 0.00515212 0.000475529 0.00480251
490 1 18.8836 1.83382 26.7237 -0.00366588 0.000810502 0.000352328
491 1 18.9119 2.71432 27.9599 -0.00921326 -0.00820259 -0.00153779
492 1 17.6268 0.0367505 28.0367 0.00926276 0.00699143 -0.00333718
493 1 18.9116 1.87337 29.2253 0.00613895 0.00461999 0.00226712
494 1 16.3577 1.83598 29.2571 -0.00631677 0.00173247 -0.00261249
495 1 17.6425 0.0231776 30.4826 -0.00271796 -0.00643574 -0.00235609
496 1 17.6076 0.971956 29.2235 0.00412086 -0.000185935 -0.00113759
497 1 18.8904 2.71262 30.5063 0.000358081 0.00131519 -0.00673812
498 1 16.4024 2.65788 30.5054 -0.00334769 0.00282339 0.00356705
499 1 17.6503 0.897889 31.7821 0.00128469 0.00068393 -0.00313306
500 1 15.1313 21.3834 30.5684 -0.00423987 -0.00250417 -0.00560298
501 1 16.4054 1.78251 31.752 0.0054761 -0.00610906 0.00765087
502 1 13.897 1.80492 31.7742 -0.0100572 -0.00427067 -0.000636374
503 1 15.1385 21.3632 33.0314 -0.0019045 0.00516306 -0.00680805
504 1 15.1505 0.861267 31.7561 -0.00729882 -0.000225414 -0.00982646
505 1 16.3653 2.62474 33.0468 -0.0004215 -0.00572314 0.00179974
506 1 13.8101 2.67901 33.0496 -0.00248709 0.0026805 0.00282021
507 1 15.0918 0.816888 34.2737 -0.00458269 0.000222894 -0.000733894
508 1 12.5941 21.3814 33.0194 0.00640283 -0.0019558 -0.00050494
509 1 13.8469 1.77134 34.3321 0.00748452 0.00122644 0.00141479
510 1 11.3424 1.7898 34.2644 0.00833387 -0.00504464 -0.0040168
511 1 12.5514 21.3712 35.5746 0.00223125 -0.00712208 -0.00276901
512 1 12.581 0.898965 34.324 -0.000441739 0.00137633 0.000864589
513 1 13.8879 2.68504 35.5333 0.00283081 -0.00304075 -0.00822408
514 1 11.3373 2.69807 35.5893 -0.00618277 0.000563922 -0.000467104
515 1 12.5831 0.885286 36.8429 -0.00132652 -0.00592476 0.00429
516 1 10.0784 21.3913 35.5834 0.00218452 0.00669584 -0.005298
517 1 11.3373 1.7678 36.872 -0.00188151 -0.00443918 0.00366741
518 1 8.80456 1.80835 36.9049 -0.0013311 -0.00526306 0.000273136
519 1 10.0965 21.3283 38.0133 -0.0027222 -0.00479788 -0.00321346
520 1 10.0664 0.909922 36.8663 0.00274114 0.00178648 -0.00370565
521 1 11.2907 2.74615 38.0054 -0.00361823 -0.00156236 -0.00509205
522 1 8.76599 2.87947 38.0007 0.00637141 0.00156112 0.00370366
523 1 7.55268 21.2489 38.0237 0.00441052 0.00949861 -0.00443194
524 1 18.8558 1.78644 31.7343 0.000854243 0.00331648 -0.00556929
525 1 18.9232 2.6644 33.0221 0.000505127 0.00237451 -0.00257974
526 1 17.6731 0.0121961 33.0624 0.0012711 0.00135719 -0.00586976
527 1 18.9366 1.81226 34.2865 0.00341743 0.00217367 -0.00640959
528 1 16.3648 1.70754 34.3235 -0.00581051 -0.00841975 -0.00515361
529 1 17.6478 21.3857 35.6084 0.00409716 -0.00190495 -0.00195538
530 1 17.6542 0.855389 34.3119 -0.00196038 -0.00445848 0.000942651
531 1 18.9317 2.67552 35.5836 -0.000849187 -0.0121687 -0.000287233
532 1 16.393 2.65918 35.5368 0.00876564 -0.00208881 -0.00968564
533 1 17.6038 0.854816 36.8384 -0.00447903 -0.00101303 -0.000753684
534 1 15.0976 21.3657 35.5952 0.00165534 -0.000842133 -0.00469668
535 1 16.3692 1.76692 36.8458 -0.00594751 -0.00016616 -0.000728317
536 1 13.8532 1.77174 36.827 -0.00315845 0.00597847 0.00582356
537 1 15.1116 21.3022 38.0413 0.00558353 -0.00554461 -0.00373079
538 1 15.1267 0.935011 36.8241 0.000650748 0.00214246 -0.00580779
539 1 16.4093 2.74942 38.0517 -0.00430263 -0.00207416 -0.00949423
540 1 13.8593 2.73986 37.9956 -0.0063448 0.00577155 -0.00595734
541 1 12.6197 21.3341 37.9611 -0.0065265 0.00407606 -0.00732395
542 1 18.9039 1.76394 36.9174 0.00250798 -0.0136065 -0.00594015
543 1 18.865 2.77156 37.9825 -0.00203188 0.00506964 -0.00345083
544 1 17.5947 21.2813 38.0593 -0.000241197 0.00337408 -0.00345903
545 1 2.52111 4.45673 -3.78166 0 0 0
546 1 1.26055 5.34808 -3.78166 0 0 0
547 1 0 3.56539 -2.52111 0 0 0
548 1 0 4.45673 -3.78166 0 0 0
549 1 1.26055 6.23943 -2.52111 0 0 0
550 1 0 4.45673 -1.26055 0 0 0
551 1 7.56333 4.45673 -3.78166 0 0 0
552 1 6.30277 5.34808 -3.78166 0 0 0
553 1 3.78166 5.34808 -3.78166 0 0 0
554 1 5.04222 3.56539 -2.52111 0 0 0
555 1 5.04222 4.45673 -3.78166 0 0 0
556 1 6.30277 6.23943 -2.52111 0 0 0
557 1 3.78166 6.23943 -2.52111 0 0 0
558 1 5.04222 4.45673 -1.26055 0 0 0
559 1 2.52111 3.56539 -2.52111 0 0 0
560 1 3.78166 5.34808 -1.26055 0 0 0
561 1 1.26055 5.34808 -1.26055 0 0 0
562 1 2.53725 3.61366 0.0370328 -0.00689064 -0.000341808 -0.000829038
563 1 2.52111 4.45673 -1.26055 0 0 0
564 1 3.75404 6.26685 -0.0441955 -0.00485693 -0.000741872 -0.000713505
565 1 1.26885 6.23581 -0.0331524 0.00418542 0.00920064 0.00337317
566 1 2.52973 4.43806 1.28578 -0.00182952 -0.00587159 -0.00633985
567 1 20.1502 3.59192 0.0284241 -0.0039731 -0.00667366 0.0022084
568 1 1.23826 5.31497 1.32638 0.00177994 -0.000337863 -0.00525833
569 1 0.0149403 3.52043 2.63139 0.000438836 -0.00807554 0.0100109
570 1 20.1437 4.46869 1.33617 -0.000159019 0.00259736 0.000936044
571 1 1.22768 6.18746 2.58151 0.000144986 -0.00442588 -0.00353492
572 1 20.1211 4.45714 3.87628 -0.00344957 0.000120055 0.00361899
573 1 12.6055 4.45673 -3.78166 0 0 0
574 1 11.345 5.34808 -3.78166 0 0 0
575 1 8.82388 5.34808 -3.78166 0 0 0
576 1 10.0844 3.56539 -2.52111 0 0 0
577 1 10.0844 4.45673 -3.78166 0 0 0
578 1 11.345 6.23943 -2.52111 0 0 0
579 1 8.82388 6.23943 -2.52111 0 0 0
580 1 10.0844 4.45673 -1.26055 0 0 0
581 1 7.56333 3.56539 -2.52111 0 0 0
582 1 8.82388 5.34808 -1.26055 0 0 0
583 1 6.30277 5.34808 -1.26055 0 0 0
584 1 7.55683 3.57064 0.0181552 0.00863176 0.00258065 0.00375613
585 1 7.56333 4.45673 -1.26055 0 0 0
586 1 8.84147 6.20935 0.0131247 -0.00326738 0.000789336 0.00433029
587 1 6.29278 6.30552 0.0159277 0.0045165 0.000692032 0.0061854
588 1 7.5256 4.48199 1.27802 0.00348411 -0.00924795 -0.00382171
589 1 5.06196 3.59486 0.0461716 0.00468612 0.00145473 0.000253924
590 1 6.28711 5.38989 1.25186 -0.00684361 0.00405365 -0.00158738
591 1 3.77768 5.35862 1.28691 -0.00386661 -0.00540947 0.00202188
592 1 5.00175 3.6276 2.53816 -0.00330961 -0.00580414 -0.000113055
593 1 5.07978 4.47982 1.29044 0.00583582 0.00281952 0.0011781
594 1 6.3507 6.22639 2.53523 0.000196999 0.000976092 0.00262659
595 1 3.76424 6.22955 2.53511 0.000635077 0.00181807 0.00321337
596 1 5.00207 4.49663 3.81054 0.00795078 0.00572034 -0.00780844
597 1 2.54274 3.56893 2.52533 0.00801813 0.00201953 0.00579244
598 1 3.71683 5.4001 3.84237 0.00512508 0.0011644 0.000143207
599 1 1.18619 5.4152 3.8654 0.000831758 -0.00624786 0.00144669
600 1 2.47961 3.65568 5.13986 -0.00181297 -0.00195028 0.00255357
601 1 2.45818 4.53201 3.81822 -0.00141698 0.00411055 0.00159109
602 1 3.77046 6.28477 5.08444 -0.00516877 0.000122171 0.000412617
603 1 1.22877 6.27103 5.13657 -0.00115807 -0.00276833 -0.000841319
604 1 2.56235 4.51411 6.41781 -0.00141779 0.000860182 -0.00177522
605 1 20.0896 3.58987 5.15592 -0.00577554 0.00143716 -0.00167885
606 1 1.22155 5.39149 6.38405 -0.0131016 -0.00145723 -0.00229026
607 1 0.00199821 3.53476 7.65954 -0.00612202 0.000330766 -0.00207976
608 1 20.1132 4.46303 6.38081 -0.00382662 0.00353001 0.00395003
609 1 1.29822 6.23701 7.65 0.00054586 -0.00470822 0.00381199
610 1 0.0291946 4.43101 8.91239 0.0031419 0.00755577 -0.00235835
611 1 17.6478 4.45673 -3.78166 0 0 0
612 1 16.3872 5.34808 -3.78166 0 0 0
613 1 13.8661 5.34808 -3.78166 0 0 0
614 1 15.1267 3.56539 -2.52111 0 0 0
615 1 15.1267 4.45673 -3.78166 0 0 0
616 1 16.3872 6.23943 -2.52111 0 0 0
617 1 13.8661 6.23943 -2.52111 0 0 0
618 1 15.1267 4.45673 -1.26055 0 0 0
619 1 12.6055 3.56539 -2.52111 0 0 0
620 1 13.8661 5.34808 -1.26055 0 0 0
621 1 11.345 5.34808 -1.26055 0 0 0
622 1 12.6036 3.57374 0.010737 0.00667182 -0.0041737 -0.00794731
623 1 12.6055 4.45673 -1.26055 0 0 0
624 1 13.8807 6.24613 0.0516096 0.0103724 0.0024228 -0.00105998
625 1 11.3912 6.24284 0.042116 0.0106536 0.000879399 -0.010427
626 1 12.5833 4.40579 1.32674 0.000223636 0.00244059 -0.00154072
627 1 10.0247 3.613 0.00204951 0.00142372 0.00151287 -0.000232256
628 1 11.3161 5.34389 1.28634 -0.00589995 0.00623671 -0.00165416
629 1 8.80951 5.35985 1.32285 -0.00397043 -0.00108076 0.0015209
630 1 10.0231 3.51632 2.5198 0.00628067 -0.000766484 0.00257674
631 1 10.0451 4.44796 1.28084 0.00440352 0.00476937 -0.000441104
632 1 11.3528 6.18326 2.62394 0.00197069 -0.00667006 -0.000720964
633 1 8.81709 6.23725 2.59242 0.00264056 0.00190595 -0.00484609
634 1 10.0609 4.45343 3.8227 -0.00773 -0.0100231 0.00313535
635 1 7.51333 3.56855 2.55417 -0.00313458 -0.00141831 -0.00226538
636 1 8.84175 5.34976 3.84661 -0.00554423 0.0058534 0.0102258
637 1 6.304 5.39504 3.77527 -0.00660893 0.000872526 -0.00430958
638 1 7.50331 3.56558 5.09466 -0.00217881 -0.00158053 0.000623684
639 1 7.56739 4.47299 3.82336 -0.00281695 -0.000853231 -0.00246614
640 1 8.82397 6.22014 5.11123 -0.00268279 0.00256298 -0.00869374
641 1 6.33085 6.23469 5.08373 0.000477118 -0.000151469 -0.00310773
642 1 7.55459 4.44156 6.38406 0.00180607 0.00499914 -0.00147156
643 1 5.00082 3.60387 5.04073 -0.00336844 0.000841345 -0.00179804
644 1 6.31209 5.378 6.32086 -0.0103106 -0.00311202 0.00372499
645 1 3.82145 5.39052 6.38597 0.00109443 -0.000875258 -0.00933579
646 1 5.04816 3.57274 7.64001 0.00362932 0.00105439 0.00159159
647 1 5.05168 4.49076 6.36666 -0.00661783 -0.00724711 -0.000914244
648 1 6.35211 6.25143 7.68099 -0.00123119 0.00568608 -0.000539724
649 1 3.82912 6.32061 7.58147 0.00274881 0.00171939 0.000781517
650 1 5.02411 4.49464 8.91636 0.00621753 -0.00471909 0.0112159
651 1 2.57335 3.61098 7.68966 -0.0036273 -0.0126401 -0.00360891
652 1 3.84223 5.41255 8.91242 -0.000281873 -0.000765618 0.00273065
653 1 1.31715 5.40555 8.93361 -0.00097795 0.00731251 -0.0053197
654 1 2.47235 3.55853 10.1823 -0.000906602 0.00111856 0.00149544
655 1 2.58659 4.49199 8.95467 0.00489252 0.000612483 -0.000385381
656 1 3.87503 6.19446 10.2328 0.00714242 0.00794751 -0.00176374
657 1 1.27095 6.23353 10.1582 0.00583795 0.00188519 0.000601856
658 1 2.50881 4.44802 11.4301 -0.00343676 -0.0034888 0.00400085
659 1 20.1602 3.59284 10.1996 -0.00375069 -0.0023004 -0.000727845
660 1 1.25329 5.32657 11.4567 -0.00322571 0.00172505 -0.00306147
661 1 20.1594 3.61088 12.6986 -0.00662241 0.00925904 -0.00314031
662 1 20.1521 4.47141 11.4704 -0.000373921 0.00261027 0.00574505
663 1 1.26358 6.2578 12.7362 0.00104141 -0.0028371 -0.00344936
664 1 0.0287064 4.40959 14.0341 0.000615762 -0.00483943 0.00353672
665 1 18.9083 5.34808 -3.78166 0 0 0
666 1 18.9083 6.23943 -2.52111 0 0 0
667 1 17.6478 3.56539 -2.52111 0 0 0
668 1 18.9083 5.34808 -1.26055 0 0 0
669 1 16.3872 5.34808 -1.26055 0 0 0
670 1 17.694 3.58537 -0.0164569 -0.000374858 0.00206319 -0.00399108
671 1 17.6478 4.45673 -1.26055 0 0 0
672 1 18.8902 6.21851 0.0616407 0.0046706 0.00810883 -0.00811968
673 1 16.3718 6.28964 -0.016631 -0.00284712 0.00238211 -0.00107818
674 1 17.6459 4.43618 1.30783 0.00561624 0.00271899 -0.00431839
675 1 15.1504 3.60774 0.0152067 -0.00023353 0.00397197 0.00438107
676 1 16.3479 5.36174 1.26801 0.00213808 -0.00304609 -0.00640859
677 1 13.8877 5.3272 1.27378 -0.00054904 0.0037884 0.00317292
678 1 15.0795 3.60138 2.535 -0.00562675 0.00337654 -0.00217205
679 1 15.0914 4.47928 1.26281 -0.0027424 -0.000690484 -0.00142566
680 1 16.3629 6.24437 2.48764 -0.000381187 -0.00874366 -0.00546551
681 1 13.871 6.26748 2.59886 -0.00421234 -0.00201564 -0.00493194
682 1 15.1383 4.44327 3.83082 0.00545031 -0.000854523 0.00021053
683 1 12.6227 3.59526 2.54943 0.00357341 0.00623291 -0.00485165
684 1 13.9124 5.35548 3.85645 -0.00155882 -0.00334333 -0.00559092
685 1 11.3164 5.29809 3.84027 -0.00263415 -0.00233836 0.0017502
686 1 12.6195 3.57156 5.1454 0.00320962 -0.00635556 -0.0084453
687 1 12.6359 4.43531 3.84477 0.00355928 -0.00264142 -0.0054348
688 1 13.8294 6.23348 5.18738 0.00267198 0.00211188 0.00232833
689 1 11.3633 6.23727 5.12353 0.00129691 0.00163028 0.00246749
690 1 12.6155 4.41405 6.41452 0.000283152 0.00273717 0.00548716
691 1 9.99484 3.57207 5.13141 0.00158422 -0.00103193 0.00527172
692 1 11.3751 5.29285 6.38337 0.00230077 0.00185442 0.00314809
693 1 8.82332 5.38405 6.40157 -0.00846658 -0.000696224 0.0036065
694 1 10.0607 3.50752 7.65487 0.00387092 -0.00582503 -0.00474452
695 1 10.0437 4.40013 6.43298 0.00028906 0.00926503 0.00043686
696 1 11.3878 6.20271 7.67252 0.000624883 0.00683528 0.00416806
697 1 8.84383 6.2764 7.66313 -0.00200758 -0.00179001 -0.00954723
698 1 10.0389 4.41845 8.92486 -0.00204133 0.00837501 0.00352524
699 1 7.52571 3.57455 7.61989 -0.00561857 -0.00320873 0.00317042
700 1 8.81039 5.32276 8.93077 0.0036861 -0.000415159 0.00127912
701 1 6.30915 5.33795 8.90671 -0.000177975 -0.0106386 0.00605094
702 1 7.54283 3.5635 10.2058 -0.00397835 -0.00253885 1.52273e-05
703 1 7.53441 4.45418 8.95258 -0.00653348 0.00961774 0.00244336
704 1 8.84466 6.21288 10.1577 -0.00174896 0.00179662 0.000107708
705 1 6.35736 6.25081 10.1845 -0.00119695 -0.000349927 -0.00456212
706 1 7.55515 4.49621 11.4916 0.00832942 0.000706243 -0.00249152
707 1 5.06796 3.57965 10.2081 -0.00562817 -0.00354997 0.00455875
708 1 6.26863 5.36108 11.4817 -0.00215308 -0.00123811 0.00406891
709 1 3.77187 5.32089 11.4262 -0.0019426 0.00447012 -0.00534221
710 1 5.02976 3.5977 12.7125 0.00485148 -0.00850179 -0.00336652
711 1 5.04682 4.44409 11.4665 0.0022495 0.000461231 0.00512049
712 1 6.34607 6.28195 12.7387 0.00796866 0.0081818 -0.000561351
713 1 3.79497 6.26134 12.7349 0.00428203 0.000820808 0.000204542
714 1 5.09706 4.50653 14.036 -0.00894661 0.00188415 -0.000355255
715 1 2.53919 3.63522 12.7139 0.00223966 -0.00221587 0.00121098
716 1 3.83188 5.37894 14.024 -0.00387808 -0.00179885 -0.00153145
717 1 1.31212 5.38163 14.0631 0.00096822 0.00113922 -7.58079e-05
718 1 2.56599 3.58319 15.2754 -0.00245836 -0.00181848 0.00385076
719 1 2.50532 4.52275 13.9931 0.00317497 0.00586217 -0.000106229
720 1 3.85204 6.25205 15.2546 -0.00270275 1.77611e-05 0.00304924
721 1 1.33094 6.25572 15.2976 0.0166359 2.21029e-05 -0.00115388
722 1 2.61254 4.4893 16.6084 -0.000664868 -0.00606969 -0.00331907
723 1 0.052993 3.52712 15.2537 -0.00251974 -0.00222306 -0.00303913
724 1 1.34605 5.37742 16.5641 -0.00191951 -0.00223268 -0.00182502
725 1 0.0453983 3.56273 17.8383 -0.00306884 -0.00304895 -0.00101399
726 1 0.0918651 4.45316 16.5569 -0.00655334 0.00644371 -0.000729238
727 1 1.3423 6.29758 17.8411 -0.000501206 -0.00289094 -0.00730035
728 1 20.166 4.49071 19.1268 8.73811e-05 5.32177e-05 0.00534086
729 1 18.8751 5.32783 1.27852 -0.000681977 0.00296666 0.000663353
730 1 18.8867 6.24814 2.5841 0.00277451 0.00291399 0.00172783
731 1 17.6647 3.58134 2.55023 -0.0039804 -0.00287548 0.00480336
732 1 18.8575 5.34512 3.89618 0.00331529 0.0047233 -0.00107658
733 1 16.3481 5.31355 3.81538 -0.00531363 -0.00279894 -0.00392406
734 1 17.5939 3.56546 5.11852 -0.00687571 -0.00363557 -0.00875831
735 1 17.6142 4.47389 3.8723 -0.0018757 -0.00139441 0.00159868
736 1 18.8942 6.2339 5.07902 -0.00105578 0.00384084 0.00416697
737 1 16.3498 6.22477 5.11989 -5.31258e-06 0.00867827 0.00377336
738 1 17.6096 4.44797 6.36638 -0.00697983 0.00184043 -0.00377408
739 1 15.1216 3.54293 5.14071 0.00501143 -0.0018922 -0.0066084
740 1 16.3622 5.33563 6.37333 -0.00648565 0.00680411 0.00455038
741 1 13.8533 5.33434 6.41416 0.00242948 0.00451099 -0.00667774
742 1 15.1588 3.50094 7.68353 0.00174967 0.00235563 -0.0038079
743 1 15.0966 4.39308 6.3433 0.00306466 -0.00379464 -0.00484165
744 1 16.4 6.2701 7.65569 -0.000972207 0.00271662 0.00343436
745 1 13.9193 6.21071 7.71635 0.00105887 -0.00195282 -0.00125144
746 1 15.1395 4.4137 8.88996 -0.00736871 -0.00429361 -0.00650436
747 1 12.6442 3.47919 7.66118 0.00168401 -0.00338871 -0.000574312
748 1 13.8901 5.28121 8.9253 -0.00225758 -0.0048562 -0.00122798
749 1 11.3949 5.29732 8.91031 -0.0013912 0.00477056 0.00288899
750 1 12.5799 3.52276 10.1986 -0.00543147 -0.00184697 -0.000329966
751 1 12.6279 4.39825 8.94268 -0.0029673 0.00285955 -0.00352272
752 1 13.8822 6.2107 10.1644 0.0023468 -0.0067468 -0.00143197
753 1 11.3671 6.2436 10.1281 -0.00452028 -0.00522736 0.000342311
754 1 12.577 4.44049 11.4463 -6.43164e-06 -0.00610065 0.00102797
755 1 10.0801 3.53575 10.2052 -0.00697836 0.00729998 -0.000481073
756 1 11.3264 5.37333 11.4687 -0.000787874 -0.000745036 -0.00513595
757 1 8.82733 5.39924 11.4407 -0.0039137 0.00471768 -0.00224417
758 1 10.044 3.52764 12.7755 0.00246409 -0.00239975 -0.00519976
759 1 10.0934 4.44851 11.4398 0.00263865 -0.00965252 -0.00437706
760 1 11.3935 6.19522 12.7065 0.00215865 0.0013681 -0.00247657
761 1 8.83018 6.25393 12.7691 0.00127192 -0.00594322 -0.00234715
762 1 10.0595 4.44097 14.0607 0.00688679 -0.00797263 0.000866996
763 1 7.51994 3.58894 12.7099 -0.00278097 -0.00420928 0.00249335
764 1 8.83213 5.35738 14.0445 -0.0037361 -0.00234676 0.00589429
765 1 6.34846 5.33982 13.9504 -0.00740073 -0.00182742 0.00224686
766 1 7.55682 3.61806 15.2612 0.000595564 0.00132462 -0.00324746
767 1 7.609 4.43823 13.9824 -0.00143049 -0.00352544 -0.000968676
768 1 8.89145 6.24957 15.2932 0.00578119 0.00613323 -0.00240539
769 1 6.34296 6.25778 15.2401 -0.00516907 -0.00424505 0.0034522
770 1 7.626 4.46791 16.5204 0.0026966 -0.00371645 -0.00344651
771 1 5.05409 3.5763 15.3041 -0.00676614 0.00370662 0.00188258
772 1 6.37739 5.38277 16.5469 0.00316163 0.000431099 0.00271119
773 1 3.87662 5.35868 16.558 -0.00155432 0.0027826 -0.00105966
774 1 5.05698 3.63127 17.8775 0.00187006 -0.00229117 -0.00242086
775 1 5.17069 4.47582 16.6011 0.00293571 -0.00876025 0.00848641
776 1 6.39775 6.26342 17.8291 -0.00276999 -0.000676579 0.00571198
777 1 3.88936 6.24505 17.8375 0.00693961 -0.00453188 0.00122008
778 1 5.09703 4.46789 19.1122 0.0115162 0.00283986 0.00291512
779 1 2.59411 3.60726 17.8722 0.00335382 -0.00123746 0.00391085
780 1 3.87194 5.37138 19.1353 -0.00169568 -0.00569025 -0.000994117
781 1 1.32034 5.36953 19.1315 0.00946344 -0.00255131 0.00757561
782 1 2.5637 3.51966 20.3708 0.000175727 -0.0048478 -0.00410525
783 1 2.58438 4.47224 19.1306 0.00173996 0.00425795 0.00577858
784 1 3.79589 6.21594 20.415 -0.00819206 -0.00275274 -0.000771881
785 1 1.28211 6.22985 20.4154 0.00387465 0.00376799 -0.000161779
786 1 2.5201 4.46203 21.6784 -0.00915633 -0.00220498 0.00625149
787 1 0.0598444 3.6277 20.3642 0.00167752 -0.0154219 0.00690006
788 1 1.26217 5.37348 21.6765 -0.00175343 0.00103322 -0.00164249
789 1 0.0343181 3.59858 22.9304 -0.00422556 -0.0013738 -1.79131e-05
790 1 0.0232339 4.47426 21.6761 -0.000141515 -0.00424611 -0.00725773
791 1 1.26779 6.21986 22.9527 -0.00395837 0.00278511 -0.00628822
792 1 20.1574 4.4904 24.1809 -0.00455296 -0.00435662 0.000928616
793 1 18.8396 5.41011 6.36935 -0.00235529 0.00371172 -0.00498002
794 1 18.926 6.29871 7.67582 0.00605841 0.00689784 0.00189798
795 1 17.6666 3.51201 7.66557 0.00359971 0.000643668 -0.00364497
796 1 18.9389 5.3448 8.88846 0.00213712 -0.00643714 0.00759421
797 1 16.3732 5.3237 8.84383 -0.000888866 0.0113113 -0.00345865
798 1 17.6778 3.56198 10.1297 -0.00255375 -0.000288844 0.000308461
799 1 17.6314 4.40791 8.85697 0.0060355 0.00311024 0.0063527
800 1 18.9146 6.20682 10.1715 -0.00363002 -0.00251658 -0.00149703
801 1 16.4041 6.25678 10.2207 -0.00627779 -0.00516516 0.0053179
802 1 17.6564 4.48175 11.4474 -0.00721698 0.00173892 0.00160587
803 1 15.0869 3.58139 10.1961 0.0025737 0.000455886 -0.00267823
804 1 16.4294 5.32703 11.4635 0.00154294 -0.00377376 -0.000878565
805 1 13.843 5.2898 11.4336 -0.00445448 -0.00394 -0.000651677
806 1 15.1347 3.50118 12.7551 -0.00869558 -0.00435349 0.00245378
807 1 15.1066 4.4268 11.4832 0.00545792 0.0040048 0.00371656
808 1 16.4682 6.21179 12.7336 -0.00040046 -0.00558293 0.00123881
809 1 13.9252 6.19075 12.6951 -0.00314322 0.000232463 0.002834
810 1 15.0789 4.39275 14.04 0.00410186 -0.00195596 -0.00266079
811 1 12.5196 3.56559 12.7272 0.0016324 0.00209031 0.00573242
812 1 13.8745 5.3211 14.0068 -0.00285443 0.000784219 0.0064639
813 1 11.3843 5.3316 13.9975 -0.000336167 -0.00493422 0.00202687
814 1 12.6192 3.56448 15.291 -0.0131724 -0.000503426 0.00798593
815 1 12.6032 4.43715 13.9751 -0.00480869 0.00524882 0.00389117
816 1 13.8769 6.26938 15.2775 0.00723319 0.00214243 -0.000219054
817 1 11.3807 6.24782 15.2564 -0.00101589 -0.00123248 0.00369927
818 1 12.67 4.45519 16.5444 -0.00227925 -0.00267382 -0.000856972
819 1 10.0663 3.6145 15.3558 7.05963e-05 0.00514345 -0.00168201
820 1 11.3912 5.32618 16.5047 0.00437797 0.00115688 -0.00976955
821 1 8.88867 5.3375 16.5388 -0.00709643 -0.000664735 0.00262996
822 1 10.1202 3.50244 17.8306 -0.0023078 -0.000358504 0.00384898
823 1 10.1317 4.45598 16.6081 -0.00690523 -0.0103099 0.00535913
824 1 11.395 6.24156 17.8145 0.000716214 -0.00645584 0.000629028
825 1 8.88681 6.27506 17.8209 -0.00113157 0.00301684 -0.00456278
826 1 10.0704 4.41685 19.1142 0.00307661 0.00101837 -0.00321448
827 1 7.55199 3.62603 17.7978 0.00789583 0.00151664 -0.000251816
828 1 8.87487 5.33999 19.0608 -0.00232861 0.00165552 0.000442647
829 1 6.32288 5.3242 19.0828 0.00229856 -0.00389639 0.0040418
830 1 7.67047 3.61219 20.3708 0.000184317 0.000715377 0.0090058
831 1 7.59355 4.45405 19.1123 -0.000585654 0.00439217 -0.00265147
832 1 8.89911 6.20656 20.3501 0.00412359 -0.000559148 -0.00116059
833 1 6.30846 6.20618 20.3699 0.00808654 0.0035327 0.00217127
834 1 7.62002 4.42859 21.6466 -0.00343911 0.00254096 0.000491521
835 1 5.06056 3.54374 20.3925 0.00231998 0.000900583 -0.0027536
836 1 6.31588 5.34969 21.6455 -0.000327163 0.00780234 -0.00482215
837 1 3.79828 5.36848 21.6598 -0.00317871 0.00667497 0.0015862
838 1 5.04272 3.59019 22.8963 0.00557436 -0.00397764 -0.000549328
839 1 5.06036 4.43307 21.6207 0.00698709 -0.00795823 -0.00585142
840 1 6.32824 6.2623 22.8718 0.00894823 0.00220696 -0.00485594
841 1 3.81498 6.2702 22.937 0.00259917 -0.00753988 0.00574422
842 1 5.01322 4.44925 24.192 -0.000434944 0.00402467 -0.0042714
843 1 2.56328 3.6095 22.9108 -0.00783043 -0.000488857 -0.00981325
844 1 3.81399 5.35701 24.1836 -0.00277867 -0.00882239 0.00032428
845 1 1.27491 5.39467 24.1911 -0.0026087 0.00233555 0.00209201
846 1 2.54331 3.56553 25.4588 -0.00370664 0.00376021 0.00390934
847 1 2.56531 4.45879 24.2232 0.00635167 -0.00241514 -0.00369207
848 1 3.81046 6.3075 25.4367 0.00287112 0.0107088 -0.000785524
849 1 1.30238 6.26391 25.4231 -5.16686e-05 -0.00401606 -0.00095538
850 1 2.47051 4.48686 26.7538 0.00310293 -0.00684101 -0.00727874
851 1 0.0208065 3.60794 25.4422 -0.00357119 -0.0076055 -0.00864795
852 1 1.23492 5.38162 26.7102 -0.00448024 -0.00220541 -0.00625817
853 1 0.0326633 3.60033 27.946 -0.0086261 0.000717696 0.000171024
854 1 0.00726236 4.49175 26.7163 0.00502422 0.00475496 -0.00721437
855 1 1.20306 6.2531 28.0107 0.00185477 -0.0037496 -0.00157383
856 1 20.1159 4.52055 29.2745 0.0038872 0.000599696 0.000286795
857 1 18.9346 5.3638 11.4215 0.000560065 -0.00565881 -0.00457077
858 1 18.858 6.14578 12.6935 0.00491443 -0.00313813 0.00498316
859 1 17.672 3.58011 12.7716 -0.00631921 -0.00176258 0.00332411
860 1 18.9452 5.36744 13.9918 -0.00230661 -0.00689125 -0.00292513
861 1 16.4045 5.30526 14.0435 -0.00081054 -0.00182576 -0.000893415
862 1 17.6371 3.56204 15.3151 -0.00470091 -0.00259612 -0.000657997
863 1 17.649 4.46084 14.0369 -0.00111725 -0.00806963 0.000370555
864 1 18.9604 6.25373 15.2494 0.00632388 0.00476341 0.00156551
865 1 16.4248 6.2576 15.2911 0.00343956 -0.0066961 -0.00162088
866 1 17.7263 4.46086 16.5479 0.00679011 0.00358846 -0.000861436
867 1 15.1444 3.60813 15.3139 -0.00503646 0.00814351 0.00353273
868 1 16.4239 5.35545 16.5667 0.00384279 -0.00130067 -0.00233573
869 1 13.9202 5.37182 16.5456 0.00217648 0.00334033 0.00267026
870 1 15.1739 3.58124 17.8434 -0.000292225 0.00363493 -0.00401512
871 1 15.1577 4.50131 16.6193 0.00667749 -0.000380043 -0.0050104
872 1 16.4351 6.26441 17.8427 -0.00299265 -0.00121812 -0.00116488
873 1 13.9324 6.25956 17.8271 0.00207134 0.00650973 0.00290458
874 1 15.1588 4.47933 19.1273 0.00173628 -0.000878744 -0.00530518
875 1 12.6396 3.53252 17.7887 0.00205378 0.00143841 -0.000597279
876 1 13.8399 5.35223 19.0874 0.00216306 0.00276276 -0.00351245
877 1 11.3174 5.33857 19.0697 0.00212023 -0.00376451 -0.000444624
878 1 12.6551 3.57228 20.3131 -0.00109733 0.0122317 -0.00497687
879 1 12.6098 4.46555 19.0653 -0.00121821 0.00225137 0.000551791
880 1 13.8536 6.28406 20.2831 -0.00460721 -0.000686603 0.00188372
881 1 11.3717 6.2356 20.3246 -0.00388323 -0.00184054 -0.000335094
882 1 12.6504 4.46581 21.621 -0.00655276 -0.000392757 0.00283904
883 1 10.1246 3.59432 20.3857 -0.00521365 -4.12786e-05 -0.00291072
884 1 11.3869 5.32895 21.6103 -0.00795678 0.000118834 -0.00192943
885 1 8.86457 5.31688 21.6833 -0.000210316 -0.00277485 0.00851776
886 1 10.115 3.58667 22.9193 -0.00452351 0.00297784 0.00059104
887 1 10.1275 4.47819 21.685 -0.000517582 -0.00310375 -0.0014214
888 1 11.4122 6.26871 22.8648 -0.00168575 0.00200884 0.000187841
889 1 8.84015 6.22914 22.8937 0.00706762 -0.00369471 -0.00345688
890 1 10.0984 4.46948 24.2113 -0.00300292 -0.00594684 0.00320962
891 1 7.59311 3.55084 22.9024 -1.3341e-05 -0.00355688 -0.00105469
892 1 8.79001 5.38433 24.1727 0.00341869 -0.00963634 -0.00596732
893 1 6.25144 5.35007 24.2196 -0.00137608 0.00987366 -0.0013579
894 1 7.59667 3.57548 25.447 0.0124515 0.00055684 -0.00288427
895 1 7.5404 4.47082 24.1893 -0.00234573 -0.00051676 -0.00764195
896 1 8.76673 6.19558 25.4243 -0.00165051 0.000380328 -0.00136704
897 1 6.27996 6.2094 25.4668 0.00145131 0.00671042 -0.00184903
898 1 7.59112 4.46475 26.7483 0.00663838 0.00218451 -0.00044974
899 1 5.09746 3.4969 25.5096 -0.00147943 0.00810154 -0.000608591
900 1 6.26263 5.31906 26.7355 0.00198134 0.0106868 -0.00820942
901 1 3.70724 5.31288 26.7049 -0.0055555 -0.00591422 -0.00485087
902 1 5.00416 3.59164 28.0154 0.000110881 -0.000260751 0.00269393
903 1 5.08386 4.45629 26.7752 0.00587608 -0.0109819 0.00594389
904 1 6.27152 6.22101 27.9872 -0.00501944 -0.00231503 0.00408705
905 1 3.78082 6.23732 27.9705 -0.00161824 -0.00223017 0.000537107
906 1 5.01373 4.48459 29.2067 -0.00404534 -0.000686348 0.00266357
907 1 2.56493 3.57041 27.9951 0.000542039 -0.00711048 0.00176638
908 1 3.81431 5.40663 29.2907 0.000675515 0.000751523 -0.00211576
909 1 1.25131 5.33822 29.359 0.00110921 -0.00115216 -0.00269188
910 1 2.53146 3.57346 30.5898 -0.00263654 0.00358257 -0.0036313
911 1 2.54024 4.45261 29.2754 -0.00306072 0.00218232 -0.000478174
912 1 3.84426 6.28996 30.5315 0.00441987 -0.00742521 -0.0058674
913 1 1.24053 6.26298 30.5504 0.00318322 -0.000325375 0.000371532
914 1 2.48356 4.43121 31.8287 -0.00286629 -0.00284766 -0.00805648
915 1 20.1576 3.58991 30.5108 -0.00238153 -0.00657328 -0.00452262
916 1 1.26057 5.34717 31.7875 0.000164068 -0.000698381 -0.00359722
917 1 0.00363403 3.56401 33.0987 -0.0025856 -0.00167974 -0.00375387
918 1 0.0241447 4.47153 31.8475 -4.52519e-05 -0.00650895 0.00175555
919 1 1.21623 6.24376 33.0695 -0.00374845 0.000407355 -0.0101569
920 1 20.137 4.44531 34.3801 -0.000445572 0.00411271 -0.000665777
921 1 18.943 5.34432 16.5314 0.000852598 -0.00448173 0.00254781
922 1 18.9705 6.2411 17.8306 0.00304864 -0.000949312 -0.0091116
923 1 17.6765 3.59715 17.8604 -0.00344635 0.00636731 -0.00580572
924 1 18.9055 5.3636 19.0834 -5.19681e-05 -0.0112714 0.0028799
925 1 16.371 5.39125 19.0868 0.01258 -0.00295128 -0.00286311
926 1 17.6686 3.544 20.3744 0.0013296 0.00401256 -0.000508052
927 1 17.6401 4.46739 19.0652 -0.00576312 -0.00711283 -0.00302603
928 1 18.8565 6.26781 20.3309 -4.98591e-06 -0.00391917 -0.00719631
929 1 16.3419 6.21249 20.3829 0.00321276 0.00234225 0.00029525
930 1 17.7223 4.4704 21.6183 -0.00252197 -0.00279779 -0.00257623
931 1 15.1812 3.52586 20.4299 0.00710898 -0.0025127 -0.00749235
932 1 16.4357 5.28996 21.637 0.00341061 -0.000931782 -0.00423664
933 1 13.8889 5.3813 21.5744 -0.00040551 -0.00436576 -0.00690995
934 1 15.1427 3.55954 22.9092 0.00490808 0.00785854 0.00110631
935 1 15.1639 4.45031 21.6432 0.000466909 -0.00155135 -0.00827938
936 1 16.4693 6.24699 22.9318 -0.00318509 -0.00179917 -0.0071314
937 1 13.9288 6.26663 22.9085 -0.00231282 -0.00724776 0.00342545
938 1 15.134 4.47216 24.1551 -0.00551699 0.00953077 -0.0116743
939 1 12.6333 3.62244 22.8916 0.00168457 0.00543604 0.00498053
940 1 13.8593 5.34637 24.2177 -0.00318694 -0.00652171 -0.00425522
941 1 11.2883 5.38002 24.2138 0.00114772 -0.00530843 -0.00208614
942 1 12.6179 3.55902 25.4349 -0.00537927 -0.00227243 -0.00699058
943 1 12.5693 4.50234 24.1922 0.00321775 0.00824247 -0.00772626
944 1 13.853 6.25784 25.4368 0.00951488 0.00576692 -0.00756374
945 1 11.3525 6.22337 25.4443 -0.00452514 -0.00322929 -0.000891014
946 1 12.5929 4.424 26.7393 -0.000903887 0.00496886 -0.00481195
947 1 10.1196 3.60786 25.4128 -0.00190019 -0.0100931 -0.00491987
948 1 11.3549 5.38724 26.7423 -0.00082985 -0.00988235 -0.012974
949 1 8.78117 5.37349 26.7555 0.00477892 -0.00688276 0.00615522
950 1 10.1055 3.58146 28.0052 0.000738564 0.00694321 -0.00243953
951 1 10.0726 4.48717 26.7324 0.0066095 -0.00500387 0.00237211
952 1 11.3892 6.27378 28.0311 0.00288265 -0.00468849 -0.00275266
953 1 8.84678 6.25716 28.0032 0.00693604 -0.00692688 0.00318416
954 1 10.1274 4.4346 29.2423 0.0100956 0.00640186 -0.00184239
955 1 7.55732 3.56947 27.9398 -0.00177807 0.00526921 -0.00316213
956 1 8.80234 5.35932 29.2885 0.00668469 -0.00180698 0.0043982
957 1 6.31125 5.33134 29.2536 0.00117888 0.00492486 0.00170438
958 1 7.57089 3.54709 30.4622 0.000755185 0.00205358 0.00574567
959 1 7.54257 4.50076 29.2704 0.0134546 0.00090397 0.00617991
960 1 8.76105 6.25959 30.5405 0.0028329 0.00782622 -0.00690725
961 1 6.31752 6.27135 30.562 -0.000712868 0.000771274 0.00194164
962 1 7.57818 4.50265 31.7841 -0.00232005 0.00302988 -0.00551453
963 1 5.05442 3.62416 30.4853 0.0030987 -0.00320528 -0.00186677
964 1 6.29162 5.38704 31.7898 0.00222761 -0.00255105 0.00812223
965 1 3.80569 5.37101 31.8042 0.00439657 -0.0013379 -0.00174487
966 1 5.10072 3.59049 33.0376 0.00296029 -0.00517259 -0.00110429
967 1 5.07142 4.45661 31.8107 0.00137713 0.00468464 -0.000587131
968 1 6.29894 6.29871 33.0429 0.00226378 -0.00143209 -0.00592141
969 1 3.69712 6.24201 33.0587 0.00298831 0.00420486 0.00405883
970 1 5.05373 4.48997 34.3839 -0.000730459 0.00177111 0.0025336
971 1 2.55608 3.58394 33.0933 -0.00148503 -0.0119048 0.00380116
972 1 3.76503 5.33653 34.3156 2.67928e-05 0.00263459 0.00218857
973 1 1.25791 5.3488 34.3357 9.23273e-05 0.00135256 -0.00687588
974 1 2.55249 3.58273 35.6411 0.00307811 -0.0106587 -0.00986263
975 1 2.5616 4.4572 34.3692 7.11105e-05 0.00127464 -0.00562706
976 1 3.84799 6.24069 35.5785 -0.00118723 7.57971e-06 0.000570182
977 1 1.22281 6.24587 35.5903 -0.000353183 0.00571859 0.00188001
978 1 2.5626 4.47042 36.9607 0.000444856 -0.000227546 0.0103523
979 1 0.0529392 3.53732 35.5877 -0.000815779 -0.00799642 0.00728269
980 1 1.32995 5.32996 36.9528 -0.000536839 0.00296964 0.0027913
981 1 20.1336 3.44344 38.0322 0.00735518 0.00254638 -0.00326904
982 1 0.00520187 4.51396 36.977 -0.00271103 0.00752346 -0.00638669
983 1 1.31597 6.35534 38.0063 -0.00394728 0.0136702 -0.00303415
984 1 18.9134 5.43913 21.6345 -0.00164715 -0.00539933 0.00168723
985 1 18.9017 6.30014 22.9157 -0.00802163 0.00392316 -0.00573488
986 1 17.7502 3.59412 22.9003 -0.00293722 -0.00154139 -0.00367248
987 1 18.8896 5.3918 24.2254 0.00131337 0.00119736 -0.0142085
988 1 16.3878 5.37602 24.1379 -0.00401646 -0.0155636 -0.000455111
989 1 17.732 3.59926 25.4414 0.00114487 -0.00357248 -0.00529203
990 1 17.6126 4.4461 24.1899 -0.00663891 -0.00271754 -0.00468194
991 1 18.9304 6.26493 25.4568 0.00430092 -0.00139804 0.000729579
992 1 16.3991 6.21466 25.4551 0.00285066 0.00421353 0.00251274
993 1 17.6277 4.45572 26.6902 0.00419372 0.00425032 -0.00252461
994 1 15.1562 3.54084 25.4573 -0.00083969 -0.00278278 -0.000638574
995 1 16.4194 5.34746 26.71 -0.0113487 -0.00363259 -0.0029111
996 1 13.819 5.31526 26.6699 0.00553888 -0.00804486 0.00997622
997 1 15.1411 3.59877 27.9455 0.000738972 -0.00450561 -0.00612663
998 1 15.1306 4.48595 26.6967 0.00941056 -0.00183426 -0.0020399
999 1 16.4545 6.25506 27.9627 0.00301356 0.00158543 0.00108164
1000 1 13.8593 6.22937 27.9644 -0.00207218 -0.000817066 -0.0108174
1001 1 15.1515 4.4772 29.2513 0.00773821 -0.00847961 0.00547211
1002 1 12.646 3.56219 27.9625 -0.0060541 -0.000973838 -0.00534985
1003 1 13.8737 5.31691 29.2784 -0.00287766 -0.00449998 -0.00635481
1004 1 11.3416 5.36831 29.2282 -0.00199771 0.00430298 0.00964103
1005 1 12.6245 3.57575 30.5023 -0.00278331 -0.000660152 -0.00563084
1006 1 12.5866 4.45183 29.245 0.00476861 -0.00701718 0.00286317
1007 1 13.836 6.24489 30.5361 -0.00807387 0.00289895 0.00537711
1008 1 11.3394 6.2566 30.4934 0.00309021 -0.00159448 -0.0104517
1009 1 12.6283 4.46848 31.7761 0.0041509 0.00294249 0.00500672
1010 1 10.0581 3.55249 30.4898 -0.000350685 -0.00470898 -0.0116398
1011 1 11.3223 5.33354 31.7767 -0.00130224 0.000589423 -0.00116397
1012 1 8.81258 5.35712 31.7279 0.003841 0.00162076 -0.0118401
1013 1 10.1089 3.5734 33.0095 0.000653353 -0.000843796 -0.00744513
1014 1 10.0533 4.46556 31.744 -0.00348437 0.0104315 -0.00150872
1015 1 11.3329 6.2514 33.0722 0.00206949 0.00623563 -0.000962025
1016 1 8.81367 6.22841 33.0708 0.00522651 -0.00330931 -0.00671968
1017 1 10.0839 4.47555 34.294 -0.00471918 -0.00165553 -0.00265664
1018 1 7.60959 3.60567 33.0591 -0.0045279 -0.00959983 0.00284302
1019 1 8.83202 5.36969 34.296 0.00257348 0.00458227 0.00896508
1020 1 6.32688 5.36423 34.3165 0.00561822 -0.000104189 0.00221749
1021 1 7.53827 3.52551 35.5924 5.51956e-05 0.00307113 -0.00583054
1022 1 7.61404 4.49295 34.3795 0.000825724 -0.00465844 0.00143852
1023 1 8.84638 6.24342 35.5584 -0.00419908 -0.00666519 -0.000529418
1024 1 6.30565 6.24576 35.5558 0.00323716 -0.00020489 -0.00140199
1025 1 7.57788 4.53085 36.8983 -0.000776796 0.00330465 -0.00281487
1026 1 5.01943 3.60205 35.6276 -0.00456956 -0.000925531 0.00562265
1027 1 6.35446 5.35438 36.84 -0.0055321 -0.000550704 0.0029899
1028 1 3.80825 5.31807 36.939 -0.00849792 0.00527124 -0.00152955
1029 1 5.02025 3.47151 38.0583 0.00657085 -0.00331786 0.000964427
1030 1 5.08816 4.46806 36.9481 -0.00396127 -0.00346423 0.000724636
1031 1 6.26774 6.37303 38.0005 0.00352423 0.00297073 -0.00232396
1032 1 3.78027 6.40917 37.9958 0.0121259 0.00642548 -0.00213703
1033 1 2.55511 3.44749 38.06 0.00546464 0.000749805 -0.00133223
1034 1 18.9021 5.32552 26.7186 0.0140057 -0.00355413 0.00438805
1035 1 18.8954 6.27097 27.9889 0.00500615 0.00579251 -0.00418783
1036 1 17.7194 3.60694 27.9853 -0.00289034 0.00248087 0.00614558
1037 1 18.8807 5.38831 29.2924 -0.0037685 0.00619507 -0.00346366
1038 1 16.4283 5.34447 29.2308 -0.00273849 -0.00115635 0.00713099
1039 1 17.6422 3.57389 30.4938 -0.00573718 -0.00414293 2.29261e-06
1040 1 17.6449 4.4829 29.2466 0.00103956 -0.00301869 0.00312455
1041 1 18.8594 6.26499 30.5522 0.000522448 0.0106185 0.00305069
1042 1 16.3753 6.26598 30.5383 0.00114388 0.00481313 0.00290646
1043 1 17.6775 4.42008 31.7906 0.00545243 -0.00155775 -0.000539531
1044 1 15.1529 3.58858 30.5122 0.006056 0.00101078 -0.00330858
1045 1 16.3988 5.3293 31.7822 0.00114791 -0.00615157 -0.00343761
1046 1 13.9054 5.35677 31.8482 -0.00698563 -0.00218316 -0.00573195
1047 1 15.1031 3.54129 33.0524 0.00438787 -0.00580043 -0.00566635
1048 1 15.1143 4.44571 31.7965 0.00597299 -0.00254119 0.00281573
1049 1 16.3783 6.23547 33.0595 -0.00374567 0.00136625 -0.00610064
1050 1 13.9097 6.21326 33.0747 0.00210791 -0.00297633 -0.00125274
1051 1 15.1123 4.44465 34.3361 0.00156246 -0.00117943 -0.00273982
1052 1 12.6097 3.62436 33.0437 -0.00247042 0.0110591 0.001581
1053 1 13.9015 5.3379 34.3281 -0.00452888 -0.00281426 0.000292483
1054 1 11.3031 5.35725 34.3281 -0.00371893 -0.00467684 -0.0129425
1055 1 12.6575 3.58578 35.5642 -0.00609062 0.000640702 0.000321845
1056 1 12.6357 4.47333 34.302 -0.00444699 0.00263099 -0.0084647
1057 1 13.8272 6.25556 35.5624 -0.00813086 0.00527926 -0.0031776
1058 1 11.3366 6.24423 35.5615 -0.00272789 -0.00613489 0.00453738
1059 1 12.5836 4.43282 36.8869 -0.000617227 -0.00115927 -0.00439036
1060 1 10.0602 3.5485 35.5462 0.00318513 -0.00656672 -0.00959352
1061 1 11.3501 5.35121 36.8723 -0.00283078 0.00390811 -0.00791367
1062 1 8.8872 5.36434 36.8924 -0.00682926 -0.00201704 -0.00320703
1063 1 10.0443 3.48968 38.0044 -0.00125121 2.62168e-05 -0.00216066
1064 1 10.0818 4.43908 36.8515 0.0030366 0.00201698 -0.0032303
1065 1 11.3376 6.34417 38.0563 0.000155153 0.00647122 0.0073137
1066 1 8.88984 6.34016 38.0231 -0.00218387 0.00161392 -0.0112634
1067 1 7.50333 3.56775 38.0147 -0.000276489 -0.00483026 0.00488748
1068 1 18.9386 5.33721 31.7763 -0.00723775 0.0039193 0.000759588
1069 1 18.9075 6.26674 33.0497 -0.00281525 0.0016664 -0.00360221
1070 1 17.6262 3.5933 33.0261 0.00151867 -0.00207408 0.00586141
1071 1 18.9197 5.33318 34.338 0.00100033 -0.000326148 0.00206355
1072 1 16.3927 5.30122 34.297 0.00730535 -0.00274125 -0.000214254
1073 1 17.6777 3.5119 35.5595 0.00484802 -0.00388734 -0.00813347
1074 1 17.6555 4.41071 34.3748 0.00176386 0.0058115 0.00063738
1075 1 18.8817 6.20808 35.5708 -0.00604139 0.000665838 -0.0136372
1076 1 16.4104 6.20561 35.5942 0.00246637 -0.000481003 0.00130868
1077 1 17.6381 4.39827 36.913 -0.00153498 0.00967933 -0.00809162
1078 1 15.1144 3.56256 35.5563 0.00441369 0.000394676 -0.00943713
1079 1 16.355 5.29412 36.8651 0.00475868 0.00203182 -0.00599231
1080 1 13.8805 5.33599 36.9381 -0.00158987 8.86427e-05 0.00241892
1081 1 15.1273 3.48632 38.0509 -0.00207659 -0.00777091 0.00253537
1082 1 15.1142 4.38642 36.8874 0.00624385 0.00401826 -0.0032803
1083 1 16.3823 6.32139 38.0164 -0.00292697 0.00524608 -0.00961177
1084 1 13.8506 6.34916 38.0521 0.00551954 0.0023699 -0.00207917
1085 1 12.614 3.41577 38.0082 0.00476145 -0.00184757 -0.00493514
1086 1 18.9048 5.32911 36.9773 0.0085652 0.0042457 -0.000604386
1087 1 18.8986 6.34715 38.0432 0.00502679 0.00179751 -0.00718728
1088 1 17.6746 3.42812 38.0113 -0.0103104 -0.00361965 -0.00602493
1089 1 2.52111 8.02212 -3.78166 0 0 0
1090 1 1.26055 8.91347 -3.78166 0 0 0
1091 1 0 7.13077 -2.52111 0 0 0
1092 1 0 8.02212 -3.78166 0 0 0
1093 1 1.26055 9.80481 -2.52111 0 0 0
1094 1 0 8.02212 -1.26055 0 0 0
1095 1 7.56333 8.02212 -3.78166 0 0 0
1096 1 6.30277 8.91347 -3.78166 0 0 0
1097 1 3.78166 8.91347 -3.78166 0 0 0
1098 1 5.04222 7.13077 -2.52111 0 0 0
1099 1 5.04222 8.02212 -3.78166 0 0 0
1100 1 6.30277 9.80481 -2.52111 0 0 0
1101 1 3.78166 9.80481 -2.52111 0 0 0
1102 1 5.04222 8.02212 -1.26055 0 0 0
1103 1 2.52111 7.13077 -2.52111 0 0 0
1104 1 3.78166 8.91347 -1.26055 0 0 0
1105 1 1.26055 8.91347 -1.26055 0 0 0
1106 1 2.50339 7.12663 -0.0568651 -0.000288176 0.00106635 0.00144411
1107 1 2.52111 8.02212 -1.26055 0 0 0
1108 1 3.83187 9.87029 0.0243632 0.00270601 0.00265048 0.00342711
1109 1 1.26348 9.81047 -0.00332675 -0.00523992 0.000848172 0.00528549
1110 1 2.49848 7.99612 1.25195 0.00284996 0.00274992 0.0096621
1111 1 20.1409 7.08912 0.00693638 0.000356131 -0.00933122 -0.00958819
1112 1 1.2632 8.88559 1.26672 -0.00309604 0.00206002 0.00785216
1113 1 20.1112 7.11782 2.51267 -0.00251285 0.002684 0.00233635
1114 1 0.0321523 7.98975 1.301 0.000850678 0.00554815 0.00268156
1115 1 1.26669 9.7992 2.57697 0.00626464 0.000141499 -0.000177389
1116 1 20.1265 8.03348 3.81621 -0.00755813 0.000340575 -0.00789043
1117 1 12.6055 8.02212 -3.78166 0 0 0
1118 1 11.345 8.91347 -3.78166 0 0 0
1119 1 8.82388 8.91347 -3.78166 0 0 0
1120 1 10.0844 7.13077 -2.52111 0 0 0
1121 1 10.0844 8.02212 -3.78166 0 0 0
1122 1 11.345 9.80481 -2.52111 0 0 0
1123 1 8.82388 9.80481 -2.52111 0 0 0
1124 1 10.0844 8.02212 -1.26055 0 0 0
1125 1 7.56333 7.13077 -2.52111 0 0 0
1126 1 8.82388 8.91347 -1.26055 0 0 0
1127 1 6.30277 8.91347 -1.26055 0 0 0
1128 1 7.57117 7.13407 0.025677 -0.00502471 0.00735324 0.003611
1129 1 7.56333 8.02212 -1.26055 0 0 0
1130 1 8.81528 9.84827 -0.00999226 -0.00212341 0.00674207 0.00446462
1131 1 6.30927 9.78405 -0.0196455 0.00261099 0.00329328 -0.00439625
1132 1 7.59615 8.06488 1.2627 -0.0074159 0.00189352 0.00269556
1133 1 5.03875 7.14974 0.0229296 -0.00674804 0.00469298 -0.00314238
1134 1 6.40941 8.9574 1.30381 -0.0165594 -0.00652413 -0.00254086
1135 1 3.81682 8.94738 1.26328 0.00657662 -0.00195124 -0.00977537
1136 1 5.048 7.16731 2.5359 -0.00823965 -0.00347142 -0.00226758
1137 1 5.06195 8.04807 1.29021 -0.000755639 -0.00888404 -0.00403814
1138 1 6.39617 9.80885 2.51588 0.0011038 0.0015726 -0.00438553
1139 1 3.84112 9.81094 2.60401 -0.00548013 -0.0016207 -0.0116114
1140 1 5.0547 8.02636 3.79676 -0.00254387 0.00353218 0.00564783
1141 1 2.48953 7.14223 2.51982 -0.00173092 -0.00105874 0.00425252
1142 1 3.8158 8.8799 3.82502 -0.00907423 -0.00376611 0.000464866
1143 1 1.19882 8.93837 3.8404 -0.00199908 -0.00616786 -0.0044565
1144 1 2.50388 7.1218 5.11633 0.00682288 -0.000178714 0.00520852
1145 1 2.51727 8.02241 3.8682 -0.00355891 -0.00548218 0.00149587
1146 1 3.82625 9.77816 5.08117 0.000637942 -0.000396977 -3.16006e-05
1147 1 1.24404 9.79621 5.11625 0.00159683 0.000271189 -0.00495462
1148 1 2.50131 8.01762 6.42458 0.00304209 -0.00235188 -0.0047442
1149 1 0.000935627 7.18359 5.13684 -0.00358958 0.00181244 -0.0122192
1150 1 1.21615 8.91921 6.4222 -6.64719e-06 0.00162522 0.00461585
1151 1 0.01855 7.15082 7.67839 0.00408939 0.00122922 0.00305755
1152 1 0.0442407 8.02824 6.44031 0.00073568 -0.00115071 -0.00773239
1153 1 1.29334 9.83199 7.62576 0.00587053 0.00177074 0.0064232
1154 1 20.1291 8.0118 8.95106 0.000222562 0.000489699 -0.00868333
1155 1 17.6478 8.02212 -3.78166 0 0 0
1156 1 16.3872 8.91347 -3.78166 0 0 0
1157 1 13.8661 8.91347 -3.78166 0 0 0
1158 1 15.1267 7.13077 -2.52111 0 0 0
1159 1 15.1267 8.02212 -3.78166 0 0 0
1160 1 16.3872 9.80481 -2.52111 0 0 0
1161 1 13.8661 9.80481 -2.52111 0 0 0
1162 1 15.1267 8.02212 -1.26055 0 0 0
1163 1 12.6055 7.13077 -2.52111 0 0 0
1164 1 13.8661 8.91347 -1.26055 0 0 0
1165 1 11.345 8.91347 -1.26055 0 0 0
1166 1 12.6268 7.11104 0.00673878 0.000722011 0.0108079 0.00645143
1167 1 12.6055 8.02212 -1.26055 0 0 0
1168 1 13.7975 9.82104 -0.00700588 -0.000956949 0.00770663 0.00257808
1169 1 11.2968 9.81083 0.0378706 0.000768245 0.000228315 0.00297665
1170 1 12.6156 8.03131 1.26035 0.00103313 -0.00276833 -0.000353327
1171 1 10.0877 7.12231 0.00041273 0.00402953 0.00700743 -0.00459799
1172 1 11.3419 8.9566 1.27189 0.00844402 0.00156376 0.00408947
1173 1 8.87538 8.94336 1.24177 -0.00146952 0.00247961 0.00746809
1174 1 10.093 7.10834 2.5529 -0.00436368 -0.00168964 -0.00164289
1175 1 10.1344 8.03908 1.2714 -0.00202494 0.00318757 -0.000841259
1176 1 11.3618 9.79642 2.56744 0.00157876 0.00401512 -0.00531382
1177 1 8.83882 9.82521 2.52872 -0.00993599 0.00529425 0.00164611
1178 1 10.1388 8.01912 3.81025 -0.0109615 0.00250512 0.00496048
1179 1 7.58161 7.13987 2.52412 0.00614774 -0.00922168 -0.00615926
1180 1 8.88363 8.95308 3.81877 -0.000741539 -0.00521592 0.000207184
1181 1 6.33757 8.93788 3.82425 0.00400985 0.000682974 0.0055742
1182 1 7.60537 7.16773 5.09864 0.00329104 0.00350975 0.00128272
1183 1 7.62245 8.06485 3.82812 0.00383018 0.00315131 0.00463777
1184 1 8.90998 9.83059 5.15397 -0.000424871 -0.0074981 0.0022158
1185 1 6.39913 9.78043 5.09412 -0.000357222 0.000373822 0.00250699
1186 1 7.59935 8.05715 6.40801 -0.00205484 0.00558981 0.00667866
1187 1 5.03214 7.18413 5.07486 0.00274467 0.0082346 -0.00104383
1188 1 6.33634 8.8959 6.32835 0.00328734 0.00491021 -0.00501157
1189 1 3.78245 8.8684 6.41916 -0.00603941 -0.00134776 0.00577543
1190 1 5.09225 7.14155 7.64914 -0.00145817 0.00683068 0.000840957
1191 1 5.01829 8.04197 6.39724 -0.00933493 -0.00342885 0.00504438
1192 1 6.35395 9.77157 7.66699 -0.0134366 0.00573123 0.00244448
1193 1 3.87659 9.83214 7.62538 0.000206835 0.00443887 -0.00335185
1194 1 5.07418 8.02218 8.88149 -0.0018028 0.000455385 0.00153465
1195 1 2.56869 7.1328 7.68927 -0.00615611 0.00505658 0.00685802
1196 1 3.80116 8.9339 8.89956 0.0115111 -0.00526582 -0.00224761
1197 1 1.24638 8.89326 8.94572 -0.000184245 0.00402388 0.00294772
1198 1 2.5183 7.12822 10.2072 -0.00139585 -0.00535394 0.00865207
1199 1 2.55731 8.04653 8.92042 -0.000976617 -0.00282303 0.00169692
1200 1 3.7945 9.83549 10.1746 -0.00102898 0.00328035 0.00203938
1201 1 1.24501 9.78684 10.1574 0.00631718 -1.11263e-05 0.00468146
1202 1 2.50182 8.11081 11.4304 -0.00894297 0.00377475 -0.0041659
1203 1 0.00255411 7.06297 10.2091 0.011417 0.000829159 0.00335837
1204 1 1.26305 8.92084 11.4615 0.0043505 -0.00108541 0.00498145
1205 1 0.0110273 7.10358 12.7113 0.00760624 -0.00429718 -0.00456129
1206 1 20.1301 8.00699 11.4862 -0.004598 0.00524697 0.00243613
1207 1 1.27654 9.75611 12.7643 0.00294836 -0.000926301 -0.00997236
1208 1 0.0352197 8.01471 13.9987 0.0030431 -0.00122684 -0.00188888
1209 1 18.9083 8.91347 -3.78166 0 0 0
1210 1 18.9083 9.80481 -2.52111 0 0 0
1211 1 17.6478 7.13077 -2.52111 0 0 0
1212 1 18.9083 8.91347 -1.26055 0 0 0
1213 1 16.3872 8.91347 -1.26055 0 0 0
1214 1 17.6285 7.1403 0.00946602 -0.0104381 0.00437971 -0.00941174
1215 1 17.6478 8.02212 -1.26055 0 0 0
1216 1 18.9251 9.87794 0.00921727 0.00335826 0.00912035 -0.00110238
1217 1 16.356 9.80242 0.0268118 0.00641683 -0.00297434 -0.00556126
1218 1 17.6213 8.01027 1.29668 -0.00226082 -0.00443615 -0.00357158
1219 1 15.1201 7.17441 0.0465677 0.0047549 0.00314165 -0.00348562
1220 1 16.389 8.90397 1.33995 -0.00710512 -0.000618502 -0.00634047
1221 1 13.8176 8.95577 1.28447 0.00198474 -0.0023196 -0.00096086
1222 1 15.1101 7.14981 2.51657 -0.000568996 0.00647755 0.000995868
1223 1 15.1288 8.04643 1.30957 -0.00432182 -0.00346799 0.000787806
1224 1 16.3678 9.84725 2.55247 -0.000686563 0.00110573 -0.00108496
1225 1 13.9093 9.76471 2.58784 0.0028305 -0.00109832 0.00435814
1226 1 15.1165 8.01858 3.83998 -0.000999674 0.000823471 0.00383551
1227 1 12.5902 7.12606 2.56942 -0.00315745 0.00276059 -0.0072995
1228 1 13.8894 8.87425 3.84791 -0.000814464 -0.00377229 -0.00283527
1229 1 11.4022 8.91207 3.79925 -0.00450583 0.00448168 0.000471799
1230 1 12.5784 7.16947 5.1045 -0.000462767 0.00162169 -0.00509053
1231 1 12.6175 8.01458 3.77792 -0.0039232 0.00300053 -0.0017038
1232 1 13.8295 9.86168 5.11326 -0.00608682 0.0068124 -0.00472876
1233 1 11.3751 9.81276 5.1168 0.00393748 -0.00063305 0.000381995
1234 1 12.6245 8.0118 6.41298 0.00676648 -0.00275622 0.000624303
1235 1 10.1249 7.12762 5.08236 -0.000623 0.00358413 0.00714403
1236 1 11.3612 8.96569 6.39416 -0.00849624 -0.00894818 -0.00179143
1237 1 8.85919 8.91655 6.38213 0.00186846 0.00354558 -0.00087316
1238 1 10.1428 7.11183 7.63495 -0.00246277 0.000109817 -0.00857498
1239 1 10.0948 7.99038 6.37376 -0.00552771 -0.00156839 -0.00144808
1240 1 11.3827 9.83275 7.69708 6.40312e-05 -0.00273219 0.00103689
1241 1 8.85643 9.86218 7.68053 0.00015176 -0.012527 -0.000284669
1242 1 10.1428 8.02645 8.91415 -0.0109639 -0.00757378 -0.00845893
1243 1 7.60349 7.17912 7.72411 0.00751132 -0.00570782 0.00617629
1244 1 8.94342 8.98761 8.90364 0.00360364 -0.00192789 0.000524732
1245 1 6.34481 8.90697 8.95274 -0.00279121 0.00342094 -0.0052977
1246 1 7.60273 7.10522 10.2005 -0.00242865 -0.00123031 0.00782846
1247 1 7.61983 8.05499 8.92191 0.0024919 -0.000592076 -0.0047664
1248 1 8.81186 9.79303 10.2005 0.00385398 0.00282217 0.00769723
1249 1 6.34869 9.85412 10.1698 -0.00640591 -0.00800579 -0.00139597
1250 1 7.62087 7.96326 11.4318 0.00745784 -0.0113139 0.00749908
1251 1 5.08352 7.11668 10.1617 -0.000766341 0.00369667 -0.00234153
1252 1 6.35411 8.93707 11.4432 -0.00303384 0.00204032 0.00648319
1253 1 3.75371 8.96386 11.4951 0.00113229 -0.00334159 -0.00312088
1254 1 5.07032 7.20471 12.7953 0.00802255 -0.000888139 0.00182755
1255 1 5.08717 8.04202 11.4766 -0.00587199 -0.00933434 0.00112336
1256 1 6.35751 9.82596 12.6641 0.00382398 -0.00121334 -0.00247867
1257 1 3.82492 9.76964 12.7664 -6.93965e-05 -0.00150678 -0.0067816
1258 1 5.05305 8.04324 14.0504 0.00404351 -7.93876e-05 -0.00548063
1259 1 2.53597 7.16413 12.6843 -0.000128474 -0.00333465 0.00359949
1260 1 3.83409 8.93645 13.9881 0.000467699 0.00439501 0.00115063
1261 1 1.27616 8.91246 14.0216 0.00705692 0.00337355 0.00673204
1262 1 2.60057 7.2467 15.2311 0.00256504 -0.000498497 -0.00252311
1263 1 2.58237 8.08672 13.9574 0.00767021 -0.000852974 0.00340531
1264 1 3.79958 9.82436 15.2802 0.00428172 -0.0125501 0.00426757
1265 1 1.30099 9.77898 15.3014 0.000399726 -0.00697018 0.00106337
1266 1 2.61446 8.02442 16.5888 -0.0028891 -0.00147709 -0.00825389
1267 1 0.0446891 7.13988 15.2939 -0.00353954 -0.0013377 -0.00126539
1268 1 1.38666 8.90361 16.5856 -0.00627532 -0.00506782 -0.00780359
1269 1 0.0501051 7.15068 17.8728 0.0101148 -0.00675175 0.00387767
1270 1 0.0847921 7.98126 16.594 -0.00292593 0.00791672 -0.00326577
1271 1 1.35787 9.81428 17.8642 0.0065833 0.00692114 0.00073093
1272 1 0.00867028 8.04951 19.1218 0.00123461 0.00333853 0.00275989
1273 1 18.9052 8.94061 1.29772 -5.73028e-05 0.00113906 -0.00307804
1274 1 18.8414 9.8313 2.51297 0.00225979 0.00394613 0.0024538
1275 1 17.64 7.09546 2.55417 0.00994197 0.00209173 0.00333993
1276 1 18.8636 8.87739 3.8694 -0.00105913 -0.00162334 -0.00436462
1277 1 16.3814 8.92786 3.83155 0.00604821 -0.00776575 -0.00674515
1278 1 17.6303 7.08892 5.16268 0.00707622 -0.0015141 -0.00524171
1279 1 17.643 7.98665 3.86152 -0.000837148 0.00716701 -0.00283658
1280 1 18.9554 9.83236 5.13087 -0.00212249 0.003724 0.00822282
1281 1 16.3868 9.82612 5.14476 0.000851743 -0.00515603 0.000672274
1282 1 17.632 8.05688 6.40992 0.000164213 0.00551126 -0.000171416
1283 1 15.0953 7.15436 5.12017 -0.000736323 0.00115719 -0.000969211
1284 1 16.3833 8.96139 6.4249 0.000761435 0.00119075 0.000423397
1285 1 13.8578 8.93053 6.35488 -0.00213516 0.000410102 0.00434352
1286 1 15.1231 7.17574 7.67136 0.00196625 0.00605003 -0.00607037
1287 1 15.1195 8.0996 6.3689 0.0133695 -0.00203561 0.00508474
1288 1 16.4037 9.80355 7.67516 -0.00520187 0.00358179 -0.00306302
1289 1 13.8782 9.84653 7.68255 0.00476177 -0.0101524 -0.00428804
1290 1 15.1014 7.99449 8.99307 0.00428578 -0.0121983 -0.00704068
1291 1 12.648 7.13287 7.65287 0.000613854 -0.00303054 0.00312505
1292 1 13.9349 8.96292 8.89633 -0.00250819 -0.00146202 0.00208715
1293 1 11.4124 8.92678 8.91967 -0.00457916 -0.00207366 -0.00307625
1294 1 12.6436 7.14056 10.1671 -0.00407028 0.00397388 0.00302502
1295 1 12.6573 8.03048 8.90938 0.000571266 -0.00771605 -0.0036741
1296 1 13.8977 9.82178 10.1947 -0.000976144 -0.00246463 0.00135696
1297 1 11.4162 9.80527 10.2234 0.0118293 0.00301779 -0.00702084
1298 1 12.6767 8.02956 11.4134 -0.00442262 -0.00257327 0.00768252
1299 1 10.16 7.17054 10.1673 -0.00104421 0.0126059 -0.00438625
1300 1 11.431 8.88866 11.4625 -0.00341984 -0.000642069 -0.00363814
1301 1 8.86528 8.87717 11.4678 -0.00215062 -0.00887071 -0.00353711
1302 1 10.1537 7.11861 12.7032 0.00607772 -0.00807409 0.00449837
1303 1 10.1389 8.01952 11.4356 -0.00438637 0.00183549 -0.00957707
1304 1 11.4012 9.81913 12.7214 -0.00443266 -0.00520983 0.00125264
1305 1 8.89793 9.82426 12.7546 -0.00434814 0.000140631 0.00314452
1306 1 10.1874 8.00549 13.9935 0.000462317 -0.00202635 4.86095e-05
1307 1 7.57956 7.10755 12.7232 -0.00132572 0.00316678 -0.00259223
1308 1 8.88394 8.91673 14 -0.0026714 0.000139756 0.00178398
1309 1 6.32151 8.97281 13.969 -0.0044718 0.00159979 0.00109167
1310 1 7.58567 7.13658 15.2502 0.00497357 -0.0052293 -0.000271481
1311 1 7.56747 8.03533 13.9413 -0.00504881 -0.0017419 -0.000613156
1312 1 8.86337 9.72674 15.3023 0.00575521 0.00142912 -0.0105768
1313 1 6.35517 9.82515 15.3132 0.00707136 0.000142508 0.000201979
1314 1 7.64983 8.03031 16.5729 -0.0011985 -0.00926904 0.00080627
1315 1 5.07988 7.12918 15.2864 0.00201404 -0.00510584 0.00209642
1316 1 6.37035 8.94049 16.5785 0.00641572 -0.00541878 -0.00139439
1317 1 3.87875 8.99084 16.5674 0.00193452 -0.00158087 0.00165577
1318 1 5.11301 7.14584 17.8358 -0.00181743 0.00084093 -0.00640869
1319 1 5.16143 8.05853 16.5939 -0.00498382 -0.000117272 -0.00405398
1320 1 6.37341 9.82235 17.8306 0.00250096 -0.00622959 -0.00496647
1321 1 3.85179 9.81771 17.8723 0.00144595 -0.00794452 -0.00456356
1322 1 5.0955 8.07472 19.112 0.00584323 -0.00429864 0.00116648
1323 1 2.63227 7.15049 17.821 -0.00282889 -0.00726423 -0.00437142
1324 1 3.82311 8.91111 19.1601 -0.00277619 -0.0111808 -0.0110643
1325 1 1.31735 8.94004 19.1098 -8.22508e-05 -0.00590824 -0.00241899
1326 1 2.55483 7.10766 20.3797 0.00100385 0.00351182 0.00259822
1327 1 2.55145 8.02647 19.1485 0.00315404 -0.0026094 -0.0047313
1328 1 3.86781 9.82842 20.3739 0.00455523 -0.0038982 0.00145437
1329 1 1.32424 9.80378 20.4139 0.000970393 0.00444656 -0.00769383
1330 1 2.55014 8.03958 21.6945 -0.00776724 0.0120182 -0.000529963
1331 1 0.0115467 7.13875 20.392 -0.0101033 -0.00320742 0.0108427
1332 1 1.29511 8.86742 21.6608 -0.00153796 0.00016816 0.000136372
1333 1 0.0492538 7.14834 22.977 0.000842642 -0.000520505 0.00832164
1334 1 0.0323428 8.01267 21.6101 -0.00105375 -0.00635897 0.00172863
1335 1 1.23593 9.78309 22.9424 -0.00388696 -0.00578398 0.00233615
1336 1 20.1289 8.07883 24.1666 -0.00238629 0.00757697 0.00329952
1337 1 18.8989 8.92086 6.374 -0.000935505 0.0050002 0.00249845
1338 1 18.8849 9.79693 7.64481 -0.00354194 -0.00802747 -0.00944792
1339 1 17.6773 7.16585 7.66258 0.00115742 -0.000797799 0.00730179
1340 1 18.8735 8.96406 8.92031 0.00839438 5.95283e-08 -0.000443306
1341 1 16.4193 8.91554 8.94389 0.00162256 0.00135566 -0.0016917
1342 1 17.6552 7.13005 10.2134 -0.00212719 -0.0045125 0.00237976
1343 1 17.6517 8.05015 8.92988 0.0013303 -0.0115544 0.00221224
1344 1 18.8939 9.83862 10.2113 0.00262642 0.00705772 -0.0092947
1345 1 16.4016 9.82696 10.2215 -0.00318771 0.00640236 0.000423629
1346 1 17.6611 8.01484 11.485 0.000560455 -0.00606966 -0.00267752
1347 1 15.1605 7.07345 10.2423 0.00631465 0.000205252 0.00659475
1348 1 16.4234 8.93713 11.4586 -0.00367113 0.00570131 0.00324983
1349 1 13.9623 8.8957 11.4314 0.000615182 0.00633802 0.00285866
1350 1 15.2066 7.06483 12.7221 -0.00293181 0.00508126 -0.00107077
1351 1 15.1721 8.05944 11.4928 -0.00474969 -0.00176234 0.00159403
1352 1 16.3774 9.81679 12.7686 -0.00274484 0.00447553 -0.00471495
1353 1 13.9249 9.84328 12.7364 -0.0109305 0.00250008 -0.000309655
1354 1 15.165 7.94377 14.0145 -0.00291572 0.0047436 -0.00978081
1355 1 12.6558 7.11885 12.6882 0.00153709 -0.00414174 -0.000208562
1356 1 13.9066 8.9204 13.9524 -0.000415147 0.00591909 0.00450707
1357 1 11.3537 8.92561 13.9571 -0.0042964 -0.00830607 0.000215289
1358 1 12.6487 7.20839 15.2133 0.00980147 0.00439777 -0.0033764
1359 1 12.6792 8.05248 13.9105 -0.000796715 -0.00232326 -0.00161202
1360 1 13.853 9.80825 15.2883 -0.00364408 -0.000377274 -0.00130047
1361 1 11.3881 9.88519 15.2208 0.000541593 0.000423882 -0.00267728
1362 1 12.6779 8.03186 16.53 0.00592384 0.00378908 0.00301893
1363 1 10.1682 7.08671 15.2942 -0.00649592 0.00210087 0.0030975
1364 1 11.3989 8.89043 16.5146 -0.00969943 0.00679822 -0.00715275
1365 1 8.8723 8.92596 16.5047 0.00483889 0.01129 -0.0062238
1366 1 10.1538 7.17264 17.8019 0.0125166 -0.000837856 0.00399684
1367 1 10.1354 8.00559 16.5467 0.00157483 -0.000168585 0.000370501
1368 1 11.3849 9.81912 17.7758 0.00820293 -0.00380141 0.009643
1369 1 8.94868 9.86161 17.8205 0.0015796 0.00509913 -0.00222758
1370 1 10.1518 8.08606 19.0969 -0.00172301 0.00173555 0.00307209
1371 1 7.62997 7.19603 17.7911 0.0100531 0.00306195 -0.000279545
1372 1 8.89967 8.98737 19.1358 -0.00431648 -0.000631137 0.00869574
1373 1 6.40587 8.96898 19.1308 -0.0023966 0.000350578 -0.0054365
1374 1 7.63089 7.12477 20.3838 0.00634139 0.0034322 -0.0072789
1375 1 7.65851 8.04032 19.108 0.000943652 -0.00665563 0.0089044
1376 1 8.87663 9.9124 20.3633 0.00699683 0.00268581 0.000419849
1377 1 6.40898 9.86629 20.369 -0.0076656 0.00230343 0.00331672
1378 1 7.60329 8.05763 21.6055 -0.00777449 -0.00131177 -0.0023639
1379 1 5.08362 7.11087 20.3291 -0.0025597 -0.0013681 -0.00165089
1380 1 6.39081 8.96356 21.6445 -0.00299071 -0.00192282 -0.00223221
1381 1 3.88781 8.94051 21.6726 0.00261907 -0.00549011 -0.00337068
1382 1 5.10201 7.13766 22.9026 -0.00516485 -0.00387227 0.000862684
1383 1 5.10339 8.03046 21.649 -0.000590475 0.00504402 -0.00257686
1384 1 6.35194 9.83671 22.9637 -0.00350308 -0.00454883 -0.0101605
1385 1 3.87008 9.80207 22.878 0.00776867 0.00648853 -0.00058167
1386 1 5.12638 8.04776 24.2021 -0.00165162 0.00279749 -0.00137054
1387 1 2.57861 7.16244 22.9088 -0.00243299 -1.37092e-05 -0.00202891
1388 1 3.84657 8.88867 24.147 0.00246042 0.0011971 0.0127888
1389 1 1.30654 8.95899 24.2519 -0.00322541 0.000895688 -0.00474413
1390 1 2.52393 7.1778 25.4518 0.00275421 9.94692e-05 -0.00451717
1391 1 2.58745 8.05377 24.1805 0.00890848 0.00848182 -0.00627981
1392 1 3.82655 9.87318 25.4439 0.00402657 -0.00301649 -0.00309893
1393 1 1.25688 9.87065 25.4642 -0.010253 -0.00102506 0.00523902
1394 1 2.50513 8.02142 26.7191 0.00572025 -0.0077562 -0.00174539
1395 1 20.1659 7.15843 25.4917 0.00248205 -0.001852 -0.00228693
1396 1 1.291 8.93023 26.7889 -0.00391083 -0.00488314 -0.00281962
1397 1 0.00572696 7.13887 27.9957 -0.00621185 -0.000875355 -0.00108298
1398 1 0.0389167 8.06931 26.795 0.00700113 0.00393466 -0.000115202
1399 1 1.23347 9.81598 27.9785 -0.00157138 -0.00988131 0.00102017
1400 1 20.1555 8.02731 29.2733 -0.00380368 -0.00454002 -0.00366592
1401 1 18.9283 8.88584 11.4469 -0.0012818 -0.00200657 0.00683573
1402 1 18.9457 9.79481 12.6968 -0.00195281 -0.000581219 -0.00231724
1403 1 17.6824 7.09061 12.6991 -0.00822208 -0.00186236 -0.00269983
1404 1 18.9334 8.86587 13.9908 0.000358704 0.00828349 -0.00637794
1405 1 16.3605 8.89177 13.9406 -0.00158389 7.97114e-05 0.0019364
1406 1 17.7161 7.13307 15.2617 0.00310144 0.00327451 -0.00233376
1407 1 17.6934 7.97997 13.9434 0.0118537 0.00548717 -0.00159531
1408 1 19.0137 9.71005 15.2875 -0.00535595 0.00117669 -0.00284006
1409 1 16.4696 9.78964 15.2616 -0.00439596 -0.00409392 0.00243229
1410 1 17.7726 8.025 16.5886 -0.00793761 -0.004077 -0.00572556
1411 1 15.1571 7.14061 15.2899 5.32128e-05 -0.00127439 0.00419646
1412 1 16.4392 8.87596 16.5491 -0.00346952 -0.00720673 -0.00380392
1413 1 13.9532 8.85749 16.562 -0.00497602 0.0120331 -0.00630988
1414 1 15.1726 7.17616 17.8171 0.000308037 0.00474935 0.00286576
1415 1 15.1594 8.01428 16.5324 0.00195497 -0.00149524 -0.00763714
1416 1 16.4309 9.83891 17.7745 -0.00280062 -0.00464394 0.00120463
1417 1 13.8927 9.75744 17.828 -0.00434293 0.00504174 0.00913736
1418 1 15.1402 8.06949 19.1145 -0.00147916 -0.00855189 -0.00131283
1419 1 12.6516 7.11177 17.7468 0.00139051 0.00246484 -0.0037034
1420 1 13.8398 8.91308 19.0971 -0.00433056 0.00129716 -0.00158635
1421 1 11.3891 8.97298 19.0501 -0.00258194 -0.00245904 -0.00606873
1422 1 12.6176 7.17448 20.3204 0.00174615 0.00466617 -0.00828738
1423 1 12.6246 8.03946 19.0186 0.00474424 0.00267881 1.03657e-06
1424 1 13.8415 9.85871 20.3641 -0.00261501 0.00143298 0.00942615
1425 1 11.401 9.81193 20.3764 0.00568965 -0.00225539 0.00144084
1426 1 12.6501 8.01174 21.6427 0.00324313 -0.00484719 0.00478857
1427 1 10.1166 7.16812 20.3305 -0.00362421 0.000556646 -0.00535441
1428 1 11.4054 8.91314 21.6208 -0.00433032 0.00302589 0.00343474
1429 1 8.8273 8.92816 21.6155 -0.00508221 0.00321038 -0.00183462
1430 1 10.0805 7.17833 22.921 -0.00162044 0.000983273 0.00143105
1431 1 10.0881 8.01056 21.6507 -0.00284487 0.0112746 -0.00497032
1432 1 11.3459 9.75983 22.9283 0.000176068 0.00397567 0.00100456
1433 1 8.88651 9.80139 22.897 -0.00415485 -0.000392963 -0.00630706
1434 1 10.0855 8.00435 24.2476 -0.00254357 -0.00221104 -0.00112886
1435 1 7.5973 7.10226 22.9102 -0.00713318 -0.00200623 -0.00211765
1436 1 8.79423 8.88845 24.1886 0.00159069 0.00553415 -0.00102089
1437 1 6.32943 8.91677 24.1413 0.00849761 -0.00100301 -0.0030645
1438 1 7.54362 7.1032 25.4793 0.00391078 0.000917957 0.00171426
1439 1 7.5985 7.95479 24.1429 0.00688403 0.00315115 0.0059931
1440 1 8.86367 9.74778 25.4398 -0.00340167 -0.0106029 -0.00149527
1441 1 6.29185 9.88198 25.3919 0.00948136 -0.00953383 -0.00801053
1442 1 7.54554 8.00294 26.7123 -0.00795641 -0.00805367 -0.00104203
1443 1 5.06171 7.15749 25.4282 -0.00484949 0.000516491 0.000233195
1444 1 6.30971 8.89182 26.6957 -0.00381671 -0.00547119 -0.000587255
1445 1 3.79009 8.95665 26.7045 0.00115666 -0.00636499 -0.00054307
1446 1 5.04418 7.10706 27.998 -0.00340437 0.00222359 0.00878021
1447 1 5.06357 8.06611 26.7195 0.0058848 0.00700256 -0.00143596
1448 1 6.29792 9.7876 27.9716 -0.00230861 -0.00712671 -0.00118117
1449 1 3.76757 9.83495 27.9395 0.00901924 -7.24049e-05 -0.00458881
1450 1 5.05256 8.025 29.2632 -0.00541643 0.00874263 0.00564681
1451 1 2.54722 7.1365 27.973 0.00184121 0.00369715 0.00119459
1452 1 3.74862 8.9109 29.197 -0.00516096 0.0040058 1.11016e-05
1453 1 1.24603 8.93577 29.2564 0.000663158 -0.00111803 -0.00223979
1454 1 2.5617 7.13439 30.5519 -0.00230034 -0.00281026 0.00893115
1455 1 2.48709 8.06104 29.2086 -0.0028366 -0.00471242 -0.00882001
1456 1 3.77603 9.82217 30.5236 0.00683249 0.000321674 -0.00611555
1457 1 1.21224 9.82185 30.5342 0.00120768 0.0117542 0.00255965
1458 1 2.53893 8.03672 31.7389 0.00423865 0.00501384 -0.00851764
1459 1 20.1498 7.14822 30.596 0.00592763 0.000205083 -0.00327888
1460 1 1.23903 8.92484 31.7702 0.00566563 -0.0037097 -0.00122807
1461 1 20.1553 7.13244 33.1075 0.00622914 -0.00444193 -0.00323491
1462 1 20.1169 8.03493 31.8274 -0.00156041 0.00103866 0.000630585
1463 1 1.26196 9.77341 33.0475 0.0098734 0.00521921 -0.01012
1464 1 20.113 8.00394 34.3147 -0.00330201 -0.00262229 -0.0095192
1465 1 18.9966 8.88799 16.5753 0.000564794 -0.00171506 -0.00116977
1466 1 18.998 9.82926 17.7561 0.00577279 -0.00402522 -1.15369e-05
1467 1 17.6763 7.118 17.8325 -0.00722873 0.00218464 0.00251663
1468 1 18.9419 8.9201 19.0845 0.000755974 0.00647668 -0.000979883
1469 1 16.3824 8.92933 19.1032 0.000523583 -0.00844195 -0.00887927
1470 1 17.6359 7.15207 20.3075 0.000491515 0.000961146 -0.00187245
1471 1 17.6579 8.05554 19.0306 -7.01715e-05 0.00159604 0.00800674
1472 1 18.9355 9.80105 20.4012 -0.00195824 -0.009025 -0.0087576
1473 1 16.4372 9.81981 20.3482 -0.00526324 0.00193878 0.00342455
1474 1 17.6697 8.05773 21.6119 -0.00253428 -0.00403238 -0.0073955
1475 1 15.1662 7.1991 20.3332 -0.00513347 -0.00693372 -0.00347499
1476 1 16.4508 8.93982 21.6333 -0.00564395 -0.000501022 -0.0102458
1477 1 13.9065 8.96361 21.6267 0.00215649 0.00329055 -0.00103161
1478 1 15.1527 7.12771 22.8721 0.00445808 0.00345364 -0.00485254
1479 1 15.1761 8.0827 21.6249 7.87834e-05 0.00216984 -0.00782464
1480 1 16.4096 9.83124 22.9301 0.00140454 -0.00162824 -0.00431604
1481 1 13.8564 9.75108 22.941 -0.00606059 0.00539443 -0.00573233
1482 1 15.1601 8.00875 24.1512 -0.00355463 -0.00195948 -0.00494528
1483 1 12.6367 7.18796 22.8534 -0.00262532 -0.00201127 -0.00065446
1484 1 13.9424 8.85445 24.2078 -0.00529622 0.000711339 0.00593519
1485 1 11.3673 8.84008 24.2131 0.000576762 0.0104155 -0.00216367
1486 1 12.6352 7.13303 25.4593 0.00463862 0.00520362 -0.00196288
1487 1 12.6041 8.00847 24.179 -0.0035468 -0.00164334 0.00179343
1488 1 13.8096 9.81059 25.4259 -0.00354277 0.00072439 0.00327841
1489 1 11.333 9.77012 25.462 -0.00413521 -0.00174876 0.00330472
1490 1 12.645 8.00878 26.7833 0.0107063 -0.00552295 -0.00300572
1491 1 10.0156 7.08654 25.4787 0.0024776 -0.00466414 0.00120801
1492 1 11.3018 8.85315 26.7908 0.00428032 0.0129931 0.00463561
1493 1 8.82762 8.9073 26.7395 0.00688929 0.00211309 -0.00260978
1494 1 10.039 7.12528 28.0113 -0.0104266 -0.00330454 0.00221687
1495 1 10.0367 8.02243 26.77 -0.00385995 -0.00235519 -0.0033238
1496 1 11.3872 9.76532 27.9973 0.00177933 0.00313321 -0.0014607
1497 1 8.84036 9.80491 27.9727 0.00722624 -0.00320385 0.00406278
1498 1 10.0736 8.03591 29.2689 -0.00113416 -0.00841184 -0.00574376
1499 1 7.59277 7.14301 27.994 -0.000767868 -0.00883745 -0.00198179
1500 1 8.84456 8.91619 29.2636 -0.00243359 0.0109892 -0.00130629
1501 1 6.28128 8.95335 29.1924 0.00330983 -0.00217008 0.00330296
1502 1 7.52476 7.19232 30.5462 0.00111602 0.00931886 -0.0076405
1503 1 7.575 8.03009 29.2456 0.000996778 0.00242413 -0.00403611
1504 1 8.79919 9.85484 30.4732 -0.000703032 0.000423394 0.00456658
1505 1 6.26967 9.78952 30.482 0.00499053 -0.000720549 0.00187018
1506 1 7.58977 8.06315 31.8129 -0.00293551 0.00675699 -0.000452604
1507 1 5.06515 7.21044 30.5846 -0.00445382 0.0104937 -0.00452257
1508 1 6.25256 8.98027 31.8143 0.00228542 -0.00255946 -0.00649099
1509 1 3.81738 8.96038 31.8045 -0.00111668 0.00184549 -0.00389622
1510 1 4.99719 7.15727 33.1102 0.0053194 0.0056215 -0.00351328
1511 1 5.02527 8.0842 31.8578 -0.00474253 -0.00347078 -0.00352284
1512 1 6.22659 9.86901 33.0561 0.00284281 -0.00693292 -0.00658446
1513 1 3.75514 9.81714 33.0197 0.00044993 -0.00547048 -0.000679731
1514 1 5.08858 7.98749 34.3411 0.00335216 0.00523969 0.00628115
1515 1 2.46096 7.19143 33.0064 0.00776348 -0.000762925 -0.00940444
1516 1 3.74933 8.91304 34.2947 0.00403141 0.00339863 -0.00172945
1517 1 1.19456 8.86296 34.3745 -0.00312998 -0.0129315 -0.00482226
1518 1 2.52215 7.15644 35.522 0.00499024 0.00974679 0.00521533
1519 1 2.49605 8.02279 34.3197 -0.0069449 -0.00720855 -0.000609276
1520 1 3.79012 9.83213 35.5022 -0.00723265 0.00104612 0.00241182
1521 1 1.22933 9.78351 35.5783 -0.00454471 0.00374413 -0.00481067
1522 1 2.53632 8.03552 36.8333 0.00272375 -0.00632571 -0.00352131
1523 1 20.1425 7.05971 35.6197 -0.00315345 0.0034594 0.00396046
1524 1 1.26744 8.91858 36.8962 -0.0014803 0.00232523 0.00396726
1525 1 0.0293127 7.02408 38.0736 0.00275571 0.00775694 -0.000618369
1526 1 20.11 7.98099 36.8902 -0.00944238 -0.00712927 0.00482023
1527 1 1.28669 9.93328 38.0228 -0.00178454 -0.00236971 -0.00133341
1528 1 18.9507 8.94592 21.6447 0.00710505 0.000415038 -0.0114718
1529 1 18.9316 9.85134 22.9357 -0.00802344 0.00947177 0.000956209
1530 1 17.6277 7.15648 22.878 -0.00208035 -0.00253489 0.00131632
1531 1 18.8749 8.9396 24.1917 -0.00513219 -0.00393243 -0.00562791
1532 1 16.3738 8.95579 24.2142 -0.00237424 -0.00142893 -0.00400379
1533 1 17.6729 7.13695 25.4278 -0.000641572 0.00175144 -0.00361901
1534 1 17.5995 8.09065 24.2045 -0.000457297 0.00792156 0.00157767
1535 1 18.912 9.7973 25.4769 -0.00216697 -0.00899594 -0.00265328
1536 1 16.431 9.81646 25.4615 0.00524538 -0.00104112 -0.00785887
1537 1 17.7127 7.99454 26.6944 0.00904065 0.00177034 0.000375998
1538 1 15.1714 7.12796 25.4674 -0.00208293 0.00283409 0.00409751
1539 1 16.4002 8.89467 26.7337 0.00732886 0.00182239 0.00167277
1540 1 13.8474 8.94031 26.703 -0.0058282 0.00426751 -0.00394524
1541 1 15.1193 7.09807 27.9752 -0.000815962 -0.000269814 0.00284271
1542 1 15.1044 8.03839 26.7063 0.00733574 -0.00403081 0.00582093
1543 1 16.4299 9.84856 27.9861 -0.000427686 -0.000687126 0.00379735
1544 1 13.8913 9.83467 27.9761 0.00595051 0.00611651 1.32468e-05
1545 1 15.1258 8.04079 29.2407 0.00100711 -0.0086813 0.00214747
1546 1 12.6143 7.16835 28.0471 -0.00794527 -0.00392087 0.00192539
1547 1 13.8685 8.92367 29.2935 -0.00210006 -0.0093027 -0.0102964
1548 1 11.2999 8.95205 29.2801 0.000260721 -0.00853462 0.00201132
1549 1 12.6057 7.09506 30.5551 0.00207603 0.00425677 -0.000510615
1550 1 12.598 8.04728 29.3061 -0.00107043 -0.00121289 0.00282391
1551 1 13.8406 9.82149 30.483 -0.00319061 0.00439615 -0.00237994
1552 1 11.3387 9.82679 30.5128 -0.00294658 0.000853442 -0.0048061
1553 1 12.6069 8.04947 31.7589 0.00136584 -0.00324594 -0.00333953
1554 1 10.0565 7.11753 30.4788 0.000213312 0.00891495 -0.00923889
1555 1 11.343 8.9051 31.7993 0.00397208 0.0104888 -0.00142183
1556 1 8.85076 8.94005 31.8143 -0.00183338 -0.000623319 -0.00743457
1557 1 10.0807 7.16291 33.0626 -0.00167944 -0.00644208 -0.00705392
1558 1 10.1226 8.05872 31.8306 -0.00604584 -0.00665632 -0.0007905
1559 1 11.3765 9.78676 33.042 0.000902979 0.000291229 0.00465678
1560 1 8.77198 9.83505 33.0805 -0.000507747 0.00167238 -0.00171576
1561 1 10.058 8.00303 34.2644 -0.000260231 0.00107616 -0.00564201
1562 1 7.5454 7.15158 33.0334 -0.00150034 0.00903322 -0.00301153
1563 1 8.77194 8.90408 34.2316 0.00265197 0.00125389 0.000123105
1564 1 6.34827 8.92966 34.3339 -0.000204583 -0.0025966 -0.000863154
1565 1 7.57002 7.14377 35.5635 -0.00756568 0.00470414 0.00282754
1566 1 7.58431 8.04649 34.2983 0.00502235 -0.00148905 -0.00112971
1567 1 8.8195 9.79399 35.5421 -0.00232093 0.00109763 -0.00545851
1568 1 6.33751 9.82037 35.6147 -0.0047878 0.016201 -0.000329426
1569 1 7.54491 8.08276 36.8815 -0.00720062 0.00173732 -0.000944044
1570 1 5.0592 7.13566 35.5722 0.00337966 0.00577075 -0.00450752
1571 1 6.32274 8.98451 36.9246 0.000457409 0.00294444 0.00140795
1572 1 3.74223 8.9444 36.8633 3.34691e-06 -0.00118135 -0.000680596
1573 1 5.03345 7.10147 38.0362 -0.00620052 0.00567298 0.00208035
1574 1 5.01559 8.0785 36.893 0.00548898 -0.00261609 0.00106948
1575 1 6.29429 9.89258 38.1032 -0.0025243 0.0124017 -0.00207164
1576 1 3.71613 9.99543 37.9293 -0.00110665 0.00392798 0.000621392
1577 1 2.51135 7.06734 37.9768 0.0023572 -0.00441065 0.000649479
1578 1 18.9391 8.90204 26.7448 0.00201244 -0.000817698 -0.00824418
1579 1 18.9134 9.80993 27.9665 -0.00345664 0.00395353 0.0027449
1580 1 17.6415 7.16523 27.9873 0.00650205 -0.0025741 -0.00705946
1581 1 18.8802 8.89061 29.2791 0.00256265 -0.00252485 -0.00237467
1582 1 16.3961 8.93746 29.2588 0.00491492 0.00356539 0.000112331
1583 1 17.6067 7.15606 30.5767 0.00138821 0.000583224 -0.00611563
1584 1 17.6439 8.04331 29.229 0.000329399 -0.00387529 -0.00543133
1585 1 18.9088 9.8111 30.6112 -0.00147315 0.00313476 -0.000783082
1586 1 16.3379 9.8046 30.5654 0.00458955 -0.00369423 -0.000540883
1587 1 17.5851 8.0783 31.8137 -0.00734705 -0.00310143 -0.00455927
1588 1 15.0541 7.16243 30.5111 -0.00429499 0.000106598 -0.00671855
1589 1 16.3227 8.97009 31.8514 0.00283375 0.0114922 0.00424506
1590 1 13.8383 8.93681 31.7314 0.00753655 -0.00595953 0.00225055
1591 1 15.1328 7.1177 32.9965 0.00532765 0.00301945 0.00413237
1592 1 15.1064 8.03801 31.7739 0.00107249 0.00461438 -0.00115334
1593 1 16.3879 9.81323 33.1083 0.00105709 0.00462258 -0.0024389
1594 1 13.8644 9.84172 33.0406 -0.000367222 -0.00192572 -0.00127509
1595 1 15.1482 7.97718 34.312 -0.00491059 -0.000494439 -0.00814524
1596 1 12.6016 7.15627 33.1202 -0.00532786 0.00679006 0.00680379
1597 1 13.8783 8.93977 34.3388 0.00273268 0.00246105 -0.00721852
1598 1 11.3471 8.91227 34.323 0.000814382 0.00694853 0.00379062
1599 1 12.5936 7.17626 35.5516 0.00827284 -0.00891946 -0.00274045
1600 1 12.6303 8.03559 34.3083 -0.00548761 0.00830202 -0.0127559
1601 1 13.8979 9.81556 35.6164 0.00607281 0.0121594 -0.00524866
1602 1 11.3802 9.74494 35.5767 0.00752616 -0.00273536 -0.000163253
1603 1 12.6464 8.00006 36.9399 -0.0046592 0.00456413 0.00321967
1604 1 10.1055 7.11013 35.5378 -0.00355575 -0.0057166 0.00389047
1605 1 11.3943 8.8655 36.9173 0.00904625 -0.00068103 0.00564075
1606 1 8.8347 8.94967 36.8667 0.00847624 -0.00440587 -0.000534506
1607 1 10.144 7.11664 38.017 -0.00447287 0.00160806 -0.00551076
1608 1 10.0792 8.04488 36.8035 -0.00233871 -0.00466506 0.00480164
1609 1 11.3011 9.85843 38.0474 -0.000709782 -0.00121073 -0.00411611
1610 1 8.8147 9.89253 38.0251 0.00440367 0.0035848 -0.00185795
1611 1 7.55657 7.04629 38.0446 -0.000278047 -0.00200977 0.00237918
1612 1 18.8777 8.90576 31.8376 -0.0028909 -0.00295877 -0.00988274
1613 1 18.9158 9.82425 33.0657 -0.00360069 -0.00116705 -0.00604721
1614 1 17.6445 7.1528 33.0644 0.0043304 -0.0116556 -0.00683011
1615 1 18.9305 8.9532 34.3557 0.00102562 0.00110364 -0.00318774
1616 1 16.3726 8.89151 34.3891 0.00552137 0.00367302 0.000320009
1617 1 17.6775 7.07695 35.6111 0.00831864 -0.012135 -0.000761739
1618 1 17.6949 7.98997 34.3347 0.00224624 -9.73626e-05 0.00324848
1619 1 18.9483 9.9065 35.636 -0.00671481 -0.00104475 -0.0115361
1620 1 16.3574 9.82125 35.6351 0.00104612 -0.00477306 -0.00816792
1621 1 17.6456 7.97718 36.8453 -0.00469713 -0.00132084 0.00825188
1622 1 15.1317 7.09129 35.5659 0.00653329 0.00248397 -0.00236958
1623 1 16.3816 8.89883 36.901 -0.00369762 -0.00655112 0.00242508
1624 1 13.8683 8.92866 36.88 0.000440707 -0.00634158 -0.00864908
1625 1 15.1157 7.02246 38.0253 -0.00690869 -0.0027314 -0.00795003
1626 1 15.1092 8.04161 36.8568 0.0107912 8.48325e-05 0.000367413
1627 1 16.3843 9.94092 38.0592 0.00535128 0.00426939 -0.00140857
1628 1 13.8383 9.91265 38.0098 0.00169916 0.00611395 -0.00557266
1629 1 12.6003 7.00735 38.043 -0.00232428 0.000131635 0.00265643
1630 1 18.8433 8.8722 36.9134 0.00635699 -4.17721e-06 0.00276635
1631 1 18.918 9.84949 38.0946 0.00276165 0.00220451 0.00855152
1632 1 17.6352 7.03217 38.026 -0.00464121 -3.81227e-05 0.00351613
1633 1 2.52111 11.5875 -3.78166 0 0 0
1634 1 1.26055 12.4789 -3.78166 0 0 0
1635 1 0 10.6962 -2.52111 0 0 0
1636 1 0 11.5875 -3.78166 0 0 0
1637 1 1.26055 13.3702 -2.52111 0 0 0
1638 1 0 11.5875 -1.26055 0 0 0
1639 1 7.56333 11.5875 -3.78166 0 0 0
1640 1 6.30277 12.4789 -3.78166 0 0 0
1641 1 3.78166 12.4789 -3.78166 0 0 0
1642 1 5.04222 10.6962 -2.52111 0 0 0
1643 1 5.04222 11.5875 -3.78166 0 0 0
1644 1 6.30277 13.3702 -2.52111 0 0 0
1645 1 3.78166 13.3702 -2.52111 0 0 0
1646 1 5.04222 11.5875 -1.26055 0 0 0
1647 1 2.52111 10.6962 -2.52111 0 0 0
1648 1 3.78166 12.4789 -1.26055 0 0 0
1649 1 1.26055 12.4789 -1.26055 0 0 0
1650 1 2.54945 10.7407 0.0109215 -0.00201126 -0.00423898 0.00216072
1651 1 2.52111 11.5875 -1.26055 0 0 0
1652 1 3.7794 13.385 0.00671697 0.00232084 0.00659333 -0.00585908
1653 1 1.24103 13.3264 0.0343836 0.00290503 0.00338096 0.00208013
1654 1 2.50758 11.5858 1.2883 -0.00630118 0.000463287 0.00581211
1655 1 0.0508958 10.7234 0.0636638 0.00967081 0.00599781 -0.0124841
1656 1 1.25811 12.4442 1.32243 0.000574815 -0.00265483 -0.0021921
1657 1 20.1607 10.7092 2.5175 -0.00149626 -0.00256864 0.00679491
1658 1 20.1266 11.5825 1.32348 -0.0001901 0.0038924 -0.0022988
1659 1 1.22838 13.3306 2.57864 -0.00295973 -0.00324472 0.00294765
1660 1 20.1523 11.5976 3.79975 0.0064889 -0.000103736 -0.000446923
1661 1 12.6055 11.5875 -3.78166 0 0 0
1662 1 11.345 12.4789 -3.78166 0 0 0
1663 1 8.82388 12.4789 -3.78166 0 0 0
1664 1 10.0844 10.6962 -2.52111 0 0 0
1665 1 10.0844 11.5875 -3.78166 0 0 0
1666 1 11.345 13.3702 -2.52111 0 0 0
1667 1 8.82388 13.3702 -2.52111 0 0 0
1668 1 10.0844 11.5875 -1.26055 0 0 0
1669 1 7.56333 10.6962 -2.52111 0 0 0
1670 1 8.82388 12.4789 -1.26055 0 0 0
1671 1 6.30277 12.4789 -1.26055 0 0 0
1672 1 7.54944 10.7389 0.00957434 -0.00652057 0.00363763 -0.0046246
1673 1 7.56333 11.5875 -1.26055 0 0 0
1674 1 8.86402 13.423 -0.0167313 0.00188943 0.00661955 0.00129201
1675 1 6.30112 13.369 -0.0273091 -0.00169437 -0.00410372 -0.00167775
1676 1 7.54862 11.5911 1.25694 0.00125194 0.00105942 0.00621555
1677 1 5.03234 10.7423 -0.0145455 0.00600051 0.00970342 -0.0025026
1678 1 6.28609 12.4917 1.24862 -0.00197806 0.00594767 0.00352315
1679 1 3.79726 12.4511 1.35506 -0.00718025 -0.00447726 -0.00188322
1680 1 5.0736 10.7194 2.53664 0.000732718 0.00350736 0.00379458
1681 1 5.04702 11.6385 1.29806 0.00208795 0.00396912 -0.00178828
1682 1 6.25173 13.3719 2.49308 0.00426915 0.00473598 -0.00300835
1683 1 3.74385 13.3169 2.6126 -0.00295146 -0.00194937 -0.00964431
1684 1 5.05615 11.5704 3.81352 0.00563255 0.00950868 -0.00769401
1685 1 2.53864 10.6697 2.57092 0.00118347 0.00607183 -0.00493666
1686 1 3.76895 12.4501 3.86641 0.0122425 -0.00229635 0.00372917
1687 1 1.27422 12.4656 3.85975 0.00746841 0.00412107 0.00134432
1688 1 2.5613 10.6599 5.12716 -0.00607295 -0.00277181 1.15841e-05
1689 1 2.53925 11.6062 3.84484 0.00183528 -0.00204591 9.5371e-05
1690 1 3.77677 13.3286 5.14342 0.000940154 -0.00306976 0.00143802
1691 1 1.25699 13.3827 5.14364 -0.00187346 -0.00724836 -0.00360466
1692 1 2.55202 11.5469 6.35381 -0.000520009 0.00408792 0.00317844
1693 1 0.00158873 10.7022 5.04947 -0.00817334 -0.000894958 0.000393955
1694 1 1.25993 12.4725 6.41964 -0.00468942 0.00753925 0.0064543
1695 1 0.042911 10.7416 7.63094 -0.000545464 0.00372704 0.001161
1696 1 0.015435 11.6062 6.36396 0.00503029 0.000340568 -0.000207405
1697 1 1.27358 13.3592 7.65781 -0.00919878 0.00162035 0.000940447
1698 1 20.1578 11.5518 8.95171 0.00065101 -0.00322418 -0.00180197
1699 1 17.6478 11.5875 -3.78166 0 0 0
1700 1 16.3872 12.4789 -3.78166 0 0 0
1701 1 13.8661 12.4789 -3.78166 0 0 0
1702 1 15.1267 10.6962 -2.52111 0 0 0
1703 1 15.1267 11.5875 -3.78166 0 0 0
1704 1 16.3872 13.3702 -2.52111 0 0 0
1705 1 13.8661 13.3702 -2.52111 0 0 0
1706 1 15.1267 11.5875 -1.26055 0 0 0
1707 1 12.6055 10.6962 -2.52111 0 0 0
1708 1 13.8661 12.4789 -1.26055 0 0 0
1709 1 11.345 12.4789 -1.26055 0 0 0
1710 1 12.5755 10.7452 0.0201744 0.000956971 0.00706966 0.000396997
1711 1 12.6055 11.5875 -1.26055 0 0 0
1712 1 13.8787 13.3549 0.0471838 -0.00469755 0.000811444 -0.0050367
1713 1 11.3671 13.4577 -0.0446302 -0.000926296 0.00742643 0.00365179
1714 1 12.6015 11.6044 1.27776 0.000744214 -0.00592 -0.00107879
1715 1 10.0579 10.759 -0.00131512 0.0120749 0.00233126 0.00124361
1716 1 11.327 12.5382 1.26635 0.00663048 -0.0048369 0.00351381
1717 1 8.83125 12.5025 1.26153 0.00206271 0.00116036 -0.000555638
1718 1 10.0845 10.6887 2.55698 -0.00275986 0.000588163 0.0031003
1719 1 10.0919 11.6526 1.29246 0.00271427 -0.00474227 0.0020401
1720 1 11.3561 13.3716 2.5721 0.00223948 0.00920274 0.00374023
1721 1 8.83614 13.4219 2.50143 -0.00326217 0.00304246 0.00142264
1722 1 10.062 11.5552 3.81127 -0.00110922 -0.00250384 -0.0035218
1723 1 7.61321 10.7328 2.53272 0.00933845 -0.00704386 0.00451734
1724 1 8.78434 12.5425 3.81154 -0.00425412 -0.00297364 0.00661257
1725 1 6.22292 12.4648 3.79869 0.00825747 -0.0035945 0.00129991
1726 1 7.62128 10.726 5.10236 0.00515053 0.00312972 -0.00146064
1727 1 7.55512 11.6183 3.84383 -0.000461256 0.00554907 -0.00268755
1728 1 8.86837 13.4127 5.14161 -0.00410734 0.00131602 -0.00157178
1729 1 6.30574 13.3446 5.06484 -0.00306692 -0.00672997 0.00424341
1730 1 7.56853 11.6077 6.39524 -0.000586949 0.00911473 -0.00193253
1731 1 5.09745 10.622 5.08865 -0.00576347 -0.000571784 0.00194916
1732 1 6.33489 12.4776 6.36547 -0.000419597 0.00120628 -0.0027851
1733 1 3.81191 12.4519 6.41673 -0.00198678 0.00842863 -0.00793861
1734 1 5.13663 10.6981 7.61264 -0.00282578 -0.00170816 -0.00321194
1735 1 5.11357 11.5637 6.35064 0.00119515 -0.00442507 -0.00629538
1736 1 6.39113 13.3535 7.69523 0.00212929 0.00224051 -0.00336281
1737 1 3.8332 13.3995 7.63219 0.00504476 0.00334572 -0.00301278
1738 1 5.04428 11.6266 8.89458 0.00572857 -0.00462119 -0.00216711
1739 1 2.56151 10.6993 7.62426 -0.00160995 0.00792558 -0.000739325
1740 1 3.78984 12.4731 8.92602 0.00147775 -0.000995121 0.00404246
1741 1 1.24766 12.437 8.91832 -0.00400802 -0.00656388 0.00944536
1742 1 2.53842 10.6481 10.1708 0.00709933 0.00731584 0.00673392
1743 1 2.53821 11.5921 8.89726 -0.000555505 0.0115169 0.00721399
1744 1 3.79363 13.3721 10.1996 0.00010228 -0.00170551 -0.00918975
1745 1 1.29463 13.3249 10.1913 0.00901012 -0.00287756 0.00367353
1746 1 2.54547 11.6123 11.4751 0.00505407 -0.00151763 -0.00517677
1747 1 0.00289117 10.6604 10.199 0.00342048 -0.00291212 -0.00381743
1748 1 1.26129 12.4374 11.46 -0.00949415 0.00241047 -0.00127086
1749 1 0.00222592 10.6926 12.7374 0.000365134 -0.000566032 -0.00325866
1750 1 0.0572108 11.5636 11.4909 -0.00208216 0.00145956 -0.00480213
1751 1 1.26808 13.3672 12.7634 0.0042361 -0.000102286 -0.00368197
1752 1 0.0321445 11.5444 14.031 0.00261793 0.000201384 0.008077
1753 1 18.9083 12.4789 -3.78166 0 0 0
1754 1 18.9083 13.3702 -2.52111 0 0 0
1755 1 17.6478 10.6962 -2.52111 0 0 0
1756 1 18.9083 12.4789 -1.26055 0 0 0
1757 1 16.3872 12.4789 -1.26055 0 0 0
1758 1 17.6717 10.7067 0.0225664 0.000516566 0.00276442 -0.00399807
1759 1 17.6478 11.5875 -1.26055 0 0 0
1760 1 18.8846 13.3388 0.0436387 -0.0016594 0.00181507 -0.0056343
1761 1 16.3511 13.3943 -0.00497713 0.00176384 0.00145156 0.000888514
1762 1 17.6537 11.5713 1.26616 0.00254359 -0.00339827 -0.0117943
1763 1 15.1132 10.7011 0.0177417 0.00148934 0.00384965 -0.00290727
1764 1 16.3913 12.4693 1.2655 0.000848848 -0.0103228 0.00305548
1765 1 13.899 12.4457 1.28644 0.011849 -0.00567516 -0.00150412
1766 1 15.1374 10.7132 2.57295 -0.0015586 -0.000186145 0.0100507
1767 1 15.1249 11.586 1.32675 0.00353804 0.00269534 0.00174558
1768 1 16.3732 13.345 2.5383 0.000719097 0.00612838 0.000603226
1769 1 13.8425 13.3461 2.56036 -0.00267405 -0.00458009 0.00180192
1770 1 15.1453 11.6221 3.87339 -0.00260814 -0.00176138 0.0074569
1771 1 12.5892 10.7095 2.56442 0.00687755 -0.0031328 -0.00585168
1772 1 13.8489 12.4639 3.82585 -0.0110811 -0.0023057 0.000100931
1773 1 11.3117 12.4426 3.80798 0.00162423 -0.00117085 0.00112974
1774 1 12.5804 10.7669 5.11226 -0.000506609 0.00630528 0.000122164
1775 1 12.617 11.6125 3.81223 -0.00192845 -0.000723501 -0.00192587
1776 1 13.8433 13.3659 5.11477 -0.00492191 -0.00392879 0.00101984
1777 1 11.3876 13.3816 5.09103 -9.54038e-05 -0.0137342 -0.0013361
1778 1 12.6409 11.6922 6.36891 0.00222579 -0.0080724 0.00645895
1779 1 10.1366 10.7372 5.1053 0.0013458 0.00342586 0.00595915
1780 1 11.3276 12.532 6.36278 -0.00046429 -0.00669286 0.00265133
1781 1 8.81379 12.5391 6.41907 0.00269843 0.0020551 0.00117299
1782 1 10.1413 10.7564 7.65212 0.000620468 -0.00776185 0.00557496
1783 1 10.1285 11.6188 6.35839 -0.00117531 -0.00682883 0.00120172
1784 1 11.3193 13.4496 7.71174 -0.00308159 -0.00255356 -0.00850932
1785 1 8.83201 13.4064 7.73712 0.00217491 0.00254735 0.00568703
1786 1 10.128 11.5891 8.9135 -0.00199689 0.00944403 -0.00528179
1787 1 7.65805 10.7041 7.6346 0.00970741 0.00560832 -0.00433334
1788 1 8.81463 12.4909 8.94477 0.0017227 0.00426787 0.00114105
1789 1 6.33702 12.4864 8.97195 0.00801961 -0.00862571 -0.00126393
1790 1 7.5982 10.7028 10.25 -0.00289565 0.00454047 -0.00177673
1791 1 7.58033 11.5414 8.92711 0.000426319 -0.00660286 -0.000783441
1792 1 8.81803 13.3768 10.2029 0.000454701 -0.00526043 -0.00516931
1793 1 6.27881 13.4019 10.2526 -0.00941351 0.000193194 -0.0101917
1794 1 7.60942 11.645 11.4972 -0.00682061 -0.0048701 0.0102644
1795 1 5.01842 10.7121 10.2141 0.00250815 -0.00283459 0.00265786
1796 1 6.3175 12.4901 11.4516 -0.00441988 -0.00530342 2.36177e-05
1797 1 3.80515 12.5204 11.4735 -0.00321004 -0.0036049 0.000718224
1798 1 5.12112 10.719 12.6804 0.00494025 0.003405 0.00158287
1799 1 5.03292 11.593 11.4662 0.00417193 -0.000512143 -0.00611015
1800 1 6.30221 13.3826 12.7525 0.00740528 -0.00466314 0.00649848
1801 1 3.78833 13.3617 12.789 0.0086788 -0.00146838 -0.000581277
1802 1 5.10835 11.5968 13.9858 -0.00365387 0.00597117 0.00580289
1803 1 2.49339 10.7 12.7508 -0.007759 0.00351464 -0.000242717
1804 1 3.7835 12.4425 14.008 0.00536603 0.00560618 0.00857715
1805 1 1.27634 12.4399 13.9766 -0.00674616 -0.00578742 -0.00211253
1806 1 2.51284 10.6682 15.2776 -0.00303975 0.0037899 -0.00649078
1807 1 2.5276 11.5582 14.0314 -0.00904082 -0.00627888 -0.0047439
1808 1 3.76457 13.3346 15.3156 -0.00535715 -0.00561548 0.00234401
1809 1 1.29521 13.3908 15.3049 -0.00148257 0.00362498 0.00528803
1810 1 2.50676 11.6558 16.5677 -0.00304207 -0.00379052 0.00550947
1811 1 0.0719878 10.6677 15.3168 0.000306913 -0.00755192 -0.00423005
1812 1 1.31221 12.5028 16.5877 -0.00125786 0.00345291 -0.00141395
1813 1 0.0830158 10.6686 17.8253 0.00465986 0.00163112 -0.00531475
1814 1 0.0448056 11.5667 16.5421 -0.000214427 -0.0099933 0.00312814
1815 1 1.28895 13.3668 17.8446 -0.00106891 0.00177341 -0.00242094
1816 1 0.0704963 11.6072 19.1532 -0.00879253 -0.0162111 -0.0118695
1817 1 18.8288 12.4388 1.28134 -0.00392998 -0.00047308 0.00482105
1818 1 18.8777 13.3509 2.58864 0.00416494 0.00013206 -0.00155691
1819 1 17.6474 10.6862 2.54048 -0.000410033 0.0059391 -0.00350724
1820 1 18.9337 12.4608 3.86813 -0.00127255 0.00539124 0.00198588
1821 1 16.4254 12.4584 3.8392 0.00017843 0.000814474 0.00322989
1822 1 17.7007 10.7569 5.16595 -0.000698657 0.00167 -0.000186272
1823 1 17.6269 11.6117 3.86346 -0.00255837 -2.23586e-05 0.00335185
1824 1 18.8803 13.3636 5.09637 -0.00392052 0.00326132 0.00246352
1825 1 16.4196 13.3222 5.10911 -0.00239895 -0.00072284 -0.00396406
1826 1 17.6742 11.62 6.42788 0.00742852 -0.00172064 0.00227816
1827 1 15.092 10.7299 5.10381 0.00652947 -0.00500796 0.00527114
1828 1 16.396 12.586 6.37617 -0.00724339 0.00118587 0.00466418
1829 1 13.8566 12.4927 6.37728 -0.00460673 0.00171546 0.00263835
1830 1 15.1438 10.7882 7.68233 0.000641263 -0.00945662 0.00465541
1831 1 15.1414 11.6035 6.40455 0.000737646 0.00451113 -0.00523845
1832 1 16.3893 13.4506 7.67535 -0.00246543 0.00222107 -0.00153864
1833 1 13.8503 13.4675 7.66546 -0.00247134 -0.0069719 0.00130902
1834 1 15.1162 11.6408 8.94478 0.00605556 -0.00849979 -0.00624688
1835 1 12.6223 10.7805 7.66574 0.0035247 -0.00344673 0.00169344
1836 1 13.8201 12.4969 8.9752 -0.00170088 0.000964176 -0.00197724
1837 1 11.3423 12.5244 8.89012 0.00239614 0.00474948 -0.00673129
1838 1 12.6327 10.7004 10.2178 0.00429567 -3.33704e-05 -0.00443847
1839 1 12.6224 11.6769 8.8848 -0.00330834 0.00140334 -0.00285161
1840 1 13.8846 13.4519 10.2002 -0.00280768 0.00361554 0.00191359
1841 1 11.3598 13.3379 10.2251 0.00664643 0.00780865 0.012663
1842 1 12.6159 11.6097 11.4319 -0.00327588 -0.00579071 -0.00357
1843 1 10.1333 10.7025 10.2078 0.00442973 -0.00066408 0.00826963
1844 1 11.3812 12.4676 11.4755 0.000111326 0.000181621 0.00102504
1845 1 8.84251 12.4997 11.5005 0.00156072 -0.000603333 -0.00796663
1846 1 10.2063 10.682 12.7602 0.00837676 0.000254468 -0.00220299
1847 1 10.1103 11.5372 11.4821 0.000519649 0.00110223 -0.00213007
1848 1 11.3218 13.3694 12.7177 0.0103597 -0.00038948 0.00277656
1849 1 8.88362 13.3712 12.7313 -0.00112261 -0.0023449 -0.00236285
1850 1 10.1138 11.6307 13.9983 0.00113113 -0.0011212 -0.000290499
1851 1 7.63535 10.7104 12.7404 -0.00221183 -0.00532368 -7.46451e-05
1852 1 8.90786 12.5123 13.9982 -0.0048539 -0.00246164 -0.00205045
1853 1 6.33819 12.463 14.0318 0.0090665 0.00199975 -0.00679831
1854 1 7.61176 10.7219 15.2841 -0.00665016 -0.00137037 0.0022215
1855 1 7.66092 11.5967 14.0109 -0.00436411 0.00825807 -0.00653056
1856 1 8.84842 13.3728 15.295 0.00276709 -0.00151914 -0.0093886
1857 1 6.30807 13.3481 15.2751 -0.00318295 -0.00346703 0.00661526
1858 1 7.62236 11.5901 16.5991 0.00113788 0.00211881 0.00159571
1859 1 5.06003 10.6947 15.3054 -0.000137335 -0.00260752 -0.00147478
1860 1 6.30831 12.4698 16.6162 -0.0059153 -8.33935e-05 -0.000930994
1861 1 3.76499 12.4621 16.6177 -0.00195725 -0.00304695 -0.00354996
1862 1 5.11181 10.6938 17.8667 -0.00187159 -0.00537953 -0.00142997
1863 1 5.05322 11.5728 16.6009 0.00343659 0.000248587 -0.00750082
1864 1 6.34676 13.3312 17.848 0.00491907 0.00075646 -0.00348751
1865 1 3.79483 13.3725 17.8766 0.0073688 0.0069326 0.000739763
1866 1 5.07371 11.6135 19.1412 0.00590933 0.00133427 0.00647126
1867 1 2.58232 10.736 17.8738 0.000239086 0.00318291 -0.00408309
1868 1 3.83406 12.4923 19.1695 -0.00671992 -0.00874731 0.00399129
1869 1 1.31644 12.4902 19.151 -0.00751726 0.00831789 -0.0036349
1870 1 2.56107 10.7035 20.4143 -0.00645989 -0.000507899 -0.004864
1871 1 2.58236 11.6106 19.124 0.00458099 0.00421664 0.00990249
1872 1 3.85802 13.3987 20.3949 0.00046918 -0.00434782 -0.00298236
1873 1 1.32752 13.3142 20.4085 -0.0044813 0.000184089 0.00875614
1874 1 2.59133 11.5683 21.6359 0.000136836 0.000935707 -0.00202497
1875 1 0.036623 10.7223 20.4206 0.0039624 0.00213441 -0.00670371
1876 1 1.30118 12.5164 21.6387 -0.00426304 0.00325823 -0.00284153
1877 1 0.0547364 10.676 22.8886 0.00341835 0.00109083 -0.00337976
1878 1 0.00524573 11.5537 21.6785 0.00405274 -0.00617127 0.000406794
1879 1 1.27765 13.4027 22.908 0.00963186 0.00120484 -0.000200781
1880 1 0.0388574 11.6183 24.2469 -0.000162404 0.00615232 -0.000481908
1881 1 18.9594 12.5243 6.3991 0.00335206 -0.00867478 -0.00590846
1882 1 18.9742 13.4393 7.698 0.00397725 -0.00153747 0.00255262
1883 1 17.6706 10.711 7.66671 -0.000133917 0.00133017 -0.00122013
1884 1 18.926 12.5058 8.94893 -0.00605863 -0.000629497 -0.00367493
1885 1 16.3984 12.5938 8.90139 0.00650125 0.00109048 -0.000407796
1886 1 17.6423 10.7733 10.2257 -4.84279e-05 -0.00558736 0.00333845
1887 1 17.6816 11.6334 8.89783 0.00255004 0.00172979 0.0102758
1888 1 18.8733 13.3897 10.264 -0.00137981 0.00440767 -0.00516481
1889 1 16.3927 13.4501 10.2259 0.00716775 0.00650498 -0.0011578
1890 1 17.6099 11.5896 11.4567 0.00528787 0.0043672 0.000419239
1891 1 15.1719 10.7532 10.2172 0.00712978 0.00270914 0.0023102
1892 1 16.3961 12.5171 11.4646 0.000427895 0.00641814 -0.00595213
1893 1 13.8872 12.5285 11.4443 -0.00248658 0.00211015 -0.00659904
1894 1 15.1392 10.6747 12.7259 0.00654154 0.000356479 -0.00746725
1895 1 15.116 11.6186 11.4441 -3.88334e-05 0.00573548 -0.00205652
1896 1 16.4142 13.3489 12.7906 0.00256492 0.00354533 -0.00955662
1897 1 13.8799 13.3443 12.6853 0.00574852 -0.00554359 -0.000187009
1898 1 15.112 11.6091 14.0471 -0.00417684 0.00299841 -0.00080503
1899 1 12.6553 10.7287 12.7152 -0.000440966 0.00211313 -0.00572285
1900 1 13.8536 12.5354 14.0146 0.00298773 -0.00135584 -0.00304335
1901 1 11.3823 12.5233 13.9975 -0.000353685 -0.0051298 -0.00767716
1902 1 12.6531 10.7577 15.2307 0.001145 0.000920917 -0.000434723
1903 1 12.6179 11.6287 14.0003 -2.4418e-05 0.00914532 -0.00453462
1904 1 13.8968 13.4176 15.2885 0.00533629 -0.00314319 -0.00025194
1905 1 11.3482 13.3988 15.2662 0.000148239 -0.00086018 -0.00146446
1906 1 12.611 11.6695 16.5714 0.00183877 0.00317969 -0.000236299
1907 1 10.1173 10.7523 15.3008 0.0026669 0.00805078 0.000108416
1908 1 11.3434 12.5119 16.5762 0.000184806 0.000896279 -0.00492831
1909 1 8.90223 12.4552 16.5506 -0.00105025 -0.000463282 -0.00477746
1910 1 10.136 10.7125 17.8143 -0.00174531 0.00561332 -0.00146368
1911 1 10.1127 11.5994 16.5706 -0.00740929 -0.00180433 -0.00764209
1912 1 11.4177 13.3711 17.8268 -0.00366015 -0.00211054 0.00377773
1913 1 8.92945 13.3608 17.7928 -0.0060354 -0.00061752 -0.00245286
1914 1 10.1512 11.6518 19.1709 0.00644394 0.00386691 0.00540089
1915 1 7.57631 10.7252 17.8514 -0.00390699 -0.0111321 -0.00757761
1916 1 8.89253 12.4792 19.0966 -0.001011 0.004339 -0.000679444
1917 1 6.33693 12.469 19.1003 0.00320048 -0.00130719 -0.0117459
1918 1 7.63892 10.7758 20.4258 0.00544992 -0.00357699 -0.00793533
1919 1 7.62686 11.599 19.0772 0.00039082 0.0057343 -0.00464103
1920 1 8.90554 13.3722 20.407 -0.00231222 -0.0015267 -0.00318327
1921 1 6.38717 13.3921 20.368 0.000543628 -0.00749616 0.00241852
1922 1 7.681 11.5838 21.6425 -0.0042889 -0.00145386 0.0042106
1923 1 5.15728 10.7453 20.3777 -0.00291881 0.00656639 0.00366002
1924 1 6.41385 12.4612 21.6119 0.00604918 -0.000303668 -0.00191592
1925 1 3.84781 12.4762 21.6721 0.000351401 0.00194815 0.000920039
1926 1 5.08657 10.7501 22.9328 0.0014795 0.00467539 -0.00999951
1927 1 5.1578 11.6277 21.6277 -0.00790951 -0.00426345 -0.00177133
1928 1 6.32098 13.4029 22.8933 -0.0075892 -0.00372776 0.000135958
1929 1 3.85769 13.3636 22.9154 0.0051439 0.000925392 0.00419965
1930 1 5.08977 11.608 24.1782 2.3499e-05 0.00426271 -0.00994616
1931 1 2.51554 10.6524 22.8732 -0.00152728 -0.0050532 -0.00638886
1932 1 3.78096 12.4842 24.1839 -0.00333846 -0.00487936 -0.00563044
1933 1 1.37454 12.5018 24.1153 -0.00383554 -0.0015975 0.00206221
1934 1 2.53042 10.7752 25.3778 -0.00231692 -0.00574837 -0.00493235
1935 1 2.54389 11.6027 24.139 0.00218829 -0.000551448 -0.00261667
1936 1 3.80389 13.3602 25.4263 6.7049e-05 -0.0124567 0.000854571
1937 1 1.31096 13.4279 25.4442 -0.00526766 -7.16474e-05 -0.00101164
1938 1 2.51588 11.6167 26.7127 0.00270678 0.0012986 -0.00646882
1939 1 0.0460361 10.7314 25.4693 0.00493706 -0.000430722 -0.00236808
1940 1 1.28892 12.5245 26.7202 0.000197813 -0.00475049 -0.00465024
1941 1 0.00657347 10.7181 27.9601 -0.00288976 -0.00737942 0.00191308
1942 1 20.1472 11.6523 26.7184 0.0101083 0.000122258 -0.000231582
1943 1 1.24208 13.3913 27.9754 0.0037766 -0.000525634 0.00228767
1944 1 20.1634 11.5533 29.2679 -0.00317056 -0.007256 0.00158994
1945 1 18.9009 12.4536 11.5018 -0.00163604 0.00128136 -0.00242411
1946 1 18.9229 13.3547 12.7396 -0.00446936 -0.00209083 -0.000260994
1947 1 17.672 10.663 12.7549 0.00473352 -0.00254321 0.00624927
1948 1 18.9485 12.4678 14.0019 0.00301334 0.00381422 -0.00620785
1949 1 16.4386 12.4629 14.0617 -0.00040799 0.000118922 -0.00056695
1950 1 17.7103 10.6245 15.2906 -0.00777641 0.00233716 0.00125485
1951 1 17.7336 11.5114 14.0139 -0.00233835 0.00530819 0.000464855
1952 1 18.9668 13.3478 15.2641 0.00415668 -0.00117736 -0.0040534
1953 1 16.4293 13.3468 15.2554 -0.000356136 0.00182202 -0.0124073
1954 1 17.7291 11.5596 16.5264 0.00409299 0.00489986 -0.00427852
1955 1 15.1238 10.6554 15.2711 -0.00399289 0.00365962 -0.00233421
1956 1 16.4424 12.4438 16.5322 -0.000880619 0.00222174 -0.00931188
1957 1 13.916 12.54 16.5481 -0.00221252 0.00480747 0.00251951
1958 1 15.1612 10.674 17.8617 -0.00318367 -0.0032442 -0.00239037
1959 1 15.1376 11.5876 16.5592 0.00411556 -0.00184969 0.000607687
1960 1 16.415 13.3215 17.7724 -0.0011164 0.00497905 -0.00666651
1961 1 13.943 13.4196 17.8342 0.00953371 0.00582211 -0.0070962
1962 1 15.1163 11.6097 19.1162 -0.00358959 0.00068042 0.00447204
1963 1 12.6265 10.7551 17.7851 0.00122332 0.00785242 -0.00711085
1964 1 13.8836 12.5351 19.1144 0.00404078 0.00423012 -0.00231388
1965 1 11.4559 12.5044 19.0848 0.00370595 0.0015332 -0.0034504
1966 1 12.6227 10.6968 20.4177 -0.00213322 0.0143512 -0.00765864
1967 1 12.6555 11.6469 19.0754 0.00380531 0.000299521 -0.00668024
1968 1 13.8713 13.4038 20.4005 0.00547031 0.0046048 -0.00835637
1969 1 11.4138 13.3612 20.4263 0.00124225 0.00447791 -0.00142254
1970 1 12.625 11.5799 21.6993 0.00556697 -0.00919034 0.00703224
1971 1 10.1349 10.7407 20.4176 0.00432306 0.00108956 0.00830727
1972 1 11.3719 12.475 21.653 -0.0017067 0.00298292 -0.00523571
1973 1 8.91227 12.5372 21.6047 -0.00799236 -0.00126844 -0.0121433
1974 1 10.1245 10.7131 22.8976 -6.62156e-05 0.00195442 0.0089579
1975 1 10.1059 11.5927 21.6573 -0.00700623 -0.00390047 0.00213943
1976 1 11.4367 13.3794 22.9729 -0.00535818 0.000378828 -0.00823065
1977 1 8.89539 13.3976 22.9111 0.00138173 -0.0027812 -0.000432454
1978 1 10.1249 11.5711 24.2058 0.00323649 -0.00138685 0.0077663
1979 1 7.59972 10.6831 22.9346 0.00483863 0.00249619 -0.000111871
1980 1 8.82862 12.4607 24.1937 0.000389247 0.00271372 -8.1649e-05
1981 1 6.29339 12.4883 24.19 0.000202249 0.00773566 -0.00256358
1982 1 7.58467 10.7201 25.414 -0.00847151 -0.00109077 -0.00385211
1983 1 7.55576 11.6078 24.1696 0.00347884 0.00378318 0.00664659
1984 1 8.84191 13.3311 25.4489 0.00429881 0.00397025 0.0066648
1985 1 6.29539 13.4132 25.4574 0.0027319 0.0031943 -0.000845273
1986 1 7.58884 11.5953 26.7037 -0.000971736 -0.00416497 -0.0023311
1987 1 5.03553 10.74 25.486 0.000797165 0.00294527 0.00125805
1988 1 6.33886 12.4751 26.7171 -0.00237253 0.00280104 -0.00922557
1989 1 3.78229 12.5011 26.7129 -0.00231991 -0.00264304 -0.00292295
1990 1 5.03353 10.6837 28.0163 0.000467238 -0.00605423 0.00470576
1991 1 5.02456 11.5414 26.7614 0.00376163 0.00344237 -0.00300343
1992 1 6.26883 13.3832 27.9542 -0.00372164 -0.00280376 -0.0093093
1993 1 3.76738 13.3811 28.0035 -9.75483e-05 -0.00260042 0.00328828
1994 1 4.99854 11.6105 29.2256 -0.000632325 0.0039779 0.000250333
1995 1 2.48776 10.7573 27.997 -0.0035922 0.00189143 -0.00330546
1996 1 3.78304 12.5085 29.2812 -0.000991038 -0.000468457 -0.00230849
1997 1 1.22703 12.5281 29.2679 0.00285442 0.00564851 0.00307572
1998 1 2.51182 10.6994 30.4608 0.0122583 -0.00809987 0.000937713
1999 1 2.48867 11.6291 29.2062 -0.00340669 0.000174395 -0.00689593
2000 1 3.78749 13.4122 30.5164 -0.00110879 -0.00234273 -0.00361926
2001 1 1.20295 13.3855 30.5841 -0.0117309 -4.48111e-05 0.0135346
2002 1 2.52824 11.5542 31.784 0.00238348 -0.0119887 -0.000720266
2003 1 0.00675076 10.6787 30.5227 0.00892566 0.00334703 -0.00562684
2004 1 1.25394 12.4396 31.7746 0.00124646 -0.00252822 -0.00180156
2005 1 0.0327119 10.7109 33.0894 -0.00504504 0.00277944 0.000992118
2006 1 20.1548 11.5855 31.7481 -0.00086285 -0.00124613 0.00336101
2007 1 1.21445 13.3315 32.9996 0.000919018 0.00274096 -0.0053235
2008 1 0.036838 11.5995 34.3152 0.000990402 0.000779748 -0.00634625
2009 1 18.953 12.4612 16.5411 -0.00303677 0.00820977 -0.00557998
2010 1 18.8714 13.3392 17.7936 -0.000437881 0.000281063 -0.00247026
2011 1 17.72 10.7408 17.8377 0.00634 0.00724373 0.00740539
2012 1 18.9362 12.4713 19.1145 -0.0134595 -0.00301871 0.00182972
2013 1 16.3774 12.4978 19.122 0.00852728 0.0052775 -0.00292292
2014 1 17.6807 10.7429 20.3858 0.000205191 0.00179914 -0.00442959
2015 1 17.6498 11.5747 19.0846 0.00366011 0.0111621 1.25929e-07
2016 1 18.9295 13.2975 20.386 0.0012944 -0.00364318 -0.00810216
2017 1 16.4501 13.3588 20.4448 -0.00602233 -0.00219694 0.00325921
2018 1 17.6462 11.5988 21.6563 0.0052113 -0.00242956 -0.00291422
2019 1 15.1406 10.7629 20.4475 0.00674232 -0.00283067 0.00281988
2020 1 16.4103 12.4805 21.694 -0.000832399 -0.00449915 -0.00222294
2021 1 13.8593 12.5063 21.675 -0.00053951 -0.00902672 -0.0141115
2022 1 15.1235 10.7256 22.9487 0.00633341 -0.00037197 0.000339536
2023 1 15.1301 11.593 21.689 -0.00725416 -0.00155835 1.13308e-05
2024 1 16.4643 13.4201 23.0027 -7.64986e-05 0.000876399 -0.00115123
2025 1 13.9602 13.444 22.9267 0.00317582 -0.00117511 -0.00755445
2026 1 15.1507 11.5917 24.1739 0.00635426 0.00476648 -0.00562915
2027 1 12.6198 10.642 22.9058 -0.00666579 -0.000502881 -0.000830292
2028 1 13.9002 12.5284 24.1912 -0.00470158 -0.00186134 -0.0071259
2029 1 11.3835 12.4666 24.2035 -0.000868059 2.64033e-05 -0.00706122
2030 1 12.5684 10.6754 25.4031 -0.00687198 0.00405253 0.00490644
2031 1 12.6382 11.608 24.1907 -0.00796327 0.0103159 -0.00388719
2032 1 13.8652 13.3922 25.4176 -0.00147405 0.000806147 0.00387081
2033 1 11.333 13.3465 25.4404 -0.000408817 0.00658292 0.00282004
2034 1 12.5603 11.5829 26.7526 0.00238591 -0.00186808 -0.00217051
2035 1 10.0831 10.6463 25.4384 0.00204965 0.00216786 -0.00181145
2036 1 11.3578 12.4742 26.7237 -0.0114191 0.000540429 -0.00251551
2037 1 8.8136 12.5185 26.7173 -0.00413012 0.00917859 0.00232812
2038 1 10.0721 10.6818 27.9566 0.00158562 0.0080059 0.00123894
2039 1 10.0486 11.5991 26.672 0.00573097 0.00288576 -9.2158e-05
2040 1 11.3696 13.4057 27.976 0.00251121 -0.00991726 -0.00142055
2041 1 8.77448 13.3576 28.0109 -0.00485257 0.00440391 -0.0100269
2042 1 10.0684 11.6351 29.271 0.00145264 0.000678058 0.00485527
2043 1 7.57277 10.6816 27.9762 0.000668521 0.00998533 -0.00662023
2044 1 8.82706 12.5144 29.2467 0.00473359 0.000479162 -0.000610659
2045 1 6.28182 12.4913 29.2321 -0.00866885 0.0066942 0.0063747
2046 1 7.53984 10.7186 30.4838 0.00990518 -0.000719704 0.00615238
2047 1 7.52304 11.6667 29.1942 0.00146587 -0.00047876 0.00648516
2048 1 8.83382 13.3598 30.5477 8.52998e-05 -0.00101591 0.00116869
2049 1 6.30782 13.3707 30.5455 0.00341979 -0.00459374 0.00407489
2050 1 7.57 11.5911 31.7564 -0.00230019 -0.00372044 0.00471841
2051 1 5.04519 10.7782 30.5322 -0.00784695 0.000615503 -0.00993418
2052 1 6.30508 12.4467 31.764 0.00517675 -0.00326934 -0.00121259
2053 1 3.7646 12.4938 31.7161 0.000212697 -0.00509291 0.00612046
2054 1 5.00158 10.7278 33.0574 0.000438586 0.00896127 -0.00227987
2055 1 4.98637 11.6356 31.7554 0.00519272 0.00109486 0.00424446
2056 1 6.31546 13.3179 33.0125 -0.00211976 -8.68013e-06 -0.00671581
2057 1 3.80324 13.3584 32.9756 -0.00479122 -0.000826628 -0.00297562
2058 1 5.07431 11.6263 34.3346 9.63332e-05 -0.000500739 -0.00346675
2059 1 2.50718 10.7188 33.0245 0.00270676 0.00245268 -0.00804684
2060 1 3.8544 12.4942 34.3068 0.0125666 -0.00630766 -0.00321579
2061 1 1.29698 12.4839 34.2443 -0.000359185 0.00413699 0.00592837
2062 1 2.55208 10.6668 35.5345 0.00583822 0.00551283 -0.00616008
2063 1 2.55437 11.5784 34.2846 0.00475636 0.00133094 0.00016678
2064 1 3.83974 13.4124 35.5426 -0.00060784 -0.00962345 -0.0147415
2065 1 1.27426 13.4027 35.5049 -0.00738052 -0.00455455 0.000488566
2066 1 2.44873 11.6046 36.864 -0.00892286 -0.00064811 0.00604928
2067 1 20.1647 10.7146 35.5887 0.00521596 -0.00158618 5.96026e-05
2068 1 1.25527 12.5209 36.8325 -0.00102413 0.00886335 -0.00416774
2069 1 20.1574 10.5972 38.1163 -0.00283133 0.00613191 -0.00275273
2070 1 20.1107 11.5891 36.9453 -0.00180547 -0.00451272 -0.00336109
2071 1 1.22286 13.4583 37.9925 -0.000362709 0.000895675 0.00267449
2072 1 18.9198 12.4884 21.7219 -0.00223121 -0.00556271 -0.00066478
2073 1 18.9863 13.375 22.9473 0.00139614 -0.00656475 -0.00931216
2074 1 17.7077 10.7695 22.9382 0.0075149 0.00126788 0.00704717
2075 1 18.9621 12.4997 24.2225 0.000952568 0.00744379 -0.00537432
2076 1 16.4291 12.4836 24.2538 -0.00351567 0.00812239 -0.00287506
2077 1 17.6367 10.6631 25.4291 0.00176606 -0.00345697 -0.00842729
2078 1 17.7178 11.6231 24.1793 -0.00526074 -0.00231381 -0.00385228
2079 1 18.9537 13.4045 25.4985 0.00305364 0.00165111 -0.00524005
2080 1 16.4111 13.3823 25.4702 0.00419323 0.00098395 0.0050356
2081 1 17.6445 11.6287 26.7445 0.00177725 0.0059184 -0.00326553
2082 1 15.1197 10.7151 25.4048 -0.00173254 -0.00910858 -0.00143805
2083 1 16.3789 12.5014 26.7564 0.00770411 0.00107287 -0.000614714
2084 1 13.8391 12.5042 26.6867 -0.00324266 0.00536233 -0.000751
2085 1 15.12 10.7286 27.9867 -0.00342465 0.0078819 0.00370949
2086 1 15.1141 11.6343 26.6636 -0.00633143 0.00379103 0.00334406
2087 1 16.3269 13.3916 27.9808 -0.00340278 0.000777845 -0.00163956
2088 1 13.8538 13.4401 27.9531 -0.000826029 -0.00276232 0.00305272
2089 1 15.0903 11.6173 29.2608 -0.00564355 -0.00100616 -0.000398043
2090 1 12.6123 10.6892 27.9504 -0.0127341 0.00580643 0.00773267
2091 1 13.8628 12.4601 29.2532 -0.0033786 -0.00176693 0.00406749
2092 1 11.3658 12.5091 29.3394 -0.00823954 -0.00607092 0.00446485
2093 1 12.609 10.7019 30.5155 -0.00683619 0.000891942 -0.00635546
2094 1 12.5794 11.5793 29.254 -0.00436322 -0.0103633 -0.0044878
2095 1 13.8682 13.3166 30.5294 -0.00607696 0.000588182 -0.0088024
2096 1 11.3448 13.3469 30.535 0.000314098 0.000198893 0.000111701
2097 1 12.6191 11.5422 31.8315 0.00461128 -0.00147597 -0.00403129
2098 1 10.0479 10.7533 30.4748 0.00427839 -0.00132139 0.00790586
2099 1 11.3548 12.4381 31.8446 -0.00788062 0.00374362 -0.00417316
2100 1 8.83863 12.4498 31.8129 -0.00427623 -0.00320331 0.0102814
2101 1 10.0958 10.6807 33.0731 -0.00730807 0.000233694 -0.00304424
2102 1 10.099 11.5935 31.8015 0.00434401 -0.000168544 0.00147258
2103 1 11.3009 13.3487 33.0542 -0.000415404 -0.00322572 -0.00147544
2104 1 8.83788 13.3548 33.0824 -0.00596288 0.00322655 -0.000441043
2105 1 10.1391 11.5507 34.3322 -0.00209128 0.00631415 -0.0119001
2106 1 7.54983 10.6911 33.1031 -0.00036439 0.00297423 -0.000534364
2107 1 8.8173 12.492 34.3508 -0.00535362 -8.54005e-05 -0.0027426
2108 1 6.2591 12.5027 34.3621 0.00947801 -0.00428963 -0.00388655
2109 1 7.61172 10.7028 35.5846 -0.000209243 0.00569836 0.00300758
2110 1 7.55746 11.5859 34.3098 0.0010622 0.00112759 -0.009103
2111 1 8.79282 13.3574 35.6107 -0.00408072 0.00536385 -0.00562526
2112 1 6.29822 13.3851 35.6175 0.00312632 0.00140328 -0.00430529
2113 1 7.51161 11.5491 36.9276 0.00392451 0.0052056 -0.00178063
2114 1 5.05692 10.7242 35.54 -0.00323506 -0.00129001 -0.00301565
2115 1 6.21721 12.4413 36.9202 -0.00375419 0.00276562 -0.00318836
2116 1 3.81653 12.4772 36.8783 0.00354196 0.00372174 -0.00235576
2117 1 5.02082 10.5682 37.9722 0.00305947 0.00100386 -0.0039858
2118 1 4.98517 11.5843 36.8651 -0.00744598 -0.000188313 0.000180822
2119 1 6.33975 13.5045 38.1157 -0.00124248 -0.00223251 -0.00211719
2120 1 3.77853 13.4117 37.9744 -0.00109511 -0.00289006 -0.000927006
2121 1 2.46311 10.6807 38.0538 -0.00863973 -0.00515677 -0.00613385
2122 1 18.9093 12.554 26.7401 0.00448697 0.00455326 -0.00150653
2123 1 18.9143 13.4349 27.9882 -0.00567022 0.00168458 -0.00160381
2124 1 17.6788 10.6975 27.9795 0.0106446 -0.00290505 0.00815031
2125 1 18.941 12.4759 29.2569 0.00075538 -0.00197088 0.00328145
2126 1 16.3858 12.5098 29.2813 -0.00112284 0.000922904 -0.00271049
2127 1 17.6114 10.6936 30.5371 -0.00964985 -0.000509536 -0.00619949
2128 1 17.66 11.6222 29.24 -0.000154947 -0.00327688 -0.00465249
2129 1 18.9374 13.3432 30.472 -0.00430378 -0.00117607 0.000276327
2130 1 16.3477 13.4041 30.5623 0.00461028 -6.51821e-05 -0.00232362
2131 1 17.6893 11.6091 31.7581 -0.00725734 0.00569926 -0.00108368
2132 1 15.1377 10.7267 30.5306 -0.00423191 -0.00424089 -0.00271046
2133 1 16.4533 12.4819 31.817 -0.00345107 -0.0101114 -0.0103958
2134 1 13.8285 12.4676 31.821 -0.00959147 0.00662543 0.00303789
2135 1 15.1355 10.7279 33.0828 0.00415958 -0.00441114 0.0048569
2136 1 15.1364 11.5767 31.8564 -0.000695585 0.00518434 -0.00307103
2137 1 16.453 13.338 33.0597 0.00229671 -0.00669735 0.00564232
2138 1 13.8477 13.3692 33.0619 -0.00223289 -0.00556221 -0.0110667
2139 1 15.065 11.5896 34.4318 0.00293723 -0.0029266 -0.00451536
2140 1 12.6484 10.6921 33.044 -0.00266004 -0.00145416 -0.00336593
2141 1 13.8645 12.4641 34.3803 -0.00278895 -0.00257883 -0.00577315
2142 1 11.3454 12.424 34.3482 -0.00632154 0.00081153 0.00211411
2143 1 12.5654 10.6968 35.6899 -0.00445653 0.00407244 0.00264598
2144 1 12.5683 11.5317 34.3542 0.0110029 0.00155754 0.00343524
2145 1 13.8237 13.3767 35.6603 0.00552682 0.0063244 0.000519392
2146 1 11.3346 13.3276 35.6383 0.00121616 -0.00517187 -0.00399105
2147 1 12.5761 11.6029 36.9296 -0.000915964 0.00831224 0.0114676
2148 1 10.0896 10.6368 35.6206 -0.00650415 0.000215998 0.00164614
2149 1 11.3003 12.4717 36.8771 -0.00696395 0.00173373 -0.00241226
2150 1 8.81103 12.4751 36.9193 0.00159539 -0.00176246 0.0031032
2151 1 10.0559 10.6218 38.024 0.00401386 -0.00367114 -0.00215892
2152 1 10.0869 11.5734 36.8737 -0.00292896 0.00500535 0.000932417
2153 1 11.4192 13.4867 37.9959 -0.000719095 0.000559641 -0.004223
2154 1 8.8362 13.4314 38.0268 -0.0102789 -0.00544661 -0.00471665
2155 1 7.55885 10.599 38.0736 0.000161931 0.00244588 0.00287219
2156 1 18.9625 12.4889 31.7622 0.00291703 -0.0125468 -0.00517361
2157 1 18.8957 13.4159 33.0432 0.0027358 0.00671441 -4.47416e-05
2158 1 17.6673 10.7597 33.0455 -0.00451012 -0.00667839 0.00418433
2159 1 18.9167 12.4938 34.3265 0.00286462 0.009948 -0.00345762
2160 1 16.3242 12.5057 34.3477 -0.00396718 -0.000328498 -0.00530645
2161 1 17.6599 10.7288 35.5687 -0.0011896 -0.00211094 -0.00670919
2162 1 17.6645 11.6097 34.3263 -0.00795369 -0.00255919 0.00551636
2163 1 18.913 13.3696 35.5678 0.00613686 -0.00873776 -0.0075546
2164 1 16.4082 13.4013 35.5737 0.00259636 0.0078188 -0.00622026
2165 1 17.637 11.5837 36.9348 0.00752271 -0.0103203 0.00869287
2166 1 15.1304 10.6931 35.6269 0.00248963 0.000945663 -0.00445501
2167 1 16.433 12.4469 36.8976 -0.00399617 -0.00318864 0.00328798
2168 1 13.9335 12.4536 36.9849 4.24863e-05 5.41359e-05 -0.00396201
2169 1 15.1202 10.5868 38.0256 0.00540861 -0.00261117 -0.00834371
2170 1 15.1354 11.6351 36.9137 0.00376438 -0.00216186 -0.00334821
2171 1 16.3887 13.5008 37.9856 -0.00176434 0.00181072 0.00739511
2172 1 13.8601 13.5366 38.1209 0.000583802 0.00519515 -0.00434902
2173 1 12.4966 10.5728 38.0793 -0.00686916 0.00614422 -0.0067591
2174 1 18.9171 12.4978 36.9285 0.00439744 0.00422102 0.0018244
2175 1 18.9546 13.5719 37.9781 0.00127037 0.00466216 -0.00783422
2176 1 17.6507 10.5957 38.0586 -0.00384154 0.00315263 -0.00163546
2177 1 2.52111 15.1529 -3.78166 0 0 0
2178 1 1.26055 16.0442 -3.78166 0 0 0
2179 1 0 14.2615 -2.52111 0 0 0
2180 1 0 15.1529 -3.78166 0 0 0
2181 1 1.26055 16.9356 -2.52111 0 0 0
2182 1 0 15.1529 -1.26055 0 0 0
2183 1 7.56333 15.1529 -3.78166 0 0 0
2184 1 6.30277 16.0442 -3.78166 0 0 0
2185 1 3.78166 16.0442 -3.78166 0 0 0
2186 1 5.04222 14.2615 -2.52111 0 0 0
2187 1 5.04222 15.1529 -3.78166 0 0 0
2188 1 6.30277 16.9356 -2.52111 0 0 0
2189 1 3.78166 16.9356 -2.52111 0 0 0
2190 1 5.04222 15.1529 -1.26055 0 0 0
2191 1 2.52111 14.2615 -2.52111 0 0 0
2192 1 3.78166 16.0442 -1.26055 0 0 0
2193 1 1.26055 16.0442 -1.26055 0 0 0
2194 1 2.47655 14.2932 0.0210792 0.00956626 -0.0111156 0.000983347
2195 1 2.52111 15.1529 -1.26055 0 0 0
2196 1 3.72417 16.9253 0.0439299 -0.00521098 -5.30396e-05 0.00642871
2197 1 1.24003 16.9419 -0.0015082 -0.0021909 -0.00603685 0.000543199
2198 1 2.51828 15.1745 1.33436 -0.00261063 -0.00797497 -0.000155155
2199 1 0.0100948 14.1989 0.0486839 0.00123346 0.00498809 -0.000930041
2200 1 1.23565 16.0573 1.30384 0.00181046 -0.0029573 -0.00664639
2201 1 20.1203 14.2398 2.59837 -0.000761924 0.00950883 0.00247939
2202 1 0.00654527 15.1566 1.324 0.00162037 0.00119693 -0.00228681
2203 1 1.27016 16.9567 2.57923 0.0059399 -0.0045191 0.00332074
2204 1 0.0118409 15.1339 3.83609 0.00225531 0.00754835 0.000743663
2205 1 12.6055 15.1529 -3.78166 0 0 0
2206 1 11.345 16.0442 -3.78166 0 0 0
2207 1 8.82388 16.0442 -3.78166 0 0 0
2208 1 10.0844 14.2615 -2.52111 0 0 0
2209 1 10.0844 15.1529 -3.78166 0 0 0
2210 1 11.345 16.9356 -2.52111 0 0 0
2211 1 8.82388 16.9356 -2.52111 0 0 0
2212 1 10.0844 15.1529 -1.26055 0 0 0
2213 1 7.56333 14.2615 -2.52111 0 0 0
2214 1 8.82388 16.0442 -1.26055 0 0 0
2215 1 6.30277 16.0442 -1.26055 0 0 0
2216 1 7.55785 14.2462 0.0421348 -0.0102767 -0.00680733 -0.000398399
2217 1 7.56333 15.1529 -1.26055 0 0 0
2218 1 8.80367 16.9308 0.0160256 0.00635464 -0.00412215 0.00374253
2219 1 6.26624 16.9509 0.0221428 0.000528454 -0.00265305 -0.000475123
2220 1 7.50574 15.2051 1.34315 0.00126206 0.00108719 -0.0029879
2221 1 5.05321 14.2675 -0.0160559 0.00235451 0.00874786 0.00379579
2222 1 6.23591 16.0389 1.26885 -0.00596381 -0.00405393 0.00756123
2223 1 3.767 16.0499 1.29615 0.00508249 0.0010598 0.0035939
2224 1 5.01075 14.2373 2.5243 -0.00492586 -0.00444767 -0.00113292
2225 1 5.00629 15.1266 1.32303 0.00417437 0.0037581 0.00357039
2226 1 6.27513 16.891 2.60417 0.0018161 0.00536991 -0.00116157
2227 1 3.76739 16.996 2.54947 -0.00729771 0.000520986 -0.000962692
2228 1 5.04815 15.1356 3.79718 0.00312907 0.0082878 -0.00428455
2229 1 2.49285 14.2641 2.60745 -0.00537787 0.000102725 0.00446063
2230 1 3.7769 16.0507 3.84082 0.00381762 -0.00361072 -0.00471812
2231 1 1.28219 16.0354 3.83092 -0.00710682 -0.00654439 0.0124473
2232 1 2.54069 14.2556 5.1452 0.00294034 -0.00324458 0.00186268
2233 1 2.52037 15.1467 3.89682 -0.000158005 -0.00314868 -0.0131657
2234 1 3.79963 16.8714 5.05842 -0.000241715 0.00109633 -0.00503659
2235 1 1.30661 16.9068 5.09154 -0.00107617 -0.00197168 -0.000102711
2236 1 2.51894 15.0762 6.43966 -0.00249638 -0.000900269 0.00697615
2237 1 20.1627 14.2647 5.12 -0.0105215 -0.00198454 -0.0088181
2238 1 1.30371 16.0439 6.46126 -0.000911449 -0.00366518 0.000733065
2239 1 0.0583628 14.2998 7.67714 0.00277346 -0.000153413 0.00288283
2240 1 0.0320273 15.2176 6.42119 -0.00283268 -0.00412159 0.000235599
2241 1 1.30318 16.9377 7.71054 0.00559412 -0.00192716 -0.00224032
2242 1 0.00019739 15.1366 8.97129 -0.00246627 0.00888316 -8.84261e-05
2243 1 17.6478 15.1529 -3.78166 0 0 0
2244 1 16.3872 16.0442 -3.78166 0 0 0
2245 1 13.8661 16.0442 -3.78166 0 0 0
2246 1 15.1267 14.2615 -2.52111 0 0 0
2247 1 15.1267 15.1529 -3.78166 0 0 0
2248 1 16.3872 16.9356 -2.52111 0 0 0
2249 1 13.8661 16.9356 -2.52111 0 0 0
2250 1 15.1267 15.1529 -1.26055 0 0 0
2251 1 12.6055 14.2615 -2.52111 0 0 0
2252 1 13.8661 16.0442 -1.26055 0 0 0
2253 1 11.345 16.0442 -1.26055 0 0 0
2254 1 12.641 14.278 0.0177031 -0.00338521 -0.0019451 0.00192668
2255 1 12.6055 15.1529 -1.26055 0 0 0
2256 1 13.8539 16.9324 -6.52243e-05 -0.000181438 0.00968379 -0.00469639
2257 1 11.3839 16.9413 0.0231108 -0.00437945 -0.0018626 0.000161016
2258 1 12.5732 15.1832 1.32149 -0.000683454 -0.00502098 -0.00291409
2259 1 10.1338 14.3162 -0.0090497 -0.000694482 -0.00482092 -0.00295428
2260 1 11.3106 16.0886 1.32897 0.000369602 0.00612034 0.00515324
2261 1 8.80023 16.0579 1.23991 -0.00389885 -0.00606409 0.00477695
2262 1 10.1244 14.2581 2.54383 -0.00607924 0.00106317 -0.00272937
2263 1 10.0996 15.1641 1.31359 -0.00788526 -8.64946e-05 -0.00383446
2264 1 11.3626 16.982 2.61088 -0.00436134 0.00309674 0.000870788
2265 1 8.80464 16.9339 2.55541 -0.00118145 -0.000874152 0.00770339
2266 1 10.1151 15.1582 3.82214 -0.00603748 -0.00236058 -2.30893e-05
2267 1 7.53374 14.2722 2.55478 0.0064929 -0.00773081 -0.000331627
2268 1 8.79472 16.0347 3.80173 -0.00170754 -0.00646419 -0.000131711
2269 1 6.28263 16.0165 3.83085 -0.0078568 0.00424993 -0.00266097
2270 1 7.53842 14.2668 5.10556 -0.00115069 0.00211706 0.00699291
2271 1 7.56983 15.1568 3.834 -0.00531004 -0.000419577 0.0078731
2272 1 8.86629 16.9668 5.10006 0.00380246 -0.0101261 0.00364595
2273 1 6.33772 16.8791 5.06541 -0.00161235 -0.00503344 -0.0150774
2274 1 7.62088 15.1883 6.38707 -0.00082616 0.000753546 0.00787058
2275 1 5.03253 14.2363 5.07081 0.00260983 0.00644218 0.0019083
2276 1 6.25524 16.0465 6.33598 0.00408366 -9.4102e-05 -0.00329097
2277 1 3.82162 15.9875 6.36921 -2.47762e-05 -0.00273097 0.0032777
2278 1 5.07658 14.2828 7.65045 -0.0030759 0.00438407 -0.00300871
2279 1 5.05196 15.1278 6.33853 -0.00628368 -0.00302686 0.00222409
2280 1 6.33142 16.9363 7.63029 -0.00641007 0.00338165 0.00420075
2281 1 3.82049 16.9214 7.62512 -0.00418235 0.0102432 -0.00113786
2282 1 5.03323 15.1883 8.8502 -0.00219169 0.00158501 0.00457699
2283 1 2.5078 14.2085 7.69932 -0.0012547 0.00534804 0.00535215
2284 1 3.7557 16.064 8.8739 -0.0046187 0.00137173 -0.00425752
2285 1 1.28314 16.0314 8.9629 0.0037945 -0.00162104 -0.00221974
2286 1 2.51483 14.2579 10.2144 -0.00220366 -0.000682105 -5.77088e-05
2287 1 2.44911 15.1181 8.98077 -0.00440362 0.00517896 0.0106943
2288 1 3.7697 16.9626 10.1695 -0.0032633 0.00224395 0.00541047
2289 1 1.26464 16.9337 10.2463 -0.0107436 -0.0020498 0.00414331
2290 1 2.48681 15.1523 11.5255 0.00252354 -0.00546952 0.00513944
2291 1 20.1523 14.2114 10.2192 0.00252669 0.000357111 -0.00621734
2292 1 1.27801 16.0409 11.536 -0.00499619 -0.000603427 -0.00453666
2293 1 0.0527383 14.3087 12.7749 -0.000581566 -0.00379982 0.00217609
2294 1 0.0136937 15.1319 11.5171 -0.0138567 -0.00555126 -0.00446302
2295 1 1.26223 16.8976 12.7838 0.00263057 0.0105329 -0.00927878
2296 1 20.1316 15.1239 14.0759 0.00699521 0.000470067 0.00296981
2297 1 18.9083 16.0442 -3.78166 0 0 0
2298 1 18.9083 16.9356 -2.52111 0 0 0
2299 1 17.6478 14.2615 -2.52111 0 0 0
2300 1 18.9083 16.0442 -1.26055 0 0 0
2301 1 16.3872 16.0442 -1.26055 0 0 0
2302 1 17.6696 14.2318 -0.0201594 0.0059297 0.00154305 -0.00640834
2303 1 17.6478 15.1529 -1.26055 0 0 0
2304 1 18.8754 16.9566 0.00752196 -0.00143541 0.00579414 -0.00670788
2305 1 16.4162 16.8965 -0.000997679 -0.00557886 -0.00277665 -0.00163349
2306 1 17.6128 15.1257 1.23029 -0.00133496 0.000370658 0.0005381
2307 1 15.1382 14.2816 0.0457039 -0.00350387 -0.00124878 -0.00232936
2308 1 16.3997 15.996 1.26435 -0.00271927 0.00111806 0.00557881
2309 1 13.8194 16.1022 1.28212 0.00982994 -0.0079181 -0.00566644
2310 1 15.0745 14.2582 2.57659 0.0025342 0.00138137 0.002778
2311 1 15.0497 15.1447 1.29401 -0.0021249 0.00652735 -0.00408396
2312 1 16.391 16.9193 2.57146 0.00162551 0.00258862 -0.000842628
2313 1 13.8344 16.9429 2.54257 0.00341259 -0.00211369 -2.52557e-05
2314 1 15.1452 15.1305 3.81939 0.00475211 -0.00105591 0.00165531
2315 1 12.607 14.2799 2.56412 -0.000221144 0.00638757 0.000379527
2316 1 13.9154 16.1041 3.83646 0.0061031 -0.00635903 0.00331373
2317 1 11.3287 16.0794 3.82027 0.00181042 -0.00185458 0.0130553
2318 1 12.6435 14.2974 5.10679 0.00455675 -0.00222134 0.00351518
2319 1 12.6385 15.1717 3.82048 0.00374166 -0.00275835 -0.00455293
2320 1 13.8889 16.9919 5.08999 0.00594056 0.000145916 -0.00639979
2321 1 11.3697 16.9878 5.16404 0.00782738 -0.00110829 0.00211018
2322 1 12.6507 15.1674 6.36064 0.00370332 -0.00265048 -0.00295772
2323 1 10.1231 14.3358 5.0913 -0.00158823 7.77508e-05 -0.000851793
2324 1 11.3604 16.0906 6.37909 0.00215462 0.00209059 0.00523004
2325 1 8.83688 16.0743 6.36471 -0.00316589 0.0041001 0.00729294
2326 1 10.0759 14.3418 7.72316 -0.00180327 0.00593665 0.00809184
2327 1 10.1131 15.1667 6.42525 -0.00213017 0.00744512 -0.00339384
2328 1 11.4019 17.0015 7.68765 -0.00571425 0.00224201 0.00230706
2329 1 8.88599 16.9683 7.66383 0.0031206 0.000796952 -0.00197708
2330 1 10.1059 15.2061 8.95045 0.00466629 -0.0013194 0.00102659
2331 1 7.5929 14.2737 7.68584 0.0027982 0.001637 0.00263644
2332 1 8.81454 16.0421 8.92124 -0.000205073 -0.00290113 0.00133094
2333 1 6.29235 16.0263 8.92825 -0.000196003 -0.00186895 -0.00331104
2334 1 7.55038 14.2239 10.1457 -0.00652667 0.00327895 -0.00379836
2335 1 7.54161 15.1575 8.94738 0.000741949 0.00327922 0.00126202
2336 1 8.80471 16.9204 10.1656 0.00753764 0.00198939 0.00373964
2337 1 6.29536 16.9548 10.1719 -0.00062633 -0.00508599 -0.000886646
2338 1 7.55732 15.1774 11.4555 0.00309149 -0.00525586 0.00275281
2339 1 5.00095 14.2602 10.2298 0.00353844 -0.00584338 -0.00532738
2340 1 6.29447 16.0236 11.4533 -0.00408932 -0.000912542 -0.000844148
2341 1 3.76096 16.0293 11.4836 0.00128337 0.00735847 0.00409452
2342 1 5.05879 14.2739 12.7752 -0.00232834 0.00357097 -0.0058601
2343 1 5.04511 15.1551 11.4833 0.00708644 -0.00239257 -0.00207118
2344 1 6.31204 16.9638 12.7125 0.00222439 -0.00260692 -0.00497264
2345 1 3.78942 16.9267 12.7006 0.00282516 0.00503223 -0.00966026
2346 1 5.01909 15.1123 14.037 0.0066758 0.00541575 0.00823858
2347 1 2.52912 14.2873 12.7817 0.0104159 0.00862074 0.00243967
2348 1 3.76998 16.0244 13.9981 -0.00029047 0.0028978 -0.00644833
2349 1 1.21504 16.0382 14.026 -0.00936865 0.00266005 -0.00344156
2350 1 2.55185 14.2532 15.3122 0.00530978 -0.00146906 -0.00673935
2351 1 2.53894 15.1468 14.0067 -0.00825272 0.00272537 -0.00471346
2352 1 3.81693 16.9332 15.2629 -0.00119666 0.0117067 -0.00243907
2353 1 1.29994 16.9141 15.3452 0.00849285 -0.00562168 -0.00230627
2354 1 2.5558 15.1631 16.5778 -0.000798781 -0.00269482 -0.00455426
2355 1 0.049604 14.2615 15.3099 -0.00575848 0.00022903 0.0027584
2356 1 1.28689 16.0321 16.5905 -0.00511316 0.00886854 -0.00381425
2357 1 20.1592 14.2103 17.8658 -0.00468474 0.00224335 0.00203718
2358 1 0.0107816 15.1345 16.6204 -0.000893462 -0.00693928 0.00440438
2359 1 1.3053 16.9372 17.8915 -0.00113016 0.00519567 -0.0135863
2360 1 20.1179 15.1264 19.0938 -0.000718625 -0.00319625 -0.0060454
2361 1 18.9478 16.0168 1.29935 0.00805347 0.0050894 -0.0029319
2362 1 18.895 16.9105 2.54775 0.00489236 -0.00532142 -0.00161796
2363 1 17.6205 14.2454 2.49264 -0.0012762 -0.00485052 -0.00463485
2364 1 18.9069 16.0607 3.81158 0.0014803 -0.00025387 0.00522968
2365 1 16.392 15.9713 3.82443 -0.00352381 0.0022905 -0.00192397
2366 1 17.6463 14.2774 5.05587 -0.00394828 0.000656363 0.00461129
2367 1 17.6271 15.1229 3.82052 0.00589455 -0.00750103 -6.05528e-05
2368 1 19.0039 16.9153 5.04812 0.00601639 -0.000252105 -0.000352136
2369 1 16.4599 16.8794 5.08941 0.00100696 0.00103233 -0.00483989
2370 1 17.7055 15.1483 6.34214 0.00162577 0.00711715 -0.00188712
2371 1 15.1324 14.2153 5.0587 -0.00470163 0.00134496 0.0108814
2372 1 16.4388 16.0149 6.3275 -0.00576845 0.00127251 -0.0058005
2373 1 13.8973 16.0793 6.36121 0.00331549 -0.00746021 0.00967886
2374 1 15.1211 14.3072 7.64759 -0.00158823 0.00265312 0.00525968
2375 1 15.1738 15.1411 6.30132 -0.0108746 0.00834128 -0.00502281
2376 1 16.4595 16.9262 7.65981 -0.00547556 0.00779931 -0.00317535
2377 1 13.919 16.9167 7.58934 -0.00654103 -0.00831418 4.74294e-05
2378 1 15.1518 15.2094 8.95146 0.00368093 0.00578386 0.000323905
2379 1 12.6188 14.3461 7.69387 -0.00390097 0.000854803 0.00371638
2380 1 13.9028 16.0671 8.91926 -0.00615415 -0.00893829 0.00401103
2381 1 11.3616 16.0565 8.93346 -0.00350217 -0.00105962 0.00455819
2382 1 12.6089 14.2482 10.2153 0.00241009 0.00346334 0.00218136
2383 1 12.6165 15.1889 8.94293 0.0074543 0.00676844 0.00673432
2384 1 13.8393 16.9986 10.2058 0.00120676 0.00524884 0.00896324
2385 1 11.3666 16.9462 10.2138 0.00751595 0.00289963 -0.00138475
2386 1 12.5619 15.2328 11.4778 -0.00501529 0.0037061 -0.00308355
2387 1 10.1317 14.2932 10.2207 0.00150844 0.00213364 -0.00791303
2388 1 11.3425 16.0621 11.4897 0.0113832 0.00400302 0.00478449
2389 1 8.8312 16.0223 11.4575 -0.00910497 -0.00383433 0.000568279
2390 1 10.0472 14.274 12.7441 0.00450531 0.00358349 0.00111673
2391 1 10.0693 15.1945 11.4934 -0.006035 0.000949599 0.000877254
2392 1 11.3277 16.9599 12.7517 -0.00489976 -0.000244993 -0.00670648
2393 1 8.79739 16.9626 12.7886 0.00655858 0.00524909 -0.00421327
2394 1 10.0688 15.2209 14.0571 -3.57267e-06 0.00617425 0.00935701
2395 1 7.54364 14.2268 12.7134 0.00209441 0.00407168 0.00171846
2396 1 8.80499 16.044 14.0516 -0.00348737 -0.00482318 0.00536033
2397 1 6.27722 16.0827 13.9807 -0.0014422 0.00233628 -0.00385129
2398 1 7.5351 14.3034 15.3042 -0.0093269 -0.00510385 -0.00106251
2399 1 7.54379 15.153 14.032 -0.00977617 0.00902773 0.00500508
2400 1 8.83694 17.0083 15.338 -0.00233812 0.000513475 0.00320815
2401 1 6.30924 17.004 15.2794 0.00119829 -0.00864904 -0.00675684
2402 1 7.55674 15.1655 16.5266 0.0076783 0.00651207 -0.00415334
2403 1 5.0727 14.2381 15.2974 0.0067041 -0.00211711 -0.00848595
2404 1 6.35393 16.0802 16.6258 0.00261607 0.0021577 0.000664547
2405 1 3.83667 16.0158 16.5476 0.00500594 -0.00930896 -0.00770447
2406 1 5.05756 14.2355 17.843 -0.00362808 0.00365923 -0.00216113
2407 1 5.11539 15.1169 16.546 -0.00406957 -0.00488069 -0.0095918
2408 1 6.28581 16.9212 17.841 -0.000668784 -0.000121329 -0.00954056
2409 1 3.78942 16.8601 17.8393 -0.00248876 0.0110511 0.000805171
2410 1 5.0724 15.1452 19.1325 0.000547691 0.00416481 -0.0055779
2411 1 2.55683 14.2472 17.8241 0.00222097 0.0050264 -0.0043557
2412 1 3.81824 16.0345 19.1683 0.000908678 0.0054834 -0.00433571
2413 1 1.28308 16.0299 19.1294 0.00208001 0.000586978 -0.00605779
2414 1 2.56215 14.2425 20.4024 -0.00322603 -0.00135324 0.00334326
2415 1 2.53779 15.1011 19.1559 0.00761648 -0.00590005 0.00340631
2416 1 3.83915 16.9303 20.3996 -0.000903641 -0.00182995 -0.00672136
2417 1 1.26785 16.8801 20.4231 0.00469601 -0.0031812 0.00925432
2418 1 2.56081 15.1515 21.6677 -0.000463326 0.0019722 -0.0122112
2419 1 0.000401518 14.2093 20.384 0.000138442 0.00641027 -0.00689293
2420 1 1.27208 16.0129 21.6424 -0.00207436 0.00159653 -0.00669482
2421 1 0.0483804 14.2467 22.908 -0.00147659 0.00418377 -0.0126051
2422 1 0.00800867 15.129 21.594 0.00484553 0.00327846 -0.00344197
2423 1 1.22731 16.9493 22.8268 0.00180472 0.00596546 0.00203588
2424 1 0.0902931 15.1803 24.1977 -0.00341976 -0.00267368 6.13009e-05
2425 1 18.916 16.0422 6.38712 0.00149805 0.00206617 0.00733019
2426 1 18.9133 16.8954 7.63687 0.000384166 0.00303537 -0.00429651
2427 1 17.6875 14.2929 7.70772 0.00542587 -0.00906669 -0.00823256
2428 1 18.9053 16.0529 8.97849 0.00563043 -0.00152977 0.00615075
2429 1 16.4006 16.0723 8.95808 0.0108326 -0.0011302 0.00121058
2430 1 17.6439 14.2771 10.2445 -0.00452603 0.000398632 -0.00506359
2431 1 17.6584 15.1751 8.96738 -0.00266824 0.00127627 -0.00589173
2432 1 18.9418 16.9287 10.2112 0.00348731 0.00891962 -0.0111033
2433 1 16.3441 16.9361 10.2202 -0.00490449 0.000737288 0.00381484
2434 1 17.6792 15.1876 11.4861 0.00193254 0.00312156 0.00485745
2435 1 15.1153 14.3558 10.1861 -0.00393848 -0.00128286 -0.00271129
2436 1 16.4319 16.0875 11.5083 -0.00141891 0.00153456 0.00260583
2437 1 13.9084 16.1251 11.453 0.00359877 -0.00582493 0.00150651
2438 1 15.0937 14.3063 12.7719 0.00682645 -0.0066348 -0.00681594
2439 1 15.133 15.2068 11.5106 -0.00133284 -0.00468707 0.00687729
2440 1 16.4024 16.9401 12.7776 0.00202246 -0.00145199 -0.00633473
2441 1 13.8809 16.981 12.7377 0.00225355 -0.00360098 -0.000170252
2442 1 15.1388 15.1342 14.0186 0.0073245 0.00207414 -0.00974728
2443 1 12.6279 14.293 12.7489 -0.00896255 -0.00174454 0.00733043
2444 1 13.8775 16.0511 14.0327 -0.000614571 -0.0109381 -0.00966635
2445 1 11.3441 16.0741 13.9849 -0.00127033 0.00506977 -0.00122309
2446 1 12.6458 14.3015 15.3149 0.000663803 -0.00160701 0.00763954
2447 1 12.6315 15.1434 14.0427 0.00968064 0.00355661 -0.0018473
2448 1 13.9046 16.9168 15.2756 -0.00672827 0.00535245 -0.00112741
2449 1 11.3308 16.9938 15.3127 0.00246905 0.0075415 -0.00264071
2450 1 12.6612 15.1805 16.5708 0.000778021 0.00720963 -0.000972409
2451 1 10.0746 14.2843 15.2814 0.000526962 0.00480699 0.00495487
2452 1 11.3266 16.0999 16.5324 -0.00272916 -0.000711213 -0.00164384
2453 1 8.85188 16.0345 16.5669 -0.000294772 0.00280122 -0.00192571
2454 1 10.1535 14.2617 17.8379 -0.00489202 0.00221197 0.00244552
2455 1 10.1294 15.1734 16.6051 0.00380166 0.00252861 -0.00276855
2456 1 11.3668 16.9845 17.8417 -0.00593553 0.00379007 0.000765597
2457 1 8.85455 16.9573 17.8079 0.00206572 0.000851525 -0.00219205
2458 1 10.1503 15.1587 19.1091 -0.0058139 -0.000448347 -0.0124404
2459 1 7.65041 14.3006 17.8366 0.000812853 -0.00310551 0.00488724
2460 1 8.86914 16.078 19.0741 -0.00333399 -0.00569521 0.00371799
2461 1 6.33447 16.0555 19.1444 0.00871949 -4.58401e-05 0.000983654
2462 1 7.6594 14.2671 20.3531 0.00492692 -0.00222475 0.00498539
2463 1 7.61954 15.191 19.081 0.00257849 -0.00036665 -0.000427474
2464 1 8.84042 16.9961 20.3544 -0.00112796 -0.00589811 -0.00180072
2465 1 6.32206 16.9492 20.3963 0.00720058 0.00917717 -0.00163483
2466 1 7.63022 15.2018 21.6075 -0.000316854 -0.00366417 0.00125066
2467 1 5.10335 14.2624 20.4071 0.00658808 -0.00159009 -0.000253618
2468 1 6.34954 16.0517 21.6608 -0.00826632 -0.00310619 -0.00572998
2469 1 3.75357 16.0311 21.675 0.00300205 0.00644692 0.00100611
2470 1 5.04815 14.2343 22.9132 0.00352615 -0.0015683 -0.00186044
2471 1 5.03421 15.1704 21.6851 0.00041986 0.00502317 -0.00751547
2472 1 6.37433 16.9385 22.9359 -0.000551523 0.00126007 -0.00474825
2473 1 3.81315 16.9459 22.9114 3.37637e-05 -0.00488836 0.00118626
2474 1 5.05218 15.139 24.1428 0.00121154 -0.00313779 0.000251575
2475 1 2.57576 14.235 22.9073 -0.0025493 0.00402074 0.00614048
2476 1 3.82778 16.0373 24.1923 0.00588509 0.00520021 0.00487827
2477 1 1.27947 16.0788 24.1537 -0.0128607 -0.00034599 -0.00148379
2478 1 2.53636 14.2968 25.4486 0.00511162 -0.00469916 0.000520159
2479 1 2.59901 15.1975 24.2116 0.00887651 -0.00144075 -0.00355453
2480 1 3.8118 16.9255 25.5287 -0.00716938 0.00241122 0.00359856
2481 1 1.31403 16.9827 25.4434 0.000766681 0.0032912 0.00467115
2482 1 2.56039 15.1583 26.7667 0.00321151 -0.00794418 0.00204811
2483 1 0.0469721 14.2567 25.482 0.0113483 0.00360632 -0.0064406
2484 1 1.30117 16.0883 26.7562 -0.00323954 -0.0106449 0.00275604
2485 1 0.00591884 14.3156 27.9582 0.00318873 0.00750935 0.00187627
2486 1 0.0264019 15.1761 26.7911 -0.0147518 0.00245109 -0.00706667
2487 1 1.25626 16.9162 28.001 -0.00715215 0.00772482 0.00286293
2488 1 20.1608 15.1737 29.223 -0.00564628 0.00248225 -0.00799535
2489 1 18.9287 16.0694 11.4877 0.000652368 0.0145906 0.00252707
2490 1 18.9346 16.9046 12.7855 -0.00300521 0.00529332 -0.00355087
2491 1 17.6368 14.255 12.7807 0.01064 -0.000171843 -0.010646
2492 1 18.8994 16.009 14.0669 -0.00198713 -0.00619543 -0.00323824
2493 1 16.4292 16.0679 14.0582 -0.00237649 -0.00467424 -0.00858918
2494 1 17.7406 14.2037 15.2911 0.000692454 0.00772993 0.00317532
2495 1 17.6821 15.1483 14.0604 -0.00150095 0.00292383 0.0069893
2496 1 18.9511 16.9616 15.3055 0.00445461 0.00507107 -0.00382475
2497 1 16.4271 16.9842 15.294 0.00757193 0.00186585 -0.00341302
2498 1 17.6551 15.1454 16.6436 -0.00166272 -0.00649983 0.00746123
2499 1 15.206 14.2916 15.3104 -0.00955927 0.00166972 -0.00527778
2500 1 16.4205 16.0848 16.6019 -0.000817583 -0.0066063 5.73885e-05
2501 1 13.9132 16.0263 16.5702 0.00124196 -0.00501546 0.000997979
2502 1 15.232 14.2872 17.8138 0.00563519 0.00600608 0.00242793
2503 1 15.1822 15.1598 16.5532 -0.000780347 0.00966214 -0.00520091
2504 1 16.3879 16.9849 17.8423 -0.00153306 0.00931291 0.00116186
2505 1 13.9287 16.9177 17.873 0.00732281 0.00106209 -0.00290167
2506 1 15.1853 15.151 19.1908 -0.00106768 0.00502276 -0.0022389
2507 1 12.6601 14.3611 17.8417 0.00284235 -0.00556593 0.00135588
2508 1 13.9223 16.0924 19.1531 0.00194392 0.00859857 -0.00354296
2509 1 11.3953 16.1067 19.1094 -0.00971656 0.00702768 -0.00305802
2510 1 12.7152 14.3353 20.3838 -0.00283305 0.0104 0.0076388
2511 1 12.657 15.2234 19.0741 0.00413897 -0.00268544 0.00161584
2512 1 13.9252 17.012 20.4771 0.000842956 0.00578005 0.00413862
2513 1 11.4192 17.0164 20.4164 -0.00397722 0.00279111 0.0026561
2514 1 12.6856 15.1708 21.7334 0.00195599 0.00684889 -3.91025e-05
2515 1 10.1966 14.2587 20.3848 0.00526248 -0.00109864 -0.00243536
2516 1 11.4116 16.0499 21.6542 -0.0040969 0.00238664 -0.000579872
2517 1 8.86304 16.0545 21.6635 0.00609685 -0.00301448 -0.00385418
2518 1 10.2244 14.2756 22.94 -0.00046957 -0.0037897 0.00309158
2519 1 10.1243 15.1339 21.6276 -0.00728346 0.00152705 0.00463108
2520 1 11.3308 16.9639 22.9482 0.00384001 -0.00113123 0.00134246
2521 1 8.88401 16.9485 22.9227 -0.00610386 -0.000670434 -0.0058058
2522 1 10.1487 15.1092 24.2075 -0.00617934 0.00746824 -0.0049632
2523 1 7.6003 14.2778 22.886 0.00564586 0.0020661 0.000809351
2524 1 8.8412 16.0105 24.2573 0.0019137 0.00334787 0.00165016
2525 1 6.3338 16.0148 24.2064 0.000770423 0.000896948 -0.00375718
2526 1 7.55592 14.2379 25.4093 0.00660589 -0.000465441 0.00535056
2527 1 7.59692 15.1249 24.1865 -0.00717575 4.0882e-05 -0.00334058
2528 1 8.82719 16.8747 25.4896 0.0086079 -7.83054e-05 0.0014785
2529 1 6.34221 16.8787 25.4783 -0.00305241 0.00201573 -0.00132841
2530 1 7.61417 15.1046 26.6898 0.00532119 -0.00142867 -0.00160993
2531 1 5.05232 14.2573 25.4403 0.00382572 -0.00169613 -0.00320916
2532 1 6.32524 16.0513 26.7301 0.00532002 -0.00435107 0.0011279
2533 1 3.82465 16.0243 26.7886 0.000879674 0.00140017 -0.00404267
2534 1 5.05392 14.2611 27.9919 0.00137619 0.000290924 0.000618961
2535 1 5.08366 15.1718 26.7263 0.00639586 0.0018956 0.00475153
2536 1 6.28245 16.956 28.0339 -0.000340094 0.0143767 -0.00235061
2537 1 3.78467 16.956 28.0361 -0.00180896 0.00918575 -0.00546101
2538 1 5.06372 15.17 29.2902 0.000911145 0.00359651 0.000185576
2539 1 2.54354 14.2667 28.0468 0.00132188 -0.00529056 0.0030351
2540 1 3.79335 16.0804 29.2768 0.00696824 0.000104066 0.00362549
2541 1 1.26391 16.0576 29.2617 -0.00220881 -0.00167891 -0.0104446
2542 1 2.52535 14.2803 30.5389 -0.00424574 0.008918 0.00041412
2543 1 2.55354 15.1278 29.2591 0.00284192 -0.000376506 0.0105291
2544 1 3.82026 16.9953 30.5448 0.00217148 0.00274773 0.00988633
2545 1 1.32642 16.9892 30.5132 0.00344252 0.00109968 0.000693174
2546 1 2.54967 15.18 31.8053 0.00638364 0.00107939 0.000141814
2547 1 20.1669 14.2763 30.5251 0.00431971 -0.000569584 -0.000927308
2548 1 1.28919 16.0873 31.7889 -0.00321032 0.000567472 0.00511064
2549 1 20.1277 14.3155 33.0374 0.0072149 0.00315929 0.00145302
2550 1 0.00536311 15.1941 31.7803 0.00597108 0.00195943 0.000230118
2551 1 1.29388 16.9362 33.0557 0.00579903 0.00765546 -0.0133781
2552 1 0.00113204 15.1588 34.3013 0.00152661 -0.00386278 -0.00140499
2553 1 18.9358 16.0404 16.6005 0.00064846 0.00523984 0.0028843
2554 1 18.8745 16.9172 17.8252 -0.00453705 -0.001786 0.00329507
2555 1 17.6582 14.2174 17.8536 -0.00639134 -0.00122499 -0.00196692
2556 1 18.9324 16.0389 19.109 0.00109619 0.000114314 -0.0055802
2557 1 16.4452 16.0574 19.1053 -0.00602026 0.000555011 -0.00672871
2558 1 17.6767 14.2531 20.3863 -0.00182105 0.00614101 -0.00567878
2559 1 17.6792 15.153 19.1108 -0.000716589 -0.00478794 0.00365449
2560 1 18.9387 16.9319 20.3594 -0.00156764 6.72672e-05 0.00394898
2561 1 16.4406 16.9733 20.3587 0.00186792 0.00104004 -0.00400706
2562 1 17.7063 15.1748 21.6959 -0.00437603 -0.000702551 -0.00808007
2563 1 15.1053 14.2284 20.4283 0.000411799 -0.00254053 0.00743215
2564 1 16.4133 16.0432 21.6516 0.00379862 0.00534081 0.00408247
2565 1 13.9272 16.1162 21.7082 0.00381263 -0.0035159 -0.00891614
2566 1 15.2366 14.3301 22.8813 0.00268066 -0.00462296 0.00170154
2567 1 15.1629 15.1621 21.6529 -0.00385811 -0.00664199 0.00265417
2568 1 16.3688 16.8819 22.9642 0.00520352 0.00398559 0.00494934
2569 1 13.8642 16.9877 22.9561 0.000108744 -0.00788187 -0.00677112
2570 1 15.1716 15.1723 24.2159 -0.0044071 -0.00580691 -8.524e-05
2571 1 12.7476 14.2755 22.9483 0.00268761 -0.00366743 -0.00506594
2572 1 13.8939 16.0504 24.2192 -0.00673111 -0.00131936 -0.00203567
2573 1 11.3549 16.0117 24.1781 0.00293251 -0.00445653 0.00294622
2574 1 12.5829 14.2794 25.4558 -0.0103532 0.00019939 -0.00382304
2575 1 12.6696 15.1763 24.2058 0.00370837 -2.13965e-05 -0.0113205
2576 1 13.8944 16.9954 25.4724 -0.0088252 -0.00948599 0.00353639
2577 1 11.3534 16.9053 25.5189 0.00556856 0.00438007 0.0020971
2578 1 12.5861 15.1768 26.7426 0.00625097 0.00610683 -0.000841089
2579 1 10.0781 14.2685 25.4632 0.0030944 -0.00843779 0.000484353
2580 1 11.3609 16.0573 26.7507 -0.00488688 -0.00596627 -0.00120678
2581 1 8.88136 16.0147 26.712 0.00108382 -0.00357603 -0.00118788
2582 1 10.1191 14.313 28.019 0.00199346 -0.00430142 -0.000474742
2583 1 10.0943 15.1631 26.7733 0.00174365 0.00831849 -0.00492086
2584 1 11.3271 16.9197 28.0201 0.00242884 -0.00634509 0.000990843
2585 1 8.82586 16.9047 27.9636 -8.58172e-05 -0.00292054 -0.000422147
2586 1 10.0947 15.1361 29.2743 -0.000639811 0.000332642 0.00260803
2587 1 7.56146 14.2822 27.9452 0.000127981 0.00546694 -0.00580856
2588 1 8.80559 16.0272 29.2669 0.0137028 0.0102381 -0.00147824
2589 1 6.31639 16.0578 29.3314 -0.000128188 -0.000618416 -0.00724299
2590 1 7.56315 14.2531 30.5732 0.0025525 -0.00755128 0.00157236
2591 1 7.54463 15.1501 29.2976 -0.0011411 -0.00217351 -0.00235914
2592 1 8.83048 16.9606 30.4883 0.00135138 0.00817379 0.000770485
2593 1 6.34878 16.9583 30.6157 0.00333138 0.00116306 0.00352565
2594 1 7.59425 15.1631 31.8265 -0.00346046 -0.00193833 0.00207742
2595 1 5.02279 14.2727 30.5079 0.00304034 -0.00261938 0.00665684
2596 1 6.3291 16.0992 31.8354 0.00805177 0.00666446 0.00333949
2597 1 3.81283 16.041 31.82 -0.00529439 0.000778601 -0.00154883
2598 1 5.0706 14.2347 33.0417 -0.00197863 0.00169861 -0.00750746
2599 1 5.05997 15.1631 31.7969 -0.00111594 -0.000806415 0.0031309
2600 1 6.27258 16.9325 33.1792 0.00741196 0.00313714 0.00185636
2601 1 3.80435 16.945 33.0949 0.000123253 -0.000586559 -0.00229016
2602 1 5.0491 15.1557 34.3747 0.00349619 -0.00184994 -0.0066011
2603 1 2.54792 14.2896 33.0018 -0.00401985 -0.00178206 -0.00843275
2604 1 3.80092 16.0114 34.3952 -0.0041696 -0.00191267 -0.00672386
2605 1 1.30726 16.0239 34.2967 0.00414515 0.00152512 -0.00858643
2606 1 2.56913 14.2396 35.5619 -0.0070635 0.00326239 -3.05718e-05
2607 1 2.59087 15.1111 34.3099 -0.00281191 -0.000610669 -0.00612452
2608 1 3.79657 16.9265 35.6495 0.00796128 0.000143472 0.00217295
2609 1 1.32281 16.9482 35.525 0.000257753 0.00223607 -0.00449265
2610 1 2.55207 15.1541 36.8318 -0.00105564 0.00333979 0.00556414
2611 1 0.0298772 14.2975 35.5243 0.00301936 0.00246824 0.00649542
2612 1 1.3013 16.0421 36.811 0.00322467 -0.0082159 -0.00102124
2613 1 0.000148874 14.2443 37.9556 -0.00124982 -0.0131219 0.00523806
2614 1 20.1659 15.226 36.8315 0.00949551 -0.00962713 -0.0063836
2615 1 1.26017 17.0214 38.0027 -0.00775149 0.000779729 -0.00519165
2616 1 18.9203 16.0528 21.6837 0.000425403 0.00734407 -0.00138886
2617 1 19.0009 16.9321 22.8944 -0.0052961 0.005602 0.00688006
2618 1 17.7688 14.2974 22.9751 0.00774435 0.00335449 -0.00296827
2619 1 19.0036 16.0355 24.2298 -0.0115312 -0.00290605 -0.000565384
2620 1 16.4479 16.0625 24.2303 -0.00304181 -0.00359405 0.00254912
2621 1 17.6768 14.2984 25.5226 -0.00488411 0.00438765 -0.00831561
2622 1 17.7122 15.1927 24.2316 0.00160498 0.0141899 0.00571993
2623 1 18.9473 16.9291 25.4688 -9.93215e-05 0.00531208 -0.000287181
2624 1 16.4199 16.941 25.4873 -0.00839824 0.00145481 0.00105561
2625 1 17.6558 15.17 26.7433 0.0097428 -0.00302217 -0.00267312
2626 1 15.142 14.2714 25.465 -0.000372158 0.00520462 0.000828476
2627 1 16.3791 16.0447 26.7799 -0.00404922 0.000454293 0.00333681
2628 1 13.9024 16.0369 26.748 0.00112162 0.00128079 0.00105337
2629 1 15.0942 14.272 27.9959 -0.00277763 -0.00255366 -0.00333476
2630 1 15.1376 15.1925 26.7146 -0.00627627 -0.00244594 0.00387308
2631 1 16.3939 17.0047 28.049 -0.00586935 0.00347794 0.00332142
2632 1 13.8389 16.9436 27.998 0.000973966 0.00306503 0.00226094
2633 1 15.1395 15.2016 29.2446 0.00358419 -0.00422019 -0.00535013
2634 1 12.6124 14.3152 28.0166 0.000703586 -0.00350878 -0.00319152
2635 1 13.8575 16.0464 29.2774 -0.00307276 -0.0020325 -0.0034009
2636 1 11.3406 16.0446 29.2679 -0.00915342 -0.00345488 -0.00426556
2637 1 12.6468 14.2229 30.5416 -0.0012497 -0.00439617 -0.00262339
2638 1 12.6322 15.1566 29.2906 0.00211668 0.00411485 -0.00269497
2639 1 13.8399 16.9159 30.5799 -0.00288549 -0.00443698 -0.00660576
2640 1 11.3263 16.915 30.5493 0.004996 0.00179798 -0.00673571
2641 1 12.5775 15.0617 31.817 0.00515415 -0.00425246 -0.00226747
2642 1 10.1372 14.2513 30.5488 0.00527161 0.000722988 0.000524572
2643 1 11.3552 15.9903 31.7897 0.00367376 -8.50265e-05 -0.00211293
2644 1 8.86053 16.0184 31.7835 0.00345788 -0.00271967 0.000930028
2645 1 10.0472 14.2541 33.0938 -0.00506197 -0.00527856 -0.000693307
2646 1 10.0822 15.1315 31.8458 -0.000615279 0.00300354 0.00456061
2647 1 11.3429 16.9299 33.014 0.00107506 0.0066947 -0.00131226
2648 1 8.88625 16.878 33.0799 0.00418032 -0.00168015 0.00228841
2649 1 10.0354 15.1213 34.4031 -0.00107859 0.00781868 -0.00132295
2650 1 7.58969 14.3073 33.0768 0.00351549 0.00433274 -0.012123
2651 1 8.78803 16.0125 34.4011 0.00648904 0.00498138 -0.00314997
2652 1 6.29521 16.0656 34.3951 -0.00829641 -0.002301 0.00386923
2653 1 7.53041 14.2327 35.6272 0.000641596 0.00415071 0.00502393
2654 1 7.53461 15.1316 34.3396 0.00349895 -0.00113549 -0.00590358
2655 1 8.83743 16.9019 35.6021 0.00525092 -0.00841047 -0.00878723
2656 1 6.33456 16.9574 35.6235 -0.00032059 -0.00408766 -0.00365894
2657 1 7.58427 15.1203 36.9563 0.0154075 0.000277033 0.00922543
2658 1 5.06381 14.2909 35.6372 -0.0010594 0.00350393 0.00505196
2659 1 6.28789 16.0115 36.9427 -0.00257449 0.00127959 -0.00361172
2660 1 3.80841 16.05 36.9146 -0.00315493 -0.0026828 -0.00572821
2661 1 5.04662 14.1155 38.0781 0.00348977 0.00171184 -0.0123942
2662 1 5.08245 15.1552 36.9056 0.00180873 -0.00473079 -0.00352239
2663 1 6.29736 17.0497 38.0846 -0.00268565 -0.00428476 -0.00467383
2664 1 3.70344 16.973 38.0917 -0.00688214 0.00392386 -0.00314103
2665 1 2.55707 14.1294 38.0055 -0.00189654 0.0027406 -0.0015813
2666 1 18.927 16.0497 26.7864 -0.0108938 0.00408125 0.00582702
2667 1 18.8806 17.0028 27.999 -0.00212535 0.000306411 -0.000262235
2668 1 17.6757 14.2611 27.9862 -0.0015718 -0.00517153 0.00404626
2669 1 18.9064 16.0567 29.2963 -0.00882928 0.00307674 -0.000546931
2670 1 16.412 16.0618 29.2777 0.000708739 -0.0113789 -3.42368e-05
2671 1 17.6715 14.2404 30.5321 0.000925486 0.00405146 -0.00260834
2672 1 17.6765 15.1774 29.2858 0.0070843 -0.00278404 -0.00850183
2673 1 18.9255 16.928 30.5255 -0.000495662 -0.000463236 -0.00295704
2674 1 16.3755 16.9573 30.4742 0.00223891 0.00145604 0.00318693
2675 1 17.7086 15.1867 31.7949 -0.0023336 0.000182767 -0.00765842
2676 1 15.1225 14.289 30.5106 -0.000451702 -0.00146645 -0.0034886
2677 1 16.4149 16.0299 31.7706 0.0098716 -0.00158532 0.00452985
2678 1 13.8708 16.0349 31.8261 0.00319288 0.00420878 -0.00587407
2679 1 15.1549 14.2283 33.0434 0.000918984 0.00481676 0.00187681
2680 1 15.111 15.1705 31.8384 0.00408323 -0.00102227 -0.00513396
2681 1 16.4257 16.9344 33.0376 0.00254059 0.0112035 -0.0106274
2682 1 13.9018 16.9156 33.041 0.00023795 0.00320945 -0.0156049
2683 1 15.131 15.1138 34.358 0.00363608 0.000147513 -0.00128843
2684 1 12.591 14.2047 33.1105 0.00336555 -0.00769584 -0.000189244
2685 1 13.8169 16.0289 34.3357 0.00369574 0.00236778 -0.000348257
2686 1 11.3306 16.0237 34.3678 0.00142774 -0.000697109 -0.00909372
2687 1 12.5928 14.295 35.6201 0.00403106 0.00370347 0.0144019
2688 1 12.5619 15.1309 34.3528 -0.00237464 -0.00670889 -0.000913052
2689 1 13.858 16.895 35.5758 -0.0017235 0.00264799 0.00192203
2690 1 11.3196 16.8922 35.5354 -0.00449006 0.00321555 -0.00760244
2691 1 12.6143 15.2223 36.9159 -0.0010172 0.00113433 -0.0104935
2692 1 10.0447 14.2426 35.6685 -0.00365777 -0.0108266 -5.75107e-05
2693 1 11.3485 16.0648 36.8284 -0.00211464 -0.0018872 -0.0100525
2694 1 8.83288 16.0259 36.9234 -0.00369773 -0.00194652 0.00167
2695 1 10.1204 14.1801 37.9923 -0.00439013 0.000584983 0.00197207
2696 1 10.1425 15.1714 36.9062 -0.00271073 -0.00102633 0.00731588
2697 1 11.3886 17.0441 37.9392 -0.0051255 -0.00782808 0.00198774
2698 1 8.85887 17.043 38.014 0.00074045 0.00199619 0.00125257
2699 1 7.60857 14.1467 38.0706 0.00467316 0.00339507 -0.00504865
2700 1 18.924 16.069 31.7986 -0.00716273 0.00292988 -0.00576416
2701 1 18.9311 17.0097 33.041 0.00565723 -0.00480308 -0.00218727
2702 1 17.6976 14.2766 33.0759 -0.00801611 -0.000904927 0.00475998
2703 1 18.9323 16.0873 34.3095 -0.00576648 0.00978701 -0.000322489
2704 1 16.4034 16.022 34.2881 -0.00150631 0.00781488 -0.000140449
2705 1 17.6537 14.2416 35.606 0.00324287 -0.00249809 -0.0105117
2706 1 17.6577 15.1829 34.31 0.00932954 0.0107365 0.00115606
2707 1 18.9575 16.9099 35.5712 -0.00859671 0.000732927 -0.00505266
2708 1 16.3587 16.9253 35.5401 0.00777878 -0.00450476 -0.00904311
2709 1 17.6693 15.1665 36.9035 -0.00112572 0.00499336 -0.00340238
2710 1 15.1202 14.2419 35.6029 -0.000770076 -0.00274597 0.00291928
2711 1 16.4151 16.0028 36.8568 0.00194391 -0.00212979 -0.00758716
2712 1 13.8775 16.0665 36.8821 -0.000412158 0.00334776 -0.000291443
2713 1 15.1212 14.2027 38.0127 -0.00770042 -0.00360978 0.00468804
2714 1 15.1227 15.1932 36.8681 -0.00219659 6.65383e-05 -0.00420403
2715 1 16.4195 17.0843 37.9467 0.000625897 -0.00577545 -0.000600414
2716 1 13.8359 17.0682 38.0263 -0.00224046 -0.0053637 -0.00343736
2717 1 12.6119 14.2279 37.9521 0.00268508 -0.00175477 -0.00829822
2718 1 18.9034 16.059 36.8485 0.00144956 -0.00319707 -0.000380621
2719 1 18.9165 17.0691 37.9364 -0.00136374 -0.00405542 0.00321626
2720 1 17.6744 14.2194 38.0173 0.00295661 -0.00581318 -0.00174658
2721 1 2.52111 18.7183 -3.78166 0 0 0
2722 1 1.26055 19.6096 -3.78166 0 0 0
2723 1 0 17.8269 -2.52111 0 0 0
2724 1 0 18.7183 -3.78166 0 0 0
2725 1 1.26055 20.501 -2.52111 0 0 0
2726 1 0 18.7183 -1.26055 0 0 0
2727 1 7.56333 18.7183 -3.78166 0 0 0
2728 1 6.30277 19.6096 -3.78166 0 0 0
2729 1 3.78166 19.6096 -3.78166 0 0 0
2730 1 5.04222 17.8269 -2.52111 0 0 0
2731 1 5.04222 18.7183 -3.78166 0 0 0
2732 1 6.30277 20.501 -2.52111 0 0 0
2733 1 3.78166 20.501 -2.52111 0 0 0
2734 1 5.04222 18.7183 -1.26055 0 0 0
2735 1 2.52111 17.8269 -2.52111 0 0 0
2736 1 3.78166 19.6096 -1.26055 0 0 0
2737 1 1.26055 19.6096 -1.26055 0 0 0
2738 1 2.49517 17.8066 0.00174392 0.0022507 -0.00261969 0.00188234
2739 1 2.52111 18.7183 -1.26055 0 0 0
2740 1 3.73668 20.5571 0.0423286 -0.00300683 -0.0147468 -0.00155055
2741 1 1.24388 20.4781 0.030528 -0.00279478 0.00327703 0.00216176
2742 1 2.4901 18.7615 1.292 -0.00367616 0.00265613 -0.000998034
2743 1 0.0140596 17.8216 -0.0325316 0.00324846 0.00334069 -0.00284885
2744 1 1.24612 19.5914 1.2817 0.00466692 -0.00131297 -0.00126211
2745 1 20.1661 17.8422 2.52549 0.000323326 -0.0019145 -0.00228097
2746 1 20.1377 18.7419 1.22849 0.00714455 -0.00837431 -0.00235061
2747 1 1.27895 20.4796 2.59861 -0.00740058 -0.00224687 -0.00339759
2748 1 20.1579 18.704 3.86817 0.000677277 -0.00347335 -0.00264879
2749 1 12.6055 18.7183 -3.78166 0 0 0
2750 1 11.345 19.6096 -3.78166 0 0 0
2751 1 8.82388 19.6096 -3.78166 0 0 0
2752 1 10.0844 17.8269 -2.52111 0 0 0
2753 1 10.0844 18.7183 -3.78166 0 0 0
2754 1 11.345 20.501 -2.52111 0 0 0
2755 1 8.82388 20.501 -2.52111 0 0 0
2756 1 10.0844 18.7183 -1.26055 0 0 0
2757 1 7.56333 17.8269 -2.52111 0 0 0
2758 1 8.82388 19.6096 -1.26055 0 0 0
2759 1 6.30277 19.6096 -1.26055 0 0 0
2760 1 7.51817 17.8034 0.0179457 -0.00537488 0.00331424 -0.00595202
2761 1 7.56333 18.7183 -1.26055 0 0 0
2762 1 8.77881 20.4924 0.0466895 -0.00214386 -0.00214712 -0.00341602
2763 1 6.32885 20.498 0.02968 -0.00526354 -0.00879426 -0.00230006
2764 1 7.50957 18.6708 1.32196 0.000285499 0.0049726 0.00515004
2765 1 5.00259 17.8158 0.0456579 0.00187327 -0.00087865 -0.000776516
2766 1 6.24611 19.5882 1.27031 -0.00904276 0.00597977 -0.00247313
2767 1 3.75303 19.6181 1.32094 -0.00378805 -0.00545476 -0.0039805
2768 1 5.03188 17.8574 2.53779 -0.00957399 0.00673093 0.00354673
2769 1 4.99809 18.7355 1.27262 0.000898227 0.010799 -0.000616944
2770 1 6.26206 20.5261 2.53013 -0.0028188 -0.00137969 -0.00624492
2771 1 3.80835 20.5283 2.55498 0.00499653 -0.00681279 -0.000505661
2772 1 5.10036 18.7198 3.82169 0.00590984 -0.00537121 0.000662258
2773 1 2.51368 17.8574 2.58251 -0.000541905 -0.00328603 -0.00144319
2774 1 3.82429 19.5864 3.83817 -0.00388961 -0.0145963 0.00520182
2775 1 1.21541 19.5799 3.80582 -0.00359243 0.00517577 0.00258484
2776 1 2.52477 17.7794 5.12422 0.00602396 0.00244274 -0.00260365
2777 1 2.58461 18.6827 3.86594 0.00400568 0.00363742 -0.00554466
2778 1 3.75553 20.4866 5.12658 0.000802822 -0.00330527 0.000247861
2779 1 1.24739 20.452 5.16052 2.32003e-06 0.00110002 0.00628938
2780 1 2.52968 18.6717 6.46132 -0.000217923 -0.00354471 -0.00821627
2781 1 0.0613908 17.812 5.12479 -4.76269e-05 -0.00509673 0.00283905
2782 1 1.23853 19.529 6.41631 0.00229007 0.00974945 0.00299363
2783 1 0.00223318 17.8193 7.67599 0.00392396 0.000320093 0.0101236
2784 1 0.00277154 18.7178 6.36918 -0.00170892 0.00117017 0.00806697
2785 1 1.27971 20.5034 7.66232 0.0062751 -0.006834 0.000716165
2786 1 0.0362392 18.6246 8.94337 0.00508087 -0.00461618 0.00132591
2787 1 17.6478 18.7183 -3.78166 0 0 0
2788 1 16.3872 19.6096 -3.78166 0 0 0
2789 1 13.8661 19.6096 -3.78166 0 0 0
2790 1 15.1267 17.8269 -2.52111 0 0 0
2791 1 15.1267 18.7183 -3.78166 0 0 0
2792 1 16.3872 20.501 -2.52111 0 0 0
2793 1 13.8661 20.501 -2.52111 0 0 0
2794 1 15.1267 18.7183 -1.26055 0 0 0
2795 1 12.6055 17.8269 -2.52111 0 0 0
2796 1 13.8661 19.6096 -1.26055 0 0 0
2797 1 11.345 19.6096 -1.26055 0 0 0
2798 1 12.5744 17.7929 -0.0230639 0.0080765 0.00231136 -0.00253294
2799 1 12.6055 18.7183 -1.26055 0 0 0
2800 1 13.8589 20.5239 -0.00469997 0.00107105 -0.00448624 0.009387
2801 1 11.3269 20.5202 0.0461262 0.00067596 -0.000855889 0.00446521
2802 1 12.561 18.7712 1.25397 -0.00449841 -0.00374594 -0.00681957
2803 1 10.0548 17.8752 0.0226702 -0.00229238 -0.00750054 0.0131465
2804 1 11.3277 19.6391 1.29576 -0.00274067 -0.00263817 -0.000610926
2805 1 8.80304 19.6195 1.26674 0.00227468 -0.00992766 -0.00328136
2806 1 10.0807 17.8774 2.57971 0.00668771 -0.000826723 0.00530879
2807 1 10.0507 18.69 1.2782 0.000154301 0.00162185 -0.00419425
2808 1 11.3151 20.5219 2.5235 -0.00384227 0.00698196 -0.00279246
2809 1 8.85695 20.4943 2.52512 0.00350069 -0.00132536 -0.00255444
2810 1 10.0967 18.684 3.82984 -0.00327564 0.000992843 0.00455838
2811 1 7.51174 17.823 2.60923 -0.00158813 -0.00553037 -0.000201968
2812 1 8.83779 19.5811 3.7941 0.00561635 0.00112183 0.00174821
2813 1 6.32492 19.652 3.80398 0.00328409 0.00395936 0.00279484
2814 1 7.5919 17.8485 5.0605 0.000784807 0.00134013 0.00919098
2815 1 7.63171 18.7377 3.8337 -0.00214845 0.00101336 -0.00627052
2816 1 8.79865 20.505 5.1204 -0.00425526 -0.00406879 -0.0012461
2817 1 6.28178 20.4465 5.08004 0.00581432 0.00039356 0.00171358
2818 1 7.53894 18.7221 6.33531 -0.00504957 0.000173441 0.00253591
2819 1 5.04484 17.7895 5.07634 -0.00163932 -0.00455943 -0.00162619
2820 1 6.25304 19.596 6.37773 0.00347946 0.00689448 0.00532527
2821 1 3.73516 19.5892 6.38294 0.00313417 -0.00479897 -0.00285939
2822 1 5.05835 17.7674 7.60594 0.00445663 -0.00497632 -0.00618429
2823 1 5.02207 18.6889 6.34897 -0.00110884 0.000913008 0.0042424
2824 1 6.29963 20.5202 7.6243 -0.000136469 0.0032747 -0.0010988
2825 1 3.76178 20.5118 7.67595 0.00219877 0.000138607 -0.00504335
2826 1 5.04273 18.6765 8.877 0.00168061 0.00244179 0.0081912
2827 1 2.56327 17.7917 7.71915 -0.0111434 0.00807674 -0.00199974
2828 1 3.78719 19.6399 8.98247 -0.00301223 -0.0115802 0.00519266
2829 1 1.33733 19.6132 8.96663 0.00330124 0.000228312 0.0095283
2830 1 2.52923 17.857 10.2533 -0.00370875 -0.00364793 -0.0114291
2831 1 2.60318 18.7068 8.95393 0.000633884 0.0108486 0.00243609
2832 1 3.83313 20.5063 10.2542 0.00258996 0.0031356 -0.00447559
2833 1 1.33134 20.528 10.1977 -0.00940548 0.0074457 -0.00145975
2834 1 2.49231 18.7399 11.501 0.000573303 0.00401254 -0.00164227
2835 1 0.0132731 17.8391 10.2303 -0.00352303 0.00269393 0.00261754
2836 1 1.2384 19.6661 11.4829 -0.00152215 0.00510802 0.00274444
2837 1 0.0387726 17.8172 12.7509 -0.00267081 -0.000711563 -0.00327053
2838 1 20.1646 18.7426 11.4822 0.00284524 -0.00499829 0.00397946
2839 1 1.24945 20.5269 12.7258 -0.00615095 0.00406065 -0.00911712
2840 1 20.1609 18.7396 13.9985 -0.00529822 -0.00105024 5.15868e-05
2841 1 18.9083 19.6096 -3.78166 0 0 0
2842 1 18.9083 20.501 -2.52111 0 0 0
2843 1 17.6478 17.8269 -2.52111 0 0 0
2844 1 18.9083 19.6096 -1.26055 0 0 0
2845 1 16.3872 19.6096 -1.26055 0 0 0
2846 1 17.6716 17.7951 0.0102796 -0.0044977 -0.00704605 0.0101113
2847 1 17.6478 18.7183 -1.26055 0 0 0
2848 1 18.9063 20.4864 0.0321157 -0.00463275 0.00113218 -0.00542747
2849 1 16.4358 20.5304 0.0305926 -0.00119137 -0.00333861 -0.00348402
2850 1 17.5981 18.6833 1.3147 -0.00236017 -0.000525349 0.003105
2851 1 15.1645 17.7614 -0.0411643 -0.000805726 -0.00735283 -0.00194238
2852 1 16.3344 19.5428 1.26824 0.00240727 0.00900412 0.0012782
2853 1 13.8736 19.6269 1.30151 -0.00403442 -0.00624777 -0.00342041
2854 1 15.0725 17.8255 2.5492 0.00339012 0.0028987 -0.000917534
2855 1 15.0685 18.6952 1.22653 -0.00347051 0.00765339 0.00379307
2856 1 16.3821 20.4551 2.56249 0.00286668 -0.00441861 0.00048904
2857 1 13.8106 20.5343 2.51055 0.00506298 -0.00100711 -0.0127051
2858 1 15.0868 18.6638 3.8468 0.000674865 0.00577732 -0.00621118
2859 1 12.5823 17.8644 2.5494 -0.00361132 -0.00402191 0.00760033
2860 1 13.8387 19.5509 3.79902 0.00087553 0.00386831 0.00334194
2861 1 11.3483 19.6219 3.80868 0.00203757 -0.000273205 -0.00393997
2862 1 12.548 17.8609 5.09376 0.00129799 0.00365763 0.00489821
2863 1 12.603 18.6979 3.87101 0.00104193 0.00135048 -0.0012314
2864 1 13.8765 20.4473 5.13756 -0.00321636 0.00352571 -0.00750239
2865 1 11.335 20.5012 5.10264 0.0067138 0.00282625 -0.00596678
2866 1 12.5821 18.7225 6.38628 0.00266118 0.000549704 -0.00371575
2867 1 10.1399 17.7763 5.0951 0.000976053 0.0053861 -0.000378326
2868 1 11.2954 19.608 6.3944 -0.00360017 -0.00485448 -0.00631757
2869 1 8.83128 19.5854 6.35421 -0.00657607 0.00215379 -0.00124075
2870 1 10.0914 17.8606 7.6729 -0.00329271 0.00663477 -0.00335021
2871 1 10.0589 18.7115 6.34266 0.00216729 -0.00372173 -0.00451394
2872 1 11.3147 20.5067 7.66735 -0.0130483 -0.0111466 -0.00305559
2873 1 8.79855 20.511 7.6454 -0.00618453 0.00801432 0.000662552
2874 1 10.1288 18.7276 8.95302 -0.0017747 0.00655237 -0.00319993
2875 1 7.63752 17.7784 7.57464 -0.002911 -0.00628317 0.00277362
2876 1 8.84242 19.621 8.92376 5.49038e-05 -0.00279334 0.00064009
2877 1 6.30774 19.6151 8.91697 0.00880084 0.000767828 -0.0056653
2878 1 7.58979 17.8358 10.2246 -0.00348045 -0.000765261 0.000307779
2879 1 7.57129 18.6702 8.92052 -2.8211e-05 -0.00192165 -0.00106157
2880 1 8.78394 20.4647 10.1982 0.000761412 -0.00226948 0.000493177
2881 1 6.29281 20.4768 10.2146 0.00191735 0.000280462 0.00225537
2882 1 7.5532 18.7206 11.5043 0.0027618 -0.00413134 0.00386403
2883 1 5.06049 17.8387 10.2229 0.000351511 0.00577635 0.00932639
2884 1 6.2835 19.5967 11.4645 -0.00148867 0.00393176 0.00184264
2885 1 3.76363 19.6323 11.4757 -0.00509318 0.00211934 -0.00205974
2886 1 5.00516 17.8323 12.7883 0.00173031 -0.00317631 -0.00870371
2887 1 5.04767 18.7014 11.4581 0.00103396 0.000925706 -0.00482124
2888 1 6.28475 20.5431 12.7869 -0.0034385 0.00446485 0.00162304
2889 1 3.77663 20.5704 12.7312 0.00780214 -0.00291415 0.00196467
2890 1 4.99581 18.7786 14.0515 0.00471044 -0.00185425 0.00136236
2891 1 2.52101 17.8624 12.7725 0.00531007 0.00883549 0.0101685
2892 1 3.72287 19.6393 13.9789 -0.00104474 0.00761814 -0.00334647
2893 1 1.24728 19.6238 14.019 -0.00348285 -0.00438477 -0.00108348
2894 1 2.52498 17.825 15.2552 -0.00459928 -0.00231164 -0.00396805
2895 1 2.49728 18.7365 14.0115 0.00618901 -0.00932456 0.00222853
2896 1 3.81884 20.5583 15.2796 -0.00584583 -0.000387865 0.000555007
2897 1 1.20267 20.5033 15.2476 0.000983626 0.0067551 -0.00111258
2898 1 2.5218 18.7217 16.5267 0.00685379 -0.000648215 -0.00183356
2899 1 0.0331436 17.7849 15.2722 -0.00285243 0.00323619 0.00788528
2900 1 1.25536 19.6007 16.6083 0.00551723 -0.00650473 0.00173639
2901 1 20.1643 17.8102 17.8432 -0.00016399 -0.00159107 -0.00350189
2902 1 0.0147873 18.6955 16.5738 -0.0011983 0.00381669 3.5831e-05
2903 1 1.29766 20.5193 17.8123 -0.00534787 0.0027828 -0.00971259
2904 1 0.0330815 18.6702 19.0549 0.00110954 -0.00678827 -0.000204818
2905 1 18.8685 19.5688 1.29355 0.00494073 0.00726791 -0.000305143
2906 1 18.9073 20.5487 2.53728 -0.0105345 -0.00216318 -0.00618666
2907 1 17.6484 17.8165 2.52501 0.000568729 0.0110512 -0.000566573
2908 1 18.85 19.6217 3.85428 -0.00128359 0.000727881 -0.000307639
2909 1 16.3883 19.6306 3.81456 0.00778705 -0.00629257 0.00280045
2910 1 17.6878 17.8149 5.07278 -0.000814028 0.000475839 -0.00646222
2911 1 17.6586 18.7084 3.80094 0.00454788 0.00852369 0.0052805
2912 1 18.8883 20.5101 5.11424 0.00186738 0.0106321 -0.00130313
2913 1 16.3787 20.5179 5.05223 -0.0038518 0.000696251 0.00464141
2914 1 17.6271 18.7369 6.30543 0.00893899 -0.00410817 -0.00521588
2915 1 15.162 17.8508 5.13504 -0.00378245 -0.00441682 0.00406427
2916 1 16.3627 19.683 6.37809 0.00319354 -0.00806734 0.00126804
2917 1 13.8569 19.5668 6.39793 0.00881373 -0.0047744 -0.00136472
2918 1 15.177 17.7995 7.64633 0.00821995 0.00610545 -0.00441863
2919 1 15.1389 18.7463 6.37021 0.00305431 -0.00331807 -0.00064462
2920 1 16.4163 20.4689 7.63021 -0.00385582 -0.00125545 -0.000738969
2921 1 13.8578 20.472 7.67923 -0.00337007 -0.000104739 -0.00188774
2922 1 15.1705 18.6989 8.89794 -0.0028958 -0.00928365 0.00291451
2923 1 12.6558 17.8506 7.6502 0.00155693 -0.00182378 -0.00709316
2924 1 13.9201 19.6052 8.91229 -0.00335142 -0.00167506 -0.00715328
2925 1 11.4239 19.6013 8.89699 0.000426454 0.00335377 0.00306239
2926 1 12.5972 17.853 10.2387 0.000914839 0.00290143 -0.00533405
2927 1 12.6314 18.7046 8.93018 0.000859352 -0.00414135 0.00327205
2928 1 13.9068 20.5182 10.211 0.00187903 -0.000317759 0.0101789
2929 1 11.3802 20.4528 10.2463 0.000935561 -0.00210961 0.00683956
2930 1 12.6273 18.7293 11.5129 0.00745194 -0.0148947 0.000234031
2931 1 10.0694 17.8348 10.2518 0.00662793 -0.00234625 -0.00509328
2932 1 11.3351 19.6077 11.4912 0.00949378 0.00850988 -0.0117216
2933 1 8.8132 19.6448 11.4752 -0.000275268 -0.00773878 -0.00398719
2934 1 10.0917 17.88 12.7659 0.0050333 -0.00455627 -0.00390578
2935 1 10.0785 18.7793 11.5194 0.00256871 -0.00514251 0.00269751
2936 1 11.3383 20.4841 12.789 -0.00830445 0.00980703 -0.00195722
2937 1 8.82201 20.5037 12.7889 0.00432469 -0.0118194 0.00723552
2938 1 10.1023 18.7048 14.0609 5.47787e-05 0.000304699 -0.00331886
2939 1 7.53762 17.8567 12.7633 0.00181118 0.0039299 -0.010654
2940 1 8.8032 19.6192 14.0622 0.00298369 -0.000790958 0.00290046
2941 1 6.24478 19.6951 13.9886 -0.00405945 0.00169288 0.00146704
2942 1 7.52986 17.8843 15.3123 0.00591375 -0.00289332 -0.00211129
2943 1 7.53288 18.7573 14.0352 0.00552153 -5.07707e-05 -0.00059877
2944 1 8.7772 20.5455 15.2728 -0.00739727 0.0076903 -0.00174115
2945 1 6.31554 20.5216 15.2821 0.00290743 0.00763534 0.00123188
2946 1 7.57382 18.7466 16.579 0.00682336 0.0115859 0.0056007
2947 1 5.04833 17.8453 15.3054 0.00037616 -0.000845649 -0.00541747
2948 1 6.30502 19.6415 16.5674 0.00643378 0.00597727 0.00126012
2949 1 3.7621 19.6624 16.5835 -0.00538207 -0.000613967 0.000469245
2950 1 5.07672 17.7783 17.8851 -0.0018035 -0.00302772 -0.00479162
2951 1 5.08511 18.7337 16.5692 0.00410638 0.00745302 -0.00292021
2952 1 6.31254 20.5135 17.8456 0.000472484 0.00451605 -0.00222747
2953 1 3.8176 20.5286 17.8455 -0.00154949 0.00305406 0.00131886
2954 1 5.08168 18.6705 19.1422 -0.00455711 0.00668687 0.00754135
2955 1 2.55438 17.7923 17.8069 0.000700302 -0.00242773 -0.00364069
2956 1 3.8204 19.5937 19.0779 -0.00337866 -0.00126961 -0.00533388
2957 1 1.30078 19.5573 19.0849 -0.00592063 -0.00379895 0.00241495
2958 1 2.55536 17.8316 20.3394 0.00251355 -0.00680494 0.000809321
2959 1 2.56835 18.7396 19.1145 0.00178743 -0.00364631 -0.00673048
2960 1 3.79132 20.432 20.3543 -0.000924454 -0.00251794 0.00902781
2961 1 1.29561 20.4692 20.2763 -0.00215784 -0.00102635 -0.00314342
2962 1 2.61711 18.6545 21.6281 0.0093405 0.00470826 -0.000520638
2963 1 20.1582 17.7947 20.4113 0.00304768 0.00590976 0.00341809
2964 1 1.25765 19.5345 21.5945 0.00508186 -0.000201903 0.000231227
2965 1 0.00818766 17.8632 22.895 0.00215347 0.000116138 0.000661614
2966 1 20.1588 18.7194 21.6385 0.0030384 0.00585729 0.00284382
2967 1 1.2933 20.4761 22.9095 -0.00563155 -0.00148252 -0.00655467
2968 1 0.0161904 18.7323 24.2561 -0.00197341 -0.0011502 -0.00385992
2969 1 18.8417 19.6239 6.38931 0.000982727 0.00603923 0.00170677
2970 1 18.918 20.4144 7.67057 0.000950059 0.00529995 -0.00587305
2971 1 17.6756 17.8082 7.59588 -0.000461433 -0.000623882 0.0052253
2972 1 18.9604 19.5141 8.87217 -0.00125843 -0.00192017 -0.00211172
2973 1 16.4214 19.5694 8.94538 0.00234052 0.00248046 -0.00129495
2974 1 17.6774 17.8198 10.2349 -0.00122742 0.000579384 -0.00363305
2975 1 17.6613 18.6931 8.90447 0.00370219 0.00895545 0.000854664
2976 1 18.9171 20.4831 10.1466 0.00798882 0.0010856 0.00707914
2977 1 16.3827 20.4401 10.2009 -0.0041249 -0.0103956 0.00220605
2978 1 17.6688 18.6374 11.4847 -0.0098669 0.000510188 -0.00862029
2979 1 15.0659 17.8391 10.1984 -0.00675139 0.00655899 -0.00276394
2980 1 16.416 19.5693 11.4831 0.00135837 0.000862654 0.00359421
2981 1 13.9182 19.5979 11.4999 -0.00197095 0.0033356 0.00666761
2982 1 15.1341 17.7761 12.7553 -0.00644013 -0.00356595 -0.00145541
2983 1 15.1077 18.6757 11.4806 0.00420355 0.00164243 -0.000410725
2984 1 16.3841 20.5017 12.7426 0.00329738 -0.00689576 -0.000538878
2985 1 13.8621 20.52 12.7711 0.00150452 -0.00597094 -0.00192658
2986 1 15.1146 18.6987 14.0364 0.00537941 0.00235957 -0.00153675
2987 1 12.6378 17.8888 12.7533 -0.00100779 -0.00470066 0.000280477
2988 1 13.887 19.6322 14.0498 0.00204079 -0.000170226 -0.00201219
2989 1 11.3504 19.6414 14.0542 0.00270403 0.00686051 0.00336775
2990 1 12.652 17.8615 15.3478 0.00785731 -0.0007805 -0.00303595
2991 1 12.6468 18.7158 14.0936 0.000833249 -0.00543541 -0.0081753
2992 1 13.8818 20.5026 15.3174 0.00590337 -0.00200939 -0.00178792
2993 1 11.3647 20.487 15.3598 0.00712578 0.00413972 -0.000833281
2994 1 12.657 18.7169 16.6382 -0.00467256 0.00071684 -0.00611052
2995 1 10.0844 17.851 15.3743 0.00386879 -0.00146359 0.000966879
2996 1 11.3664 19.6202 16.5936 0.0102887 -0.00270749 -0.00165112
2997 1 8.8079 19.6433 16.5886 -0.00505451 0.00199772 0.000941946
2998 1 10.1166 17.8638 17.8861 -0.00142167 -0.00978218 0.00200932
2999 1 10.0239 18.7238 16.6297 0.00321292 0.00141673 -0.00247381
3000 1 11.3646 20.4971 17.8334 0.00274154 -0.00296711 0.00387187
3001 1 8.80528 20.5185 17.8564 0.00447404 0.0016559 0.00632156
3002 1 10.0882 18.7646 19.1473 0.00396209 0.00717504 -0.000383502
3003 1 7.56713 17.7802 17.8227 -0.00314123 -0.00446747 -0.00177554
3004 1 8.84324 19.6132 19.1523 -8.37438e-05 -0.00295363 0.00524831
3005 1 6.30613 19.5461 19.1224 0.00869236 0.00248696 0.000968319
3006 1 7.60525 17.8434 20.4306 0.00339084 0.0014463 -0.0083233
3007 1 7.61747 18.684 19.1533 0.00168568 0.00598482 -0.000601944
3008 1 8.81344 20.484 20.4571 0.00558577 0.000985601 -0.00275652
3009 1 6.2817 20.4901 20.3304 -0.00172347 0.000873565 -0.00267661
3010 1 7.60879 18.7174 21.6658 -0.0135779 -0.000557644 -0.00164782
3011 1 5.064 17.8259 20.4081 -0.00071819 0.00145909 -0.00964791
3012 1 6.39115 19.6238 21.6262 -0.000932013 0.000997481 -0.00261146
3013 1 3.84493 19.5847 21.6397 -0.0048102 -0.00589575 0.0108955
3014 1 5.05239 17.8102 22.9398 -0.00417903 -0.00330562 0.00290116
3015 1 5.08963 18.7153 21.6694 0.00250481 0.00629743 0.00121948
3016 1 6.36449 20.5029 22.8983 -0.00272807 0.0100375 0.000826884
3017 1 3.8106 20.4924 22.905 0.00175151 -0.00080288 -0.00413948
3018 1 5.06992 18.7084 24.1317 -0.00385003 0.00386435 0.000219565
3019 1 2.49499 17.8788 22.8941 0.00147944 -0.00167454 0.00178662
3020 1 3.79508 19.6258 24.1593 0.00475368 -0.00012917 -0.00540684
3021 1 1.28787 19.6129 24.1541 0.0011264 -0.00198455 -0.000175907
3022 1 2.56672 17.8663 25.4332 0.00307048 0.000375845 -0.00193778
3023 1 2.56195 18.6665 24.1623 -0.00367481 -0.00540577 -0.0108533
3024 1 3.76998 20.506 25.4736 0.000562705 0.0033292 0.00226112
3025 1 1.26678 20.462 25.3918 0.00631444 0.0026387 0.000990628
3026 1 2.5053 18.7426 26.745 0.00129499 -0.00325262 0.00645487
3027 1 20.1607 17.8373 25.4913 -0.0013765 -0.00311477 -0.00076598
3028 1 1.25942 19.5921 26.763 0.00181796 -0.00538137 0.00746511
3029 1 0.0156223 17.8465 28.0355 0.00532176 0.00249034 -0.0046916
3030 1 20.1624 18.7425 26.7995 0.00217302 -0.00247309 -0.000649783
3031 1 1.26204 20.5222 28.0026 -0.00201113 -0.00267724 -0.00575308
3032 1 20.1599 18.735 29.3038 0.00192575 -0.00230975 0.00106025
3033 1 18.9349 19.5649 11.3936 -0.000664671 -0.00472585 -0.000224853
3034 1 18.9383 20.5135 12.6904 -0.00250902 -0.00181175 -0.00395231
3035 1 17.6887 17.8333 12.7567 0.00302028 -0.00210081 -0.00908961
3036 1 18.912 19.6095 13.9583 0.00199833 -0.0022081 0.0027017
3037 1 16.3817 19.5903 13.9982 -0.0125724 -0.00350833 -0.00209749
3038 1 17.7003 17.8701 15.2869 0.000282991 0.000262714 -0.00235239
3039 1 17.6698 18.7816 13.9877 -0.0070218 0.00214162 0.00673677
3040 1 18.9124 20.5222 15.2948 -0.00152612 0.00748332 0.00303423
3041 1 16.3647 20.5056 15.3444 -0.0016658 -0.00252658 -0.00461887
3042 1 17.6974 18.6802 16.5652 -0.00236512 0.0064549 -0.003188
3043 1 15.1784 17.8293 15.3266 -0.00106077 0.00681907 -0.00228589
3044 1 16.4255 19.6227 16.6451 0.000492844 0.00560965 -4.10561e-05
3045 1 13.9053 19.6107 16.5644 -0.0067896 0.00435449 -0.0025818
3046 1 15.1478 17.8909 17.8967 0.00254615 -0.00514193 0.000440342
3047 1 15.1775 18.747 16.6244 0.00701451 0.00554477 0.000425044
3048 1 16.462 20.5146 17.9239 0.00123846 -0.00865953 -0.00520472
3049 1 13.903 20.5613 17.9137 -0.00651453 3.92885e-05 -0.00336876
3050 1 15.1527 18.7663 19.1366 0.0117166 -0.00462483 0.00893718
3051 1 12.6502 17.8742 17.865 0.00151887 -5.37054e-06 0.00485388
3052 1 13.8879 19.6734 19.1159 0.00314425 -0.00478297 0.00144173
3053 1 11.3867 19.5848 19.1388 -0.00450826 0.00249895 -0.00137391
3054 1 12.6612 17.925 20.4484 0.00111135 0.00902788 -0.0124237
3055 1 12.6894 18.7475 19.0908 -0.00238596 -0.00118959 -0.00582627
3056 1 13.9104 20.5238 20.4131 0.0118179 -0.00317236 0.00323388
3057 1 11.3465 20.5155 20.4424 -0.00436998 0.00698316 0.00235862
3058 1 12.6101 18.7679 21.6993 0.0024284 0.00399021 0.00873734
3059 1 10.1193 17.8639 20.381 0.00644848 0.00212237 -0.00218003
3060 1 11.3704 19.6478 21.6768 -0.00230604 -0.00388557 -0.00322231
3061 1 8.8326 19.6143 21.7013 -0.002814 -0.00401142 0.00123439
3062 1 10.1351 17.8414 22.9365 -0.000981231 0.00336368 0.00236271
3063 1 10.0836 18.7465 21.6554 -0.00115326 0.00673109 -0.00618209
3064 1 11.3148 20.4991 22.9318 -0.00161623 -0.00303567 0.00567651
3065 1 8.84845 20.578 22.9021 0.00251189 -0.0056538 -0.00426201
3066 1 10.0672 18.675 24.2773 -0.000866184 -0.00709741 -0.00216019
3067 1 7.62764 17.8219 22.9508 -0.00269384 0.00166647 0.00742687
3068 1 8.79093 19.6277 24.2882 -0.000541703 -0.00123496 0.00471423
3069 1 6.31091 19.5793 24.2144 -0.000348473 0.000702678 0.00989959
3070 1 7.54957 17.796 25.4559 0.00444577 -0.00393356 -0.00718915
3071 1 7.5216 18.7234 24.2212 -0.00764692 0.00072309 -0.00152678
3072 1 8.84771 20.5457 25.4926 -0.00380184 -0.00549011 0.00218616
3073 1 6.34808 20.4813 25.456 0.00790121 -0.005578 0.00433822
3074 1 7.51939 18.7359 26.7557 0.00365208 0.00546764 -0.00489337
3075 1 5.05626 17.7964 25.4661 0.00380476 -0.00364283 0.00496166
3076 1 6.34177 19.6132 26.7552 -0.00149103 0.00393867 0.00768993
3077 1 3.81495 19.6133 26.6744 2.20995e-05 0.00269335 -0.00258691
3078 1 5.0562 17.8413 28.0175 -0.0103487 0.00498023 0.000960424
3079 1 5.08101 18.6982 26.7456 -0.00767851 -0.00129465 -6.40027e-05
3080 1 6.3021 20.5099 27.9785 -0.00171558 -0.00537222 -0.00518498
3081 1 3.7862 20.493 27.9973 0.00813818 0.00331467 -0.00900418
3082 1 5.0147 18.7277 29.2794 0.00749982 -0.000175586 -0.000524338
3083 1 2.54516 17.8495 27.9836 0.00132431 0.00455966 -5.02931e-05
3084 1 3.78026 19.6128 29.268 0.00401427 0.00253693 0.000436385
3085 1 1.27504 19.6149 29.2949 -0.00381592 5.93242e-05 -0.00375729
3086 1 2.557 17.862 30.5579 -0.00170244 -0.00690445 -0.00531903
3087 1 2.55749 18.7111 29.2215 -0.00403189 0.00107403 0.000277467
3088 1 3.79176 20.5118 30.5934 -0.00580944 0.00433495 0.00108053
3089 1 1.25659 20.5074 30.53 -0.00187117 -0.00155001 0.0024837
3090 1 2.54483 18.7577 31.7866 0.000978229 -0.000643081 -0.00101047
3091 1 0.047287 17.792 30.5225 -0.00071438 0.000904169 -0.00549941
3092 1 1.3323 19.6389 31.8143 -0.00448086 -2.95013e-05 0.00428382
3093 1 0.033858 17.8768 33.032 -0.00237687 0.00480767 0.00142669
3094 1 0.0722526 18.7371 31.7998 0.00300778 0.00118589 -0.00296409
3095 1 1.27318 20.5326 33.0909 0.00791467 -0.000473269 -0.00629611
3096 1 20.167 18.7386 34.3478 -0.00294166 0.00214045 0.000629248
3097 1 18.9025 19.6189 16.5426 0.0029896 -0.0135647 0.00468136
3098 1 18.9746 20.4578 17.8184 -0.00528526 0.00321696 -0.00885834
3099 1 17.6596 17.8603 17.8445 -0.00335111 -0.00610012 -0.000428151
3100 1 18.9074 19.5641 19.1032 -0.00481605 -0.00266546 -0.0013985
3101 1 16.4053 19.6241 19.1026 0.00175497 0.00431765 -0.00194704
3102 1 17.69 17.8132 20.3977 -0.00392824 -0.00330519 0.0021401
3103 1 17.6677 18.7506 19.123 0.00503861 0.0032916 -0.00379165
3104 1 18.9352 20.4391 20.3779 -0.00297905 0.00157048 -0.0073299
3105 1 16.4243 20.5391 20.4127 -0.00074129 0.00489316 -0.00521797
3106 1 17.6716 18.6951 21.6518 0.00745497 -0.000827707 0.00225235
3107 1 15.1544 17.8502 20.3946 0.00546821 0.0010051 0.00198395
3108 1 16.4167 19.6691 21.7469 0.0095691 0.00085246 0.00698
3109 1 13.8999 19.6297 21.6577 0.00127958 -0.011032 -0.00323861
3110 1 15.1325 17.8369 22.9379 0.00424201 -0.00251057 -0.00483311
3111 1 15.1293 18.7504 21.6744 -0.000621379 -0.00342427 -0.00533132
3112 1 16.4315 20.5602 22.98 0.00300602 0.00140886 0.00209095
3113 1 13.9041 20.5187 22.9217 0.00644308 0.0072045 -0.00125077
3114 1 15.189 18.7467 24.2017 -0.00496923 -0.00224659 -0.00631323
3115 1 12.5406 17.8815 22.9776 0.000758522 -0.0036101 0.00549144
3116 1 13.8996 19.6166 24.2015 0.00245338 0.001276 -0.0104715
3117 1 11.3274 19.6313 24.1839 -0.00679484 -0.00256834 0.000308376
3118 1 12.6351 17.845 25.4946 -0.00346488 -0.00156465 0.00345488
3119 1 12.6705 18.7619 24.2466 0.00249112 0.00014232 -0.0061321
3120 1 13.8974 20.479 25.468 -0.00497562 -0.00249895 -0.00122405
3121 1 11.3888 20.5207 25.4369 -0.00370532 0.000440239 -0.0065117
3122 1 12.6109 18.7373 26.7845 0.00309557 -0.00871412 -0.00471114
3123 1 10.0717 17.7808 25.4967 -0.000497895 -0.000673712 -2.69596e-05
3124 1 11.3429 19.6248 26.6972 -0.00582208 -0.000215773 -0.0027723
3125 1 8.85311 19.651 26.7296 0.00403569 0.00344456 -0.00302853
3126 1 10.0528 17.8574 28.0098 -0.00261508 -0.00288574 0.00810016
3127 1 10.1003 18.7015 26.7436 0.00150181 -0.00278416 -0.00651277
3128 1 11.2727 20.5263 28.0288 -0.000154011 -0.00349544 0.00353734
3129 1 8.8114 20.5517 28.024 -0.00530216 -0.00888239 0.00239543
3130 1 10.0533 18.7489 29.2651 0.000929904 0.00510209 0.00378994
3131 1 7.54673 17.8283 27.9503 0.0046267 -0.0063874 -0.00305836
3132 1 8.79011 19.6264 29.2484 -0.0026158 -0.00439541 0.00370518
3133 1 6.28126 19.6232 29.2901 0.00205678 -0.00132883 0.00242534
3134 1 7.55515 17.8576 30.5607 0.0101206 0.000270545 -0.000902409
3135 1 7.54641 18.7149 29.2772 -0.0042853 0.00286852 -0.00776175
3136 1 8.80246 20.4941 30.577 0.00153225 0.00181071 0.00145581
3137 1 6.30087 20.4957 30.5422 0.000960204 0.00181182 -0.00289181
3138 1 7.5567 18.7264 31.8508 0.00151808 0.00462737 -0.0039881
3139 1 5.09676 17.8393 30.5387 -0.00126541 -0.00474357 0.00030569
3140 1 6.29577 19.6085 31.8202 0.00178792 0.00102965 -0.00360171
3141 1 3.77325 19.6211 31.8148 0.00442922 0.00242859 0.00471472
3142 1 5.01371 17.8631 33.1083 0.00804256 0.00556487 -0.00612336
3143 1 5.08873 18.7361 31.824 0.000569665 0.00700038 -0.00383328
3144 1 6.29878 20.4915 33.112 0.00957792 -0.0120079 -0.00241273
3145 1 3.79739 20.4985 33.0784 -0.00210864 0.00611802 0.00236935
3146 1 5.00611 18.7619 34.3881 0.000188231 -0.00347738 0.00513846
3147 1 2.55652 17.8538 33.0909 -0.00731815 0.00378151 -0.00158825
3148 1 3.76278 19.6341 34.4305 0.00495822 -0.0033436 0.00857683
3149 1 1.26454 19.6723 34.3387 0.0066071 -0.00447602 -0.00255104
3150 1 2.46024 17.8331 35.6434 0.00427535 -0.0016381 0.00830365
3151 1 2.47786 18.7352 34.3721 -0.00799847 0.00684104 -0.00458584
3152 1 3.78337 20.5767 35.6224 0.00352053 -0.003031 0.00248691
3153 1 1.24589 20.5589 35.5785 0.00126008 0.00821186 -0.00839397
3154 1 2.49176 18.7646 36.9265 -0.00274699 -0.00569403 0.000798324
3155 1 0.0397234 17.8744 35.5439 0.00142186 0.00732218 0.00940067
3156 1 1.26075 19.6587 36.9256 0.00666436 0.00348603 0.00455443
3157 1 0.0282292 17.6901 37.9807 0.0108825 0.00318232 0.00704814
3158 1 0.0162038 18.739 36.8826 0.00320245 -0.00165415 -0.00448529
3159 1 1.18916 20.6428 38.0465 -0.00152962 -0.00835599 0.00636578
3160 1 18.9208 19.6108 21.6472 0.00312549 0.00338261 -0.00460945
3161 1 19.0147 20.5186 22.9531 0.00270718 0.00549549 -0.00109995
3162 1 17.7312 17.7856 22.9395 0.00126663 -0.00222409 -0.00564017
3163 1 18.9322 19.5903 24.2543 2.38991e-05 0.00635322 0.00638893
3164 1 16.449 19.6094 24.1806 -5.44777e-05 0.00498939 0.00221731
3165 1 17.7071 17.8682 25.4407 -0.00678545 0.00974272 -0.000528022
3166 1 17.623 18.7162 24.1748 -0.00107003 -0.00141905 0.00706903
3167 1 18.9256 20.5428 25.4854 0.000895817 3.41477e-05 -0.00563596
3168 1 16.4028 20.5109 25.4846 0.00757085 0.00660811 -0.00223127
3169 1 17.7087 18.7673 26.7262 -0.000270051 -0.00860335 0.00544518
3170 1 15.1749 17.8785 25.4827 6.30084e-05 0.00148231 0.00191315
3171 1 16.3916 19.6502 26.723 -0.0051912 0.00278192 0.00356066
3172 1 13.8641 19.6145 26.7308 0.00634025 0.00227585 -0.00204633
3173 1 15.0997 17.889 28.0055 0.000386202 0.00701573 -0.00662169
3174 1 15.0983 18.7775 26.75 0.00182374 -0.00668654 0.0024329
3175 1 16.3908 20.4994 28.0052 -0.000157773 0.00636946 0.0105325
3176 1 13.8747 20.5456 27.9611 0.00674411 -0.00351112 -0.000680608
3177 1 15.0703 18.7405 29.2659 0.0020664 -0.00149772 -0.00144396
3178 1 12.5966 17.8743 28.0041 -0.00637015 -0.000648291 0.000621746
3179 1 13.8324 19.6297 29.1968 -0.00382481 0.00878309 -0.000784254
3180 1 11.2953 19.6367 29.2524 -0.0064128 -0.000125305 -0.000109542
3181 1 12.5812 17.821 30.5408 -0.00277552 0.00424973 -0.00232826
3182 1 12.6054 18.7095 29.2463 -0.0074611 0.000781853 -0.00374328
3183 1 13.8569 20.5268 30.4622 -0.000485892 -0.00886828 -0.00702042
3184 1 11.2811 20.5199 30.5115 -0.00294193 -0.00206762 0.00387235
3185 1 12.6196 18.6977 31.7824 -0.00581073 -0.00539145 -0.00684737
3186 1 10.0509 17.8325 30.4674 0.000630115 0.00631088 0.000565647
3187 1 11.3788 19.6042 31.799 0.00563937 -0.00235242 -0.000850349
3188 1 8.84551 19.595 31.8552 -0.00374027 0.00363262 -0.00157007
3189 1 10.0913 17.8003 33.0513 -0.00124448 -0.00190599 -0.00271701
3190 1 10.1101 18.7353 31.7943 -0.00693762 0.00918237 -0.0101763
3191 1 11.2857 20.5256 33.0648 0.000117086 -0.000158754 -0.00118159
3192 1 8.75197 20.5091 33.1255 0.000924871 -0.00400283 -0.00370386
3193 1 10.059 18.7225 34.3766 0.000236656 0.00305404 -0.00376041
3194 1 7.57286 17.8205 33.1257 0.00922783 -0.0046654 -0.00456465
3195 1 8.79635 19.5995 34.3403 -0.00271279 -0.000795352 -0.00520773
3196 1 6.29284 19.6327 34.3672 -0.000640865 -0.00320328 -0.00121839
3197 1 7.63414 17.8386 35.6182 -0.00107275 -0.000668384 0.000739497
3198 1 7.5662 18.7277 34.3494 -0.0047767 -0.00390908 -0.00905063
3199 1 8.81222 20.5421 35.549 -0.000341795 -0.00804663 4.84116e-05
3200 1 6.31292 20.5411 35.5756 0.00010876 -0.00266409 0.00107316
3201 1 7.62062 18.6937 36.8929 0.00176658 -0.00114527 0.00298459
3202 1 5.05775 17.8037 35.6444 -0.00568887 -0.000363774 0.000814698
3203 1 6.26884 19.5824 36.8728 -0.0022577 0.00846985 -0.000625217
3204 1 3.75811 19.5864 36.8952 -0.00191741 0.00486159 0.00192837
3205 1 4.99552 17.7264 38.164 -0.00448796 -0.00923954 -0.00528868
3206 1 4.98362 18.698 36.9277 -0.000546195 -0.00996808 -0.00448801
3207 1 6.29237 20.5558 37.9593 0.00226254 0.0014276 -0.00322281
3208 1 3.78048 20.5723 38.0209 0.00571984 0.00143546 -0.0034265
3209 1 2.48417 17.6939 38.077 -0.00420888 0.00107357 -0.000909347
3210 1 18.9305 19.6746 26.7598 0.00281625 -0.0017227 -0.000113217
3211 1 18.9158 20.576 28.0017 -0.00116943 0.00457957 -0.00328498
3212 1 17.6471 17.9318 27.9682 -0.0050047 -0.00525531 -0.00522586
3213 1 18.9117 19.6588 29.2492 0.00366268 0.000201999 -0.00736628
3214 1 16.3735 19.5952 29.3227 -0.00434053 0.00137799 -0.00322158
3215 1 17.6216 17.8359 30.472 0.000296045 0.0015989 -0.00463394
3216 1 17.6235 18.7631 29.2575 -8.45535e-05 0.00817598 0.00774578
3217 1 18.893 20.5255 30.5012 0.00480229 0.00594755 -0.00146282
3218 1 16.4237 20.49 30.5038 0.00166868 -0.000118032 -0.00557787
3219 1 17.6594 18.7027 31.7791 0.00192026 0.00159485 -0.00261644
3220 1 15.0888 17.8174 30.5409 0.0125601 0.000964038 -0.00736794
3221 1 16.4129 19.5898 31.805 0.000416238 0.00630099 -0.0042022
3222 1 13.8798 19.5963 31.7708 -0.00662099 -0.0014844 -0.0029695
3223 1 15.1541 17.8274 33.0593 -0.00448486 -0.00152243 0.000794862
3224 1 15.1606 18.7188 31.8024 -0.00933171 -0.00472914 0.00189148
3225 1 16.3894 20.4302 33.0838 -0.00313657 -0.00452186 -0.00909091
3226 1 13.8553 20.5079 33.0087 -0.00425095 -0.0023211 0.00503067
3227 1 15.1794 18.757 34.3519 -0.0111489 -0.00280853 -0.00608068
3228 1 12.5969 17.7947 33.0727 0.00390115 -0.000372254 -0.00201969
3229 1 13.885 19.6343 34.3272 0.00338831 0.00303005 0.00735938
3230 1 11.3031 19.6088 34.3383 0.00345376 0.00213542 0.00949535
3231 1 12.5613 17.7878 35.6138 0.00571703 0.00133135 -0.00262204
3232 1 12.6183 18.652 34.3275 0.00629168 0.00460017 -0.00138055
3233 1 13.8487 20.5104 35.576 -0.00256783 0.00331676 -0.000947618
3234 1 11.3464 20.4637 35.5936 0.000987388 -0.00295516 0.00240445
3235 1 12.5756 18.7435 36.841 -0.00143751 -0.00425799 0.00476783
3236 1 10.092 17.8135 35.5964 -0.00748756 -0.00136279 -0.00262994
3237 1 11.3454 19.6356 36.9085 0.00605744 -0.000389514 -0.00188339
3238 1 8.86322 19.6452 36.8834 -0.00314614 0.00367501 -0.00134265
3239 1 10.0977 17.6942 37.9708 -0.00155119 0.00882312 0.00299513
3240 1 10.0728 18.733 36.942 -0.000693389 0.00978989 -0.0109948
3241 1 11.3588 20.5986 38.0786 0.00527826 -0.00245257 -0.00254816
3242 1 8.86588 20.6215 37.9707 -0.000299427 1.35277e-05 -0.00374234
3243 1 7.55239 17.7227 37.9659 0.000791494 -0.000629556 -0.00159055
3244 1 18.9219 19.6266 31.8137 0.00336562 1.51509e-05 0.00299215
3245 1 18.9459 20.5286 33.0484 0.00949291 -0.0101424 -0.000831869
3246 1 17.6369 17.8388 33.0637 0.0064663 -0.005399 -0.00329417
3247 1 18.9438 19.6368 34.3474 -0.00259317 0.00818259 0.00852455
3248 1 16.3849 19.6244 34.325 -0.00121839 -0.00136616 -0.00574207
3249 1 17.5904 17.7693 35.5861 0.000114275 0.00273419 -0.00191815
3250 1 17.6419 18.6852 34.3371 -0.00378447 -0.0031677 0.000255092
3251 1 18.928 20.5224 35.5511 -0.00793395 0.00323289 -0.00996794
3252 1 16.398 20.4215 35.6202 0.00078256 0.00446889 -0.00541661
3253 1 17.6781 18.7613 36.889 -0.00485923 0.000622149 -0.00113359
3254 1 15.1147 17.8314 35.521 0.00187344 -0.00186947 0.00107433
3255 1 16.3667 19.5664 36.9213 0.00891401 -0.000591561 -0.013405
3256 1 13.8328 19.5725 36.838 0.00273477 0.00287523 -0.00696501
3257 1 15.0785 17.7309 38.0048 0.00731663 0.00312456 -0.000176652
3258 1 15.1081 18.7369 36.8154 0.00492606 0.00310269 -0.000148689
3259 1 16.3249 20.6108 38.0406 -0.00266653 -0.00290116 -0.0014642
3260 1 13.8408 20.6026 37.9732 -0.00483641 0.00536869 -0.000583401
3261 1 12.5914 17.7301 37.9622 0.00309163 0.00678136 -0.00252782
3262 1 18.8804 19.6444 36.8603 -0.00581365 -0.00146504 3.23029e-05
3263 1 18.8591 20.6223 37.9701 0.00896173 -0.00861509 0.00152353
3264 1 17.6468 17.8027 38.0629 0.00791961 -0.000528295 -0.00573077
