ITEM: TIMESTEP
0
ITEM: NUMBER OF ATOMS
3264
ITEM: BOX BOUNDS pp pp mm
0.0000000000000000e+00 2.0168875556741614e+01
0.0000000000000000e+00 2.1392323012619400e+01
-4.7270802086113157e+00 7.5633283337781052e+01
ITEM: ATOMS id type x y z
1 1 2.52111 0.891347 -3.78166
2 1 1.26055 1.78269 -3.78166
3 1 0 0 -2.52111
4 1 0 0.891347 -3.78166
5 1 1.26055 2.67404 -2.52111
6 1 0 0.891347 -1.26055
7 1 7.56333 0.891347 -3.78166
8 1 6.30277 1.78269 -3.78166
9 1 3.78166 1.78269 -3.78166
10 1 5.04222 0 -2.52111
11 1 5.04222 0.891347 -3.78166
12 1 6.30277 2.67404 -2.52111
13 1 3.78166 2.67404 -2.52111
14 1 5.04222 0.891347 -1.26055
15 1 2.52111 0 -2.52111
16 1 3.78166 1.78269 -1.26055
17 1 1.26055 1.78269 -1.26055
18 1 2.52111 0 0
19 1 2.52111 0.891347 -1.26055
20 1 3.78166 2.67404 0
21 1 1.26055 2.67404 0
22 1 2.52111 0.891347 1.26055
23 1 0 0 0
24 1 1.26055 1.78269 1.26055
25 1 0 0 2.52111
26 1 0 0.891347 1.26055
27 1 1.26055 2.67404 2.52111
28 1 0 0.891347 3.78166
29 1 12.6055 0.891347 -3.78166
30 1 11.345 1.78269 -3.78166
31 1 8.82388 1.78269 -3.78166
32 1 10.0844 0 -2.52111
33 1 10.0844 0.891347 -3.78166
34 1 11.345 2.67404 -2.52111
35 1 8.82388 2.67404 -2.52111
36 1 10.0844 0.891347 -1.26055
37 1 7.56333 0 -2.52111
38 1 8.82388 1.78269 -1.26055
39 1 6.30277 1.78269 -1.26055
40 1 7.56333 0 0
41 1 7.56333 0.891347 -1.26055
42 1 8.82388 2.67404 0
43 1 6.30277 2.67404 0
44 1 7.56333 0.891347 1.26055
45 1 5.04222 0 0
46 1 6.30277 1.78269 1.26055
47 1 3.78166 1.78269 1.26055
48 1 5.04222 0 2.52111
49 1 5.04222 0.891347 1.26055
50 1 6.30277 2.67404 2.52111
51 1 3.78166 2.67404 2.52111
52 1 5.04222 0.891347 3.78166
53 1 2.52111 0 2.52111
54 1 3.78166 1.78269 3.78166
55 1 1.26055 1.78269 3.78166
56 1 2.52111 0 5.04222
57 1 2.52111 0.891347 3.78166
58 1 3.78166 2.67404 5.04222
59 1 1.26055 2.67404 5.04222
60 1 2.52111 0.891347 6.30277
61 1 0 0 5.04222
62 1 1.26055 1.78269 6.30277
63 1 0 0 7.56333
64 1 0 0.891347 6.30277
65 1 1.26055 2.67404 7.56333
66 1 0 0.891347 8.82388
67 1 17.6478 0.891347 -3.78166
68 1 16.3872 1.78269 -3.78166
69 1 13.8661 1.78269 -3.78166
70 1 15.1267 0 -2.52111
71 1 15.1267 0.891347 -3.78166
72 1 16.3872 2.67404 -2.52111
73 1 13.8661 2.67404 -2.52111
74 1 15.1267 0.891347 -1.26055
75 1 12.6055 0 -2.52111
76 1 13.8661 1.78269 -1.26055
77 1 11.345 1.78269 -1.26055
78 1 12.6055 0 0
79 1 12.6055 0.891347 -1.26055
80 1 13.8661 2.67404 0
81 1 11.345 2.67404 0
82 1 12.6055 0.891347 1.26055
83 1 10.0844 0 0
84 1 11.345 1.78269 1.26055
85 1 8.82388 1.78269 1.26055
86 1 10.0844 0 2.52111
87 1 10.0844 0.891347 1.26055
88 1 11.345 2.67404 2.52111
89 1 8.82388 2.67404 2.52111
90 1 10.0844 0.891347 3.78166
91 1 7.56333 0 2.52111
92 1 8.82388 1.78269 3.78166
93 1 6.30277 1.78269 3.78166
94 1 7.56333 0 5.04222
95 1 7.56333 0.891347 3.78166
96 1 8.82388 2.67404 5.04222
97 1 6.30277 2.67404 5.04222
98 1 7.56333 0.891347 6.30277
99 1 5.04222 0 5.04222
100 1 6.30277 1.78269 6.30277
101 1 3.78166 1.78269 6.30277
102 1 5.04222 0 7.56333
103 1 5.04222 0.891347 6.30277
104 1 6.30277 2.67404 7.56333
105 1 3.78166 2.67404 7.56333
106 1 5.04222 0.891347 8.82388
107 1 2.52111 0 7.56333
108 1 3.78166 1.78269 8.82388
109 1 1.26055 1.78269 8.82388
110 1 2.52111 0 10.0844
111 1 2.52111 0.891347 8.82388
112 1 3.78166 2.67404 10.0844
113 1 1.26055 2.67404 10.0844
114 1 2.52111 0.891347 11.345
115 1 0 0 10.0844
116 1 1.26055 1.78269 11.345
117 1 0 0 12.6055
118 1 0 0.891347 11.345
119 1 1.26055 2.67404 12.6055
120 1 0 0.891347 13.8661
121 1 18.9083 1.78269 -3.78166
122 1 18.9083 2.67404 -2.52111
123 1 17.6478 0 -2.52111
124 1 18.9083 1.78269 -1.26055
125 1 16.3872 1.78269 -1.26055
126 1 17.6478 0 0
127 1 17.6478 0.891347 -1.26055
128 1 18.9083 2.67404 0
129 1 16.3872 2.67404 0
130 1 17.6478 0.891347 1.26055
131 1 15.1267 0 0
132 1 16.3872 1.78269 1.26055
133 1 13.8661 1.78269 1.26055
134 1 15.1267 0 2.52111
135 1 15.1267 0.891347 1.26055
136 1 16.3872 2.67404 2.52111
137 1 13.8661 2.67404 2.52111
138 1 15.1267 0.891347 3.78166
139 1 12.6055 0 2.52111
140 1 13.8661 1.78269 3.78166
141 1 11.345 1.78269 3.78166
142 1 12.6055 0 5.04222
143 1 12.6055 0.891347 3.78166
144 1 13.8661 2.67404 5.04222
145 1 11.345 2.67404 5.04222
146 1 12.6055 0.891347 6.30277
147 1 10.0844 0 5.04222
148 1 11.345 1.78269 6.30277
149 1 8.82388 1.78269 6.30277
150 1 10.0844 0 7.56333
151 1 10.0844 0.891347 6.30277
152 1 11.345 2.67404 7.56333
153 1 8.82388 2.67404 7.56333
154 1 10.0844 0.891347 8.82388
155 1 7.56333 0 7.56333
156 1 8.82388 1.78269 8.82388
157 1 6.30277 1.78269 8.82388
158 1 7.56333 0 10.0844
159 1 7.56333 0.891347 8.82388
160 1 8.82388 2.67404 10.0844
161 1 6.30277 2.67404 10.0844
162 1 7.56333 0.891347 11.345
163 1 5.04222 0 10.0844
164 1 6.30277 1.78269 11.345
165 1 3.78166 1.78269 11.345
166 1 5.04222 0 12.6055
167 1 5.04222 0.891347 11.345
168 1 6.30277 2.67404 12.6055
169 1 3.78166 2.67404 12.6055
170 1 5.04222 0.891347 13.8661
171 1 2.52111 0 12.6055
172 1 3.78166 1.78269 13.8661
173 1 1.26055 1.78269 13.8661
174 1 2.52111 0 15.1267
175 1 2.52111 0.891347 13.8661
176 1 3.78166 2.67404 15.1267
177 1 1.26055 2.67404 15.1267
178 1 2.52111 0.891347 16.3872
179 1 0 0 15.1267
180 1 1.26055 1.78269 16.3872
181 1 0 0 17.6478
182 1 0 0.891347 16.3872
183 1 1.26055 2.67404 17.6478
184 1 0 0.891347 18.9083
185 1 18.9083 1.78269 1.26055
186 1 18.9083 2.67404 2.52111
187 1 17.6478 0 2.52111
188 1 18.9083 1.78269 3.78166
189 1 16.3872 1.78269 3.78166
190 1 17.6478 0 5.04222
191 1 17.6478 0.891347 3.78166
192 1 18.9083 2.67404 5.04222
193 1 16.3872 2.67404 5.04222
194 1 17.6478 0.891347 6.30277
195 1 15.1267 0 5.04222
196 1 16.3872 1.78269 6.30277
197 1 13.8661 1.78269 6.30277
198 1 15.1267 0 7.56333
199 1 15.1267 0.891347 6.30277
200 1 16.3872 2.67404 7.56333
201 1 13.8661 2.67404 7.56333
202 1 15.1267 0.891347 8.82388
203 1 12.6055 0 7.56333
204 1 13.8661 1.78269 8.82388
205 1 11.345 1.78269 8.82388
206 1 12.6055 0 10.0844
207 1 12.6055 0.891347 8.82388
208 1 13.8661 2.67404 10.0844
209 1 11.345 2.67404 10.0844
210 1 12.6055 0.891347 11.345
211 1 10.0844 0 10.0844
212 1 11.345 1.78269 11.345
213 1 8.82388 1.78269 11.345
214 1 10.0844 0 12.6055
215 1 10.0844 0.891347 11.345
216 1 11.345 2.67404 12.6055
217 1 8.82388 2.67404 12.6055
218 1 10.0844 0.891347 13.8661
219 1 7.56333 0 12.6055
220 1 8.82388 1.78269 13.8661
221 1 6.30277 1.78269 13.8661
222 1 7.56333 0 15.1267
223 1 7.56333 0.891347 13.8661
224 1 8.82388 2.67404 15.1267
225 1 6.30277 2.67404 15.1267
226 1 7.56333 0.891347 16.3872
227 1 5.04222 0 15.1267
228 1 6.30277 1.78269 16.3872
229 1 3.78166 1.78269 16.3872
230 1 5.04222 0 17.6478
231 1 5.04222 0.891347 16.3872
232 1 6.30277 2.67404 17.6478
233 1 3.78166 2.67404 17.6478
234 1 5.04222 0.891347 18.9083
235 1 2.52111 0 17.6478
236 1 3.78166 1.78269 18.9083
237 1 1.26055 1.78269 18.9083
238 1 2.52111 0 20.1689
239 1 2.52111 0.891347 18.9083
240 1 3.78166 2.67404 20.1689
241 1 1.26055 2.67404 20.1689
242 1 2.52111 0.891347 21.4294
243 1 0 0 20.1689
244 1 1.26055 1.78269 21.4294
245 1 0 0 22.69
246 1 0 0.891347 21.4294
247 1 1.26055 2.67404 22.69
248 1 0 0.891347 23.9505
249 1 18.9083 1.78269 6.30277
250 1 18.9083 2.67404 7.56333
251 1 17.6478 0 7.56333
252 1 18.9083 1.78269 8.82388
253 1 16.3872 1.78269 8.82388
254 1 17.6478 0 10.0844
255 1 17.6478 0.891347 8.82388
256 1 18.9083 2.67404 10.0844
257 1 16.3872 2.67404 10.0844
258 1 17.6478 0.891347 11.345
259 1 15.1267 0 10.0844
260 1 16.3872 1.78269 11.345
261 1 13.8661 1.78269 11.345
262 1 15.1267 0 12.6055
263 1 15.1267 0.891347 11.345
264 1 16.3872 2.67404 12.6055
265 1 13.8661 2.67404 12.6055
266 1 15.1267 0.891347 13.8661
267 1 12.6055 0 12.6055
268 1 13.8661 1.78269 13.8661
269 1 11.345 1.78269 13.8661
270 1 12.6055 0 15.1267
271 1 12.6055 0.891347 13.8661
272 1 13.8661 2.67404 15.1267
273 1 11.345 2.67404 15.1267
274 1 12.6055 0.891347 16.3872
275 1 10.0844 0 15.1267
276 1 11.345 1.78269 16.3872
277 1 8.82388 1.78269 16.3872
278 1 10.0844 0 17.6478
279 1 10.0844 0.891347 16.3872
280 1 11.345 2.67404 17.6478
281 1 8.82388 2.67404 17.6478
282 1 10.0844 0.891347 18.9083
283 1 7.56333 0 17.6478
284 1 8.82388 1.78269 18.9083
285 1 6.30277 1.78269 18.9083
286 1 7.56333 0 20.1689
287 1 7.56333 0.891347 18.9083
288 1 8.82388 2.67404 20.1689
289 1 6.30277 2.67404 20.1689
290 1 7.56333 0.891347 21.4294
291 1 5.04222 0 20.1689
292 1 6.30277 1.78269 21.4294
293 1 3.78166 1.78269 21.4294
294 1 5.04222 0 22.69
295 1 5.04222 0.891347 21.4294
296 1 6.30277 2.67404 22.69
297 1 3.78166 2.67404 22.69
298 1 5.04222 0.891347 23.9505
299 1 2.52111 0 22.69
300 1 3.78166 1.78269 23.9505
301 1 1.26055 1.78269 23.9505
302 1 2.52111 0 25.2111
303 1 2.52111 0.891347 23.9505
304 1 3.78166 2.67404 25.2111
305 1 1.26055 2.67404 25.2111
306 1 2.52111 0.891347 26.4716
307 1 0 0 25.2111
308 1 1.26055 1.78269 26.4716
309 1 0 0 27.7322
310 1 0 0.891347 26.4716
311 1 1.26055 2.67404 27.7322
312 1 0 0.891347 28.9928
313 1 18.9083 1.78269 11.345
314 1 18.9083 2.67404 12.6055
315 1 17.6478 0 12.6055
316 1 18.9083 1.78269 13.8661
317 1 16.3872 1.78269 13.8661
318 1 17.6478 0 15.1267
319 1 17.6478 0.891347 13.8661
320 1 18.9083 2.67404 15.1267
321 1 16.3872 2.67404 15.1267
322 1 17.6478 0.891347 16.3872
323 1 15.1267 0 15.1267
324 1 16.3872 1.78269 16.3872
325 1 13.8661 1.78269 16.3872
326 1 15.1267 0 17.6478
327 1 15.1267 0.891347 16.3872
328 1 16.3872 2.67404 17.6478
329 1 13.8661 2.67404 17.6478
330 1 15.1267 0.891347 18.9083
331 1 12.6055 0 17.6478
332 1 13.8661 1.78269 18.9083
333 1 11.345 1.78269 18.9083
334 1 12.6055 0 20.1689
335 1 12.6055 0.891347 18.9083
336 1 13.8661 2.67404 20.1689
337 1 11.345 2.67404 20.1689
338 1 12.6055 0.891347 21.4294
339 1 10.0844 0 20.1689
340 1 11.345 1.78269 21.4294
341 1 8.82388 1.78269 21.4294
342 1 10.0844 0 22.69
343 1 10.0844 0.891347 21.4294
344 1 11.345 2.67404 22.69
345 1 8.82388 2.67404 22.69
346 1 10.0844 0.891347 23.9505
347 1 7.56333 0 22.69
348 1 8.82388 1.78269 23.9505
349 1 6.30277 1.78269 23.9505
350 1 7.56333 0 25.2111
351 1 7.56333 0.891347 23.9505
352 1 8.82388 2.67404 25.2111
353 1 6.30277 2.67404 25.2111
354 1 7.56333 0.891347 26.4716
355 1 5.04222 0 25.2111
356 1 6.30277 1.78269 26.4716
357 1 3.78166 1.78269 26.4716
358 1 5.04222 0 27.7322
359 1 5.04222 0.891347 26.4716
360 1 6.30277 2.67404 27.7322
361 1 3.78166 2.67404 27.7322
362 1 5.04222 0.891347 28.9928
363 1 2.52111 0 27.7322
364 1 3.78166 1.78269 28.9928
365 1 1.26055 1.78269 28.9928
366 1 2.52111 0 30.2533
367 1 2.52111 0.891347 28.9928
368 1 3.78166 2.67404 30.2533
369 1 1.26055 2.67404 30.2533
370 1 2.52111 0.891347 31.5139
371 1 0 0 30.2533
372 1 1.26055 1.78269 31.5139
373 1 0 0 32.7744
374 1 0 0.891347 31.5139
375 1 1.26055 2.67404 32.7744
376 1 0 0.891347 34.035
377 1 18.9083 1.78269 16.3872
378 1 18.9083 2.67404 17.6478
379 1 17.6478 0 17.6478
380 1 18.9083 1.78269 18.9083
381 1 16.3872 1.78269 18.9083
382 1 17.6478 0 20.1689
383 1 17.6478 0.891347 18.9083
384 1 18.9083 2.67404 20.1689
385 1 16.3872 2.67404 20.1689
386 1 17.6478 0.891347 21.4294
387 1 15.1267 0 20.1689
388 1 16.3872 1.78269 21.4294
389 1 13.8661 1.78269 21.4294
390 1 15.1267 0 22.69
391 1 15.1267 0.891347 21.4294
392 1 16.3872 2.67404 22.69
393 1 13.8661 2.67404 22.69
394 1 15.1267 0.891347 23.9505
395 1 12.6055 0 22.69
396 1 13.8661 1.78269 23.9505
397 1 11.345 1.78269 23.9505
398 1 12.6055 0 25.2111
399 1 12.6055 0.891347 23.9505
400 1 13.8661 2.67404 25.2111
401 1 11.345 2.67404 25.2111
402 1 12.6055 0.891347 26.4716
403 1 10.0844 0 25.2111
404 1 11.345 1.78269 26.4716
405 1 8.82388 1.78269 26.4716
406 1 10.0844 0 27.7322
407 1 10.0844 0.891347 26.4716
408 1 11.345 2.67404 27.7322
409 1 8.82388 2.67404 27.7322
410 1 10.0844 0.891347 28.9928
411 1 7.56333 0 27.7322
412 1 8.82388 1.78269 28.9928
413 1 6.30277 1.78269 28.9928
414 1 7.56333 0 30.2533
415 1 7.56333 0.891347 28.9928
416 1 8.82388 2.67404 30.2533
417 1 6.30277 2.67404 30.2533
418 1 7.56333 0.891347 31.5139
419 1 5.04222 0 30.2533
420 1 6.30277 1.78269 31.5139
421 1 3.78166 1.78269 31.5139
422 1 5.04222 0 32.7744
423 1 5.04222 0.891347 31.5139
424 1 6.30277 2.67404 32.7744
425 1 3.78166 2.67404 32.7744
426 1 5.04222 0.891347 34.035
427 1 2.52111 0 32.7744
428 1 3.78166 1.78269 34.035
429 1 1.26055 1.78269 34.035
430 1 2.52111 0 35.2955
431 1 2.52111 0.891347 34.035
432 1 3.78166 2.67404 35.2955
433 1 1.26055 2.67404 35.2955
434 1 2.52111 0.891347 36.5561
435 1 0 0 35.2955
436 1 1.26055 1.78269 36.5561
437 1 0 0 37.8166
438 1 0 0.891347 36.5561
439 1 1.26055 2.67404 37.8166
440 1 18.9083 1.78269 21.4294
441 1 18.9083 2.67404 22.69
442 1 17.6478 0 22.69
443 1 18.9083 1.78269 23.9505
444 1 16.3872 1.78269 23.9505
445 1 17.6478 0 25.2111
446 1 17.6478 0.891347 23.9505
447 1 18.9083 2.67404 25.2111
448 1 16.3872 2.67404 25.2111
449 1 17.6478 0.891347 26.4716
450 1 15.1267 0 25.2111
451 1 16.3872 1.78269 26.4716
452 1 13.8661 1.78269 26.4716
453 1 15.1267 0 27.7322
454 1 15.1267 0.891347 26.4716
455 1 16.3872 2.67404 27.7322
456 1 13.8661 2.67404 27.7322
457 1 15.1267 0.891347 28.9928
458 1 12.6055 0 27.7322
459 1 13.8661 1.78269 28.9928
460 1 11.345 1.78269 28.9928
461 1 12.6055 0 30.2533
462 1 12.6055 0.891347 28.9928
463 1 13.8661 2.67404 30.2533
464 1 11.345 2.67404 30.2533
465 1 12.6055 0.891347 31.5139
466 1 10.0844 0 30.2533
467 1 11.345 1.78269 31.5139
468 1 8.82388 1.78269 31.5139
469 1 10.0844 0 32.7744
470 1 10.0844 0.891347 31.5139
471 1 11.345 2.67404 32.7744
472 1 8.82388 2.67404 32.7744
473 1 10.0844 0.891347 34.035
474 1 7.56333 0 32.7744
475 1 8.82388 1.78269 34.035
476 1 6.30277 1.78269 34.035
477 1 7.56333 0 35.2955
478 1 7.56333 0.891347 34.035
479 1 8.82388 2.67404 35.2955
480 1 6.30277 2.67404 35.2955
481 1 7.56333 0.891347 36.5561
482 1 5.04222 0 35.2955
483 1 6.30277 1.78269 36.5561
484 1 3.78166 1.78269 36.5561
485 1 5.04222 0 37.8166
486 1 5.04222 0.891347 36.5561
487 1 6.30277 2.67404 37.8166
488 1 3.78166 2.67404 37.8166
489 1 2.52111 0 37.8166
490 1 18.9083 1.78269 26.4716
491 1 18.9083 2.67404 27.7322
492 1 17.6478 0 27.7322
493 1 18.9083 1.78269 28.9928
494 1 16.3872 1.78269 28.9928
495 1 17.6478 0 30.2533
496 1 17.6478 0.891347 28.9928
497 1 18.9083 2.67404 30.2533
498 1 16.3872 2.67404 30.2533
499 1 17.6478 0.891347 31.5139
500 1 15.1267 0 30.2533
501 1 16.3872 1.78269 31.5139
502 1 13.8661 1.78269 31.5139
503 1 15.1267 0 32.7744
504 1 15.1267 0.891347 31.5139
505 1 16.3872 2.67404 32.7744
506 1 13.8661 2.67404 32.7744
507 1 15.1267 0.891347 34.035
508 1 12.6055 0 32.7744
509 1 13.8661 1.78269 34.035
510 1 11.345 1.78269 34.035
511 1 12.6055 0 35.2955
512 1 12.6055 0.891347 34.035
513 1 13.8661 2.67404 35.2955
514 1 11.345 2.67404 35.2955
515 1 12.6055 0.891347 36.5561
516 1 10.0844 0 35.2955
517 1 11.345 1.78269 36.5561
518 1 8.82388 1.78269 36.5561
519 1 10.0844 0 37.8166
520 1 10.0844 0.891347 36.5561
521 1 11.345 2.67404 37.8166
522 1 8.82388 2.67404 37.8166
523 1 7.56333 0 37.8166
524 1 18.9083 1.78269 31.5139
525 1 18.9083 2.67404 32.7744
526 1 17.6478 0 32.7744
527 1 18.9083 1.78269 34.035
528 1 16.3872 1.78269 34.035
529 1 17.6478 0 35.2955
530 1 17.6478 0.891347 34.035
531 1 18.9083 2.67404 35.2955
532 1 16.3872 2.67404 35.2955
533 1 17.6478 0.891347 36.5561
534 1 15.1267 0 35.2955
535 1 16.3872 1.78269 36.5561
536 1 13.8661 1.78269 36.5561
537 1 15.1267 0 37.8166
538 1 15.1267 0.891347 36.5561
539 1 16.3872 2.67404 37.8166
540 1 13.8661 2.67404 37.8166
541 1 12.6055 0 37.8166
542 1 18.9083 1.78269 36.5561
543 1 18.9083 2.67404 37.8166
544 1 17.6478 0 37.8166
545 1 2.52111 4.45673 -3.78166
546 1 1.26055 5.34808 -3.78166
547 1 0 3.56539 -2.52111
548 1 0 4.45673 -3.78166
549 1 1.26055 6.23943 -2.52111
550 1 0 4.45673 -1.26055
551 1 7.56333 4.45673 -3.78166
552 1 6.30277 5.34808 -3.78166
553 1 3.78166 5.34808 -3.78166
554 1 5.04222 3.56539 -2.52111
555 1 5.04222 4.45673 -3.78166
556 1 6.30277 6.23943 -2.52111
557 1 3.78166 6.23943 -2.52111
558 1 5.04222 4.45673 -1.26055
559 1 2.52111 3.56539 -2.52111
560 1 3.78166 5.34808 -1.26055
561 1 1.26055 5.34808 -1.26055
562 1 2.52111 3.56539 0
563 1 2.52111 4.45673 -1.26055
564 1 3.78166 6.23943 0
565 1 1.26055 6.23943 0
566 1 2.52111 4.45673 1.26055
567 1 0 3.56539 0
568 1 1.26055 5.34808 1.26055
569 1 0 3.56539 2.52111
570 1 0 4.45673 1.26055
571 1 1.26055 6.23943 2.52111
572 1 0 4.45673 3.78166
573 1 12.6055 4.45673 -3.78166
574 1 11.345 5.34808 -3.78166
575 1 8.82388 5.34808 -3.78166
576 1 10.0844 3.56539 -2.52111
577 1 10.0844 4.45673 -3.78166
578 1 11.345 6.23943 -2.52111
579 1 8.82388 6.23943 -2.52111
580 1 10.0844 4.45673 -1.26055
581 1 7.56333 3.56539 -2.52111
582 1 8.82388 5.34808 -1.26055
583 1 6.30277 5.34808 -1.26055
584 1 7.56333 3.56539 0
585 1 7.56333 4.45673 -1.26055
586 1 8.82388 6.23943 0
587 1 6.30277 6.23943 0
588 1 7.56333 4.45673 1.26055
589 1 5.04222 3.56539 0
590 1 6.30277 5.34808 1.26055
591 1 3.78166 5.34808 1.26055
592 1 5.04222 3.56539 2.52111
593 1 5.04222 4.45673 1.26055
594 1 6.30277 6.23943 2.52111
595 1 3.78166 6.23943 2.52111
596 1 5.04222 4.45673 3.78166
597 1 2.52111 3.56539 2.52111
598 1 3.78166 5.34808 3.78166
599 1 1.26055 5.34808 3.78166
600 1 2.52111 3.56539 5.04222
601 1 2.52111 4.45673 3.78166
602 1 3.78166 6.23943 5.04222
603 1 1.26055 6.23943 5.04222
604 1 2.52111 4.45673 6.30277
605 1 0 3.56539 5.04222
606 1 1.26055 5.34808 6.30277
607 1 0 3.56539 7.56333
608 1 0 4.45673 6.30277
609 1 1.26055 6.23943 7.56333
610 1 0 4.45673 8.82388
611 1 17.6478 4.45673 -3.78166
612 1 16.3872 5.34808 -3.78166
613 1 13.8661 5.34808 -3.78166
614 1 15.1267 3.56539 -2.52111
615 1 15.1267 4.45673 -3.78166
616 1 16.3872 6.23943 -2.52111
617 1 13.8661 6.23943 -2.52111
618 1 15.1267 4.45673 -1.26055
619 1 12.6055 3.56539 -2.52111
620 1 13.8661 5.34808 -1.26055
621 1 11.345 5.34808 -1.26055
622 1 12.6055 3.56539 0
623 1 12.6055 4.45673 -1.26055
624 1 13.8661 6.23943 0
625 1 11.345 6.23943 0
626 1 12.6055 4.45673 1.26055
627 1 10.0844 3.56539 0
628 1 11.345 5.34808 1.26055
629 1 8.82388 5.34808 1.26055
630 1 10.0844 3.56539 2.52111
631 1 10.0844 4.45673 1.26055
632 1 11.345 6.23943 2.52111
633 1 8.82388 6.23943 2.52111
634 1 10.0844 4.45673 3.78166
635 1 7.56333 3.56539 2.52111
636 1 8.82388 5.34808 3.78166
637 1 6.30277 5.34808 3.78166
638 1 7.56333 3.56539 5.04222
639 1 7.56333 4.45673 3.78166
640 1 8.82388 6.23943 5.04222
641 1 6.30277 6.23943 5.04222
642 1 7.56333 4.45673 6.30277
643 1 5.04222 3.56539 5.04222
644 1 6.30277 5.34808 6.30277
645 1 3.78166 5.34808 6.30277
646 1 5.04222 3.56539 7.56333
647 1 5.04222 4.45673 6.30277
648 1 6.30277 6.23943 7.56333
649 1 3.78166 6.23943 7.56333
650 1 5.04222 4.45673 8.82388
651 1 2.52111 3.56539 7.56333
652 1 3.78166 5.34808 8.82388
653 1 1.26055 5.34808 8.82388
654 1 2.52111 3.56539 10.0844
655 1 2.52111 4.45673 8.82388
656 1 3.78166 6.23943 10.0844
657 1 1.26055 6.23943 10.0844
658 1 2.52111 4.45673 11.345
659 1 0 3.56539 10.0844
660 1 1.26055 5.34808 11.345
661 1 0 3.56539 12.6055
662 1 0 4.45673 11.345
663 1 1.26055 6.23943 12.6055
664 1 0 4.45673 13.8661
665 1 18.9083 5.34808 -3.78166
666 1 18.9083 6.23943 -2.52111
667 1 17.6478 3.56539 -2.52111
668 1 18.9083 5.34808 -1.26055
669 1 16.3872 5.34808 -1.26055
670 1 17.6478 3.56539 0
671 1 17.6478 4.45673 -1.26055
672 1 18.9083 6.23943 0
673 1 16.3872 6.23943 0
674 1 17.6478 4.45673 1.26055
675 1 15.1267 3.56539 0
676 1 16.3872 5.34808 1.26055
677 1 13.8661 5.34808 1.26055
678 1 15.1267 3.56539 2.52111
679 1 15.1267 4.45673 1.26055
680 1 16.3872 6.23943 2.52111
681 1 13.8661 6.23943 2.52111
682 1 15.1267 4.45673 3.78166
683 1 12.6055 3.56539 2.52111
684 1 13.8661 5.34808 3.78166
685 1 11.345 5.34808 3.78166
686 1 12.6055 3.56539 5.04222
687 1 12.6055 4.45673 3.78166
688 1 13.8661 6.23943 5.04222
689 1 11.345 6.23943 5.04222
690 1 12.6055 4.45673 6.30277
691 1 10.0844 3.56539 5.04222
692 1 11.345 5.34808 6.30277
693 1 8.82388 5.34808 6.30277
694 1 10.0844 3.56539 7.56333
695 1 10.0844 4.45673 6.30277
696 1 11.345 6.23943 7.56333
697 1 8.82388 6.23943 7.56333
698 1 10.0844 4.45673 8.82388
699 1 7.56333 3.56539 7.56333
700 1 8.82388 5.34808 8.82388
701 1 6.30277 5.34808 8.82388
702 1 7.56333 3.56539 10.0844
703 1 7.56333 4.45673 8.82388
704 1 8.82388 6.23943 10.0844
705 1 6.30277 6.23943 10.0844
706 1 7.56333 4.45673 11.345
707 1 5.04222 3.56539 10.0844
708 1 6.30277 5.34808 11.345
709 1 3.78166 5.34808 11.345
710 1 5.04222 3.56539 12.6055
711 1 5.04222 4.45673 11.345
712 1 6.30277 6.23943 12.6055
713 1 3.78166 6.23943 12.6055
714 1 5.04222 4.45673 13.8661
715 1 2.52111 3.56539 12.6055
716 1 3.78166 5.34808 13.8661
717 1 1.26055 5.34808 13.8661
718 1 2.52111 3.56539 15.1267
719 1 2.52111 4.45673 13.8661
720 1 3.78166 6.23943 15.1267
721 1 1.26055 6.23943 15.1267
722 1 2.52111 4.45673 16.3872
723 1 0 3.56539 15.1267
724 1 1.26055 5.34808 16.3872
725 1 0 3.56539 17.6478
726 1 0 4.45673 16.3872
727 1 1.26055 6.23943 17.6478
728 1 0 4.45673 18.9083
729 1 18.9083 5.34808 1.26055
730 1 18.9083 6.23943 2.52111
731 1 17.6478 3.56539 2.52111
732 1 18.9083 5.34808 3.78166
733 1 16.3872 5.34808 3.78166
734 1 17.6478 3.56539 5.04222
735 1 17.6478 4.45673 3.78166
736 1 18.9083 6.23943 5.04222
737 1 16.3872 6.23943 5.04222
738 1 17.6478 4.45673 6.30277
739 1 15.1267 3.56539 5.04222
740 1 16.3872 5.34808 6.30277
741 1 13.8661 5.34808 6.30277
742 1 15.1267 3.56539 7.56333
743 1 15.1267 4.45673 6.30277
744 1 16.3872 6.23943 7.56333
745 1 13.8661 6.23943 7.56333
746 1 15.1267 4.45673 8.82388
747 1 12.6055 3.56539 7.56333
748 1 13.8661 5.34808 8.82388
749 1 11.345 5.34808 8.82388
750 1 12.6055 3.56539 10.0844
751 1 12.6055 4.45673 8.82388
752 1 13.8661 6.23943 10.0844
753 1 11.345 6.23943 10.0844
754 1 12.6055 4.45673 11.345
755 1 10.0844 3.56539 10.0844
756 1 11.345 5.34808 11.345
757 1 8.82388 5.34808 11.345
758 1 10.0844 3.56539 12.6055
759 1 10.0844 4.45673 11.345
760 1 11.345 6.23943 12.6055
761 1 8.82388 6.23943 12.6055
762 1 10.0844 4.45673 13.8661
763 1 7.56333 3.56539 12.6055
764 1 8.82388 5.34808 13.8661
765 1 6.30277 5.34808 13.8661
766 1 7.56333 3.56539 15.1267
767 1 7.56333 4.45673 13.8661
768 1 8.82388 6.23943 15.1267
769 1 6.30277 6.23943 15.1267
770 1 7.56333 4.45673 16.3872
771 1 5.04222 3.56539 15.1267
772 1 6.30277 5.34808 16.3872
773 1 3.78166 5.34808 16.3872
774 1 5.04222 3.56539 17.6478
775 1 5.04222 4.45673 16.3872
776 1 6.30277 6.23943 17.6478
777 1 3.78166 6.23943 17.6478
778 1 5.04222 4.45673 18.9083
779 1 2.52111 3.56539 17.6478
780 1 3.78166 5.34808 18.9083
781 1 1.26055 5.34808 18.9083
782 1 2.52111 3.56539 20.1689
783 1 2.52111 4.45673 18.9083
784 1 3.78166 6.23943 20.1689
785 1 1.26055 6.23943 20.1689
786 1 2.52111 4.45673 21.4294
787 1 0 3.56539 20.1689
788 1 1.26055 5.34808 21.4294
789 1 0 3.56539 22.69
790 1 0 4.45673 21.4294
791 1 1.26055 6.23943 22.69
792 1 0 4.45673 23.9505
793 1 18.9083 5.34808 6.30277
794 1 18.9083 6.23943 7.56333
795 1 17.6478 3.56539 7.56333
796 1 18.9083 5.34808 8.82388
797 1 16.3872 5.34808 8.82388
798 1 17.6478 3.56539 10.0844
799 1 17.6478 4.45673 8.82388
800 1 18.9083 6.23943 10.0844
801 1 16.3872 6.23943 10.0844
802 1 17.6478 4.45673 11.345
803 1 15.1267 3.56539 10.0844
804 1 16.3872 5.34808 11.345
805 1 13.8661 5.34808 11.345
806 1 15.1267 3.56539 12.6055
807 1 15.1267 4.45673 11.345
808 1 16.3872 6.23943 12.6055
809 1 13.8661 6.23943 12.6055
810 1 15.1267 4.45673 13.8661
811 1 12.6055 3.56539 12.6055
812 1 13.8661 5.34808 13.8661
813 1 11.345 5.34808 13.8661
814 1 12.6055 3.56539 15.1267
815 1 12.6055 4.45673 13.8661
816 1 13.8661 6.23943 15.1267
817 1 11.345 6.23943 15.1267
818 1 12.6055 4.45673 16.3872
819 1 10.0844 3.56539 15.1267
820 1 11.345 5.34808 16.3872
821 1 8.82388 5.34808 16.3872
822 1 10.0844 3.56539 17.6478
823 1 10.0844 4.45673 16.3872
824 1 11.345 6.23943 17.6478
825 1 8.82388 6.23943 17.6478
826 1 10.0844 4.45673 18.9083
827 1 7.56333 3.56539 17.6478
828 1 8.82388 5.34808 18.9083
829 1 6.30277 5.34808 18.9083
830 1 7.56333 3.56539 20.1689
831 1 7.56333 4.45673 18.9083
832 1 8.82388 6.23943 20.1689
833 1 6.30277 6.23943 20.1689
834 1 7.56333 4.45673 21.4294
835 1 5.04222 3.56539 20.1689
836 1 6.30277 5.34808 21.4294
837 1 3.78166 5.34808 21.4294
838 1 5.04222 3.56539 22.69
839 1 5.04222 4.45673 21.4294
840 1 6.30277 6.23943 22.69
841 1 3.78166 6.23943 22.69
842 1 5.04222 4.45673 23.9505
843 1 2.52111 3.56539 22.69
844 1 3.78166 5.34808 23.9505
845 1 1.26055 5.34808 23.9505
846 1 2.52111 3.56539 25.2111
847 1 2.52111 4.45673 23.9505
848 1 3.78166 6.23943 25.2111
849 1 1.26055 6.23943 25.2111
850 1 2.52111 4.45673 26.4716
851 1 0 3.56539 25.2111
852 1 1.26055 5.34808 26.4716
853 1 0 3.56539 27.7322
854 1 0 4.45673 26.4716
855 1 1.26055 6.23943 27.7322
856 1 0 4.45673 28.9928
857 1 18.9083 5.34808 11.345
858 1 18.9083 6.23943 12.6055
859 1 17.6478 3.56539 12.6055
860 1 18.9083 5.34808 13.8661
861 1 16.3872 5.34808 13.8661
862 1 17.6478 3.56539 15.1267
863 1 17.6478 4.45673 13.8661
864 1 18.9083 6.23943 15.1267
865 1 16.3872 6.23943 15.1267
866 1 17.6478 4.45673 16.3872
867 1 15.1267 3.56539 15.1267
868 1 16.3872 5.34808 16.3872
869 1 13.8661 5.34808 16.3872
870 1 15.1267 3.56539 17.6478
871 1 15.1267 4.45673 16.3872
872 1 16.3872 6.23943 17.6478
873 1 13.8661 6.23943 17.6478
874 1 15.1267 4.45673 18.9083
875 1 12.6055 3.56539 17.6478
876 1 13.8661 5.34808 18.9083
877 1 11.345 5.34808 18.9083
878 1 12.6055 3.56539 20.1689
879 1 12.6055 4.45673 18.9083
880 1 13.8661 6.23943 20.1689
881 1 11.345 6.23943 20.1689
882 1 12.6055 4.45673 21.4294
883 1 10.0844 3.56539 20.1689
884 1 11.345 5.34808 21.4294
885 1 8.82388 5.34808 21.4294
886 1 10.0844 3.56539 22.69
887 1 10.0844 4.45673 21.4294
888 1 11.345 6.23943 22.69
889 1 8.82388 6.23943 22.69
890 1 10.0844 4.45673 23.9505
891 1 7.56333 3.56539 22.69
892 1 8.82388 5.34808 23.9505
893 1 6.30277 5.34808 23.9505
894 1 7.56333 3.56539 25.2111
895 1 7.56333 4.45673 23.9505
896 1 8.82388 6.23943 25.2111
897 1 6.30277 6.23943 25.2111
898 1 7.56333 4.45673 26.4716
899 1 5.04222 3.56539 25.2111
900 1 6.30277 5.34808 26.4716
901 1 3.78166 5.34808 26.4716
902 1 5.04222 3.56539 27.7322
903 1 5.04222 4.45673 26.4716
904 1 6.30277 6.23943 27.7322
905 1 3.78166 6.23943 27.7322
906 1 5.04222 4.45673 28.9928
907 1 2.52111 3.56539 27.7322
908 1 3.78166 5.34808 28.9928
909 1 1.26055 5.34808 28.9928
910 1 2.52111 3.56539 30.2533
911 1 2.52111 4.45673 28.9928
912 1 3.78166 6.23943 30.2533
913 1 1.26055 6.23943 30.2533
914 1 2.52111 4.45673 31.5139
915 1 0 3.56539 30.2533
916 1 1.26055 5.34808 31.5139
917 1 0 3.56539 32.7744
918 1 0 4.45673 31.5139
919 1 1.26055 6.23943 32.7744
920 1 0 4.45673 34.035
921 1 18.9083 5.34808 16.3872
922 1 18.9083 6.23943 17.6478
923 1 17.6478 3.56539 17.6478
924 1 18.9083 5.34808 18.9083
925 1 16.3872 5.34808 18.9083
926 1 17.6478 3.56539 20.1689
927 1 17.6478 4.45673 18.9083
928 1 18.9083 6.23943 20.1689
929 1 16.3872 6.23943 20.1689
930 1 17.6478 4.45673 21.4294
931 1 15.1267 3.56539 20.1689
932 1 16.3872 5.34808 21.4294
933 1 13.8661 5.34808 21.4294
934 1 15.1267 3.56539 22.69
935 1 15.1267 4.45673 21.4294
936 1 16.3872 6.23943 22.69
937 1 13.8661 6.23943 22.69
938 1 15.1267 4.45673 23.9505
939 1 12.6055 3.56539 22.69
940 1 13.8661 5.34808 23.9505
941 1 11.345 5.34808 23.9505
942 1 12.6055 3.56539 25.2111
943 1 12.6055 4.45673 23.9505
944 1 13.8661 6.23943 25.2111
945 1 11.345 6.23943 25.2111
946 1 12.6055 4.45673 26.4716
947 1 10.0844 3.56539 25.2111
948 1 11.345 5.34808 26.4716
949 1 8.82388 5.34808 26.4716
950 1 10.0844 3.56539 27.7322
951 1 10.0844 4.45673 26.4716
952 1 11.345 6.23943 27.7322
953 1 8.82388 6.23943 27.7322
954 1 10.0844 4.45673 28.9928
955 1 7.56333 3.56539 27.7322
956 1 8.82388 5.34808 28.9928
957 1 6.30277 5.34808 28.9928
958 1 7.56333 3.56539 30.2533
959 1 7.56333 4.45673 28.9928
960 1 8.82388 6.23943 30.2533
961 1 6.30277 6.23943 30.2533
962 1 7.56333 4.45673 31.5139
963 1 5.04222 3.56539 30.2533
964 1 6.30277 5.34808 31.5139
965 1 3.78166 5.34808 31.5139
966 1 5.04222 3.56539 32.7744
967 1 5.04222 4.45673 31.5139
968 1 6.30277 6.23943 32.7744
969 1 3.78166 6.23943 32.7744
970 1 5.04222 4.45673 34.035
971 1 2.52111 3.56539 32.7744
972 1 3.78166 5.34808 34.035
973 1 1.26055 5.34808 34.035
974 1 2.52111 3.56539 35.2955
975 1 2.52111 4.45673 34.035
976 1 3.78166 6.23943 35.2955
977 1 1.26055 6.23943 35.2955
978 1 2.52111 4.45673 36.5561
979 1 0 3.56539 35.2955
980 1 1.26055 5.34808 36.5561
981 1 0 3.56539 37.8166
982 1 0 4.45673 36.5561
983 1 1.26055 6.23943 37.8166
984 1 18.9083 5.34808 21.4294
985 1 18.9083 6.23943 22.69
986 1 17.6478 3.56539 22.69
987 1 18.9083 5.34808 23.9505
988 1 16.3872 5.34808 23.9505
989 1 17.6478 3.56539 25.2111
990 1 17.6478 4.45673 23.9505
991 1 18.9083 6.23943 25.2111
992 1 16.3872 6.23943 25.2111
993 1 17.6478 4.45673 26.4716
994 1 15.1267 3.56539 25.2111
995 1 16.3872 5.34808 26.4716
996 1 13.8661 5.34808 26.4716
997 1 15.1267 3.56539 27.7322
998 1 15.1267 4.45673 26.4716
999 1 16.3872 6.23943 27.7322
1000 1 13.8661 6.23943 27.7322
1001 1 15.1267 4.45673 28.9928
1002 1 12.6055 3.56539 27.7322
1003 1 13.8661 5.34808 28.9928
1004 1 11.345 5.34808 28.9928
1005 1 12.6055 3.56539 30.2533
1006 1 12.6055 4.45673 28.9928
1007 1 13.8661 6.23943 30.2533
1008 1 11.345 6.23943 30.2533
1009 1 12.6055 4.45673 31.5139
1010 1 10.0844 3.56539 30.2533
1011 1 11.345 5.34808 31.5139
1012 1 8.82388 5.34808 31.5139
1013 1 10.0844 3.56539 32.7744
1014 1 10.0844 4.45673 31.5139
1015 1 11.345 6.23943 32.7744
1016 1 8.82388 6.23943 32.7744
1017 1 10.0844 4.45673 34.035
1018 1 7.56333 3.56539 32.7744
1019 1 8.82388 5.34808 34.035
1020 1 6.30277 5.34808 34.035
1021 1 7.56333 3.56539 35.2955
1022 1 7.56333 4.45673 34.035
1023 1 8.82388 6.23943 35.2955
1024 1 6.30277 6.23943 35.2955
1025 1 7.56333 4.45673 36.5561
1026 1 5.04222 3.56539 35.2955
1027 1 6.30277 5.34808 36.5561
1028 1 3.78166 5.34808 36.5561
1029 1 5.04222 3.56539 37.8166
1030 1 5.04222 4.45673 36.5561
1031 1 6.30277 6.23943 37.8166
1032 1 3.78166 6.23943 37.8166
1033 1 2.52111 3.56539 37.8166
1034 1 18.9083 5.34808 26.4716
1035 1 18.9083 6.23943 27.7322
1036 1 17.6478 3.56539 27.7322
1037 1 18.9083 5.34808 28.9928
1038 1 16.3872 5.34808 28.9928
1039 1 17.6478 3.56539 30.2533
1040 1 17.6478 4.45673 28.9928
1041 1 18.9083 6.23943 30.2533
1042 1 16.3872 6.23943 30.2533
1043 1 17.6478 4.45673 31.5139
1044 1 15.1267 3.56539 30.2533
1045 1 16.3872 5.34808 31.5139
1046 1 13.8661 5.34808 31.5139
1047 1 15.1267 3.56539 32.7744
1048 1 15.1267 4.45673 31.5139
1049 1 16.3872 6.23943 32.7744
1050 1 13.8661 6.23943 32.7744
1051 1 15.1267 4.45673 34.035
1052 1 12.6055 3.56539 32.7744
1053 1 13.8661 5.34808 34.035
1054 1 11.345 5.34808 34.035
1055 1 12.6055 3.56539 35.2955
1056 1 12.6055 4.45673 34.035
1057 1 13.8661 6.23943 35.2955
1058 1 11.345 6.23943 35.2955
1059 1 12.6055 4.45673 36.5561
1060 1 10.0844 3.56539 35.2955
1061 1 11.345 5.34808 36.5561
1062 1 8.82388 5.34808 36.5561
1063 1 10.0844 3.56539 37.8166
1064 1 10.0844 4.45673 36.5561
1065 1 11.345 6.23943 37.8166
1066 1 8.82388 6.23943 37.8166
1067 1 7.56333 3.56539 37.8166
1068 1 18.9083 5.34808 31.5139
1069 1 18.9083 6.23943 32.7744
1070 1 17.6478 3.56539 32.7744
1071 1 18.9083 5.34808 34.035
1072 1 16.3872 5.34808 34.035
1073 1 17.6478 3.56539 35.2955
1074 1 17.6478 4.45673 34.035
1075 1 18.9083 6.23943 35.2955
1076 1 16.3872 6.23943 35.2955
1077 1 17.6478 4.45673 36.5561
1078 1 15.1267 3.56539 35.2955
1079 1 16.3872 5.34808 36.5561
1080 1 13.8661 5.34808 36.5561
1081 1 15.1267 3.56539 37.8166
1082 1 15.1267 4.45673 36.5561
1083 1 16.3872 6.23943 37.8166
1084 1 13.8661 6.23943 37.8166
1085 1 12.6055 3.56539 37.8166
1086 1 18.9083 5.34808 36.5561
1087 1 18.9083 6.23943 37.8166
1088 1 17.6478 3.56539 37.8166
1089 1 2.52111 8.02212 -3.78166
1090 1 1.26055 8.91347 -3.78166
1091 1 0 7.13077 -2.52111
1092 1 0 8.02212 -3.78166
1093 1 1.26055 9.80481 -2.52111
1094 1 0 8.02212 -1.26055
1095 1 7.56333 8.02212 -3.78166
1096 1 6.30277 8.91347 -3.78166
1097 1 3.78166 8.91347 -3.78166
1098 1 5.04222 7.13077 -2.52111
1099 1 5.04222 8.02212 -3.78166
1100 1 6.30277 9.80481 -2.52111
1101 1 3.78166 9.80481 -2.52111
1102 1 5.04222 8.02212 -1.26055
1103 1 2.52111 7.13077 -2.52111
1104 1 3.78166 8.91347 -1.26055
1105 1 1.26055 8.91347 -1.26055
1106 1 2.52111 7.13077 0
1107 1 2.52111 8.02212 -1.26055
1108 1 3.78166 9.80481 0
1109 1 1.26055 9.80481 0
1110 1 2.52111 8.02212 1.26055
1111 1 0 7.13077 0
1112 1 1.26055 8.91347 1.26055
1113 1 0 7.13077 2.52111
1114 1 0 8.02212 1.26055
1115 1 1.26055 9.80481 2.52111
1116 1 0 8.02212 3.78166
1117 1 12.6055 8.02212 -3.78166
1118 1 11.345 8.91347 -3.78166
1119 1 8.82388 8.91347 -3.78166
1120 1 10.0844 7.13077 -2.52111
1121 1 10.0844 8.02212 -3.78166
1122 1 11.345 9.80481 -2.52111
1123 1 8.82388 9.80481 -2.52111
1124 1 10.0844 8.02212 -1.26055
1125 1 7.56333 7.13077 -2.52111
1126 1 8.82388 8.91347 -1.26055
1127 1 6.30277 8.91347 -1.26055
1128 1 7.56333 7.13077 0
1129 1 7.56333 8.02212 -1.26055
1130 1 8.82388 9.80481 0
1131 1 6.30277 9.80481 0
1132 1 7.56333 8.02212 1.26055
1133 1 5.04222 7.13077 0
1134 1 6.30277 8.91347 1.26055
1135 1 3.78166 8.91347 1.26055
1136 1 5.04222 7.13077 2.52111
1137 1 5.04222 8.02212 1.26055
1138 1 6.30277 9.80481 2.52111
1139 1 3.78166 9.80481 2.52111
1140 1 5.04222 8.02212 3.78166
1141 1 2.52111 7.13077 2.52111
1142 1 3.78166 8.91347 3.78166
1143 1 1.26055 8.91347 3.78166
1144 1 2.52111 7.13077 5.04222
1145 1 2.52111 8.02212 3.78166
1146 1 3.78166 9.80481 5.04222
1147 1 1.26055 9.80481 5.04222
1148 1 2.52111 8.02212 6.30277
1149 1 0 7.13077 5.04222
1150 1 1.26055 8.91347 6.30277
1151 1 0 7.13077 7.56333
1152 1 0 8.02212 6.30277
1153 1 1.26055 9.80481 7.56333
1154 1 0 8.02212 8.82388
1155 1 17.6478 8.02212 -3.78166
1156 1 16.3872 8.91347 -3.78166
1157 1 13.8661 8.91347 -3.78166
1158 1 15.1267 7.13077 -2.52111
1159 1 15.1267 8.02212 -3.78166
1160 1 16.3872 9.80481 -2.52111
1161 1 13.8661 9.80481 -2.52111
1162 1 15.1267 8.02212 -1.26055
1163 1 12.6055 7.13077 -2.52111
1164 1 13.8661 8.91347 -1.26055
1165 1 11.345 8.91347 -1.26055
1166 1 12.6055 7.13077 0
1167 1 12.6055 8.02212 -1.26055
1168 1 13.8661 9.80481 0
1169 1 11.345 9.80481 0
1170 1 12.6055 8.02212 1.26055
1171 1 10.0844 7.13077 0
1172 1 11.345 8.91347 1.26055
1173 1 8.82388 8.91347 1.26055
1174 1 10.0844 7.13077 2.52111
1175 1 10.0844 8.02212 1.26055
1176 1 11.345 9.80481 2.52111
1177 1 8.82388 9.80481 2.52111
1178 1 10.0844 8.02212 3.78166
1179 1 7.56333 7.13077 2.52111
1180 1 8.82388 8.91347 3.78166
1181 1 6.30277 8.91347 3.78166
1182 1 7.56333 7.13077 5.04222
1183 1 7.56333 8.02212 3.78166
1184 1 8.82388 9.80481 5.04222
1185 1 6.30277 9.80481 5.04222
1186 1 7.56333 8.02212 6.30277
1187 1 5.04222 7.13077 5.04222
1188 1 6.30277 8.91347 6.30277
1189 1 3.78166 8.91347 6.30277
1190 1 5.04222 7.13077 7.56333
1191 1 5.04222 8.02212 6.30277
1192 1 6.30277 9.80481 7.56333
1193 1 3.78166 9.80481 7.56333
1194 1 5.04222 8.02212 8.82388
1195 1 2.52111 7.13077 7.56333
1196 1 3.78166 8.91347 8.82388
1197 1 1.26055 8.91347 8.82388
1198 1 2.52111 7.13077 10.0844
1199 1 2.52111 8.02212 8.82388
1200 1 3.78166 9.80481 10.0844
1201 1 1.26055 9.80481 10.0844
1202 1 2.52111 8.02212 11.345
1203 1 0 7.13077 10.0844
1204 1 1.26055 8.91347 11.345
1205 1 0 7.13077 12.6055
1206 1 0 8.02212 11.345
1207 1 1.26055 9.80481 12.6055
1208 1 0 8.02212 13.8661
1209 1 18.9083 8.91347 -3.78166
1210 1 18.9083 9.80481 -2.52111
1211 1 17.6478 7.13077 -2.52111
1212 1 18.9083 8.91347 -1.26055
1213 1 16.3872 8.91347 -1.26055
1214 1 17.6478 7.13077 0
1215 1 17.6478 8.02212 -1.26055
1216 1 18.9083 9.80481 0
1217 1 16.3872 9.80481 0
1218 1 17.6478 8.02212 1.26055
1219 1 15.1267 7.13077 0
1220 1 16.3872 8.91347 1.26055
1221 1 13.8661 8.91347 1.26055
1222 1 15.1267 7.13077 2.52111
1223 1 15.1267 8.02212 1.26055
1224 1 16.3872 9.80481 2.52111
1225 1 13.8661 9.80481 2.52111
1226 1 15.1267 8.02212 3.78166
1227 1 12.6055 7.13077 2.52111
1228 1 13.8661 8.91347 3.78166
1229 1 11.345 8.91347 3.78166
1230 1 12.6055 7.13077 5.04222
1231 1 12.6055 8.02212 3.78166
1232 1 13.8661 9.80481 5.04222
1233 1 11.345 9.80481 5.04222
1234 1 12.6055 8.02212 6.30277
1235 1 10.0844 7.13077 5.04222
1236 1 11.345 8.91347 6.30277
1237 1 8.82388 8.91347 6.30277
1238 1 10.0844 7.13077 7.56333
1239 1 10.0844 8.02212 6.30277
1240 1 11.345 9.80481 7.56333
1241 1 8.82388 9.80481 7.56333
1242 1 10.0844 8.02212 8.82388
1243 1 7.56333 7.13077 7.56333
1244 1 8.82388 8.91347 8.82388
1245 1 6.30277 8.91347 8.82388
1246 1 7.56333 7.13077 10.0844
1247 1 7.56333 8.02212 8.82388
1248 1 8.82388 9.80481 10.0844
1249 1 6.30277 9.80481 10.0844
1250 1 7.56333 8.02212 11.345
1251 1 5.04222 7.13077 10.0844
1252 1 6.30277 8.91347 11.345
1253 1 3.78166 8.91347 11.345
1254 1 5.04222 7.13077 12.6055
1255 1 5.04222 8.02212 11.345
1256 1 6.30277 9.80481 12.6055
1257 1 3.78166 9.80481 12.6055
1258 1 5.04222 8.02212 13.8661
1259 1 2.52111 7.13077 12.6055
1260 1 3.78166 8.91347 13.8661
1261 1 1.26055 8.91347 13.8661
1262 1 2.52111 7.13077 15.1267
1263 1 2.52111 8.02212 13.8661
1264 1 3.78166 9.80481 15.1267
1265 1 1.26055 9.80481 15.1267
1266 1 2.52111 8.02212 16.3872
1267 1 0 7.13077 15.1267
1268 1 1.26055 8.91347 16.3872
1269 1 0 7.13077 17.6478
1270 1 0 8.02212 16.3872
1271 1 1.26055 9.80481 17.6478
1272 1 0 8.02212 18.9083
1273 1 18.9083 8.91347 1.26055
1274 1 18.9083 9.80481 2.52111
1275 1 17.6478 7.13077 2.52111
1276 1 18.9083 8.91347 3.78166
1277 1 16.3872 8.91347 3.78166
1278 1 17.6478 7.13077 5.04222
1279 1 17.6478 8.02212 3.78166
1280 1 18.9083 9.80481 5.04222
1281 1 16.3872 9.80481 5.04222
1282 1 17.6478 8.02212 6.30277
1283 1 15.1267 7.13077 5.04222
1284 1 16.3872 8.91347 6.30277
1285 1 13.8661 8.91347 6.30277
1286 1 15.1267 7.13077 7.56333
1287 1 15.1267 8.02212 6.30277
1288 1 16.3872 9.80481 7.56333
1289 1 13.8661 9.80481 7.56333
1290 1 15.1267 8.02212 8.82388
1291 1 12.6055 7.13077 7.56333
1292 1 13.8661 8.91347 8.82388
1293 1 11.345 8.91347 8.82388
1294 1 12.6055 7.13077 10.0844
1295 1 12.6055 8.02212 8.82388
1296 1 13.8661 9.80481 10.0844
1297 1 11.345 9.80481 10.0844
1298 1 12.6055 8.02212 11.345
1299 1 10.0844 7.13077 10.0844
1300 1 11.345 8.91347 11.345
1301 1 8.82388 8.91347 11.345
1302 1 10.0844 7.13077 12.6055
1303 1 10.0844 8.02212 11.345
1304 1 11.345 9.80481 12.6055
1305 1 8.82388 9.80481 12.6055
1306 1 10.0844 8.02212 13.8661
1307 1 7.56333 7.13077 12.6055
1308 1 8.82388 8.91347 13.8661
1309 1 6.30277 8.91347 13.8661
1310 1 7.56333 7.13077 15.1267
1311 1 7.56333 8.02212 13.8661
1312 1 8.82388 9.80481 15.1267
1313 1 6.30277 9.80481 15.1267
1314 1 7.56333 8.02212 16.3872
1315 1 5.04222 7.13077 15.1267
1316 1 6.30277 8.91347 16.3872
1317 1 3.78166 8.91347 16.3872
1318 1 5.04222 7.13077 17.6478
1319 1 5.04222 8.02212 16.3872
1320 1 6.30277 9.80481 17.6478
1321 1 3.78166 9.80481 17.6478
1322 1 5.04222 8.02212 18.9083
1323 1 2.52111 7.13077 17.6478
1324 1 3.78166 8.91347 18.9083
1325 1 1.26055 8.91347 18.9083
1326 1 2.52111 7.13077 20.1689
1327 1 2.52111 8.02212 18.9083
1328 1 3.78166 9.80481 20.1689
1329 1 1.26055 9.80481 20.1689
1330 1 2.52111 8.02212 21.4294
1331 1 0 7.13077 20.1689
1332 1 1.26055 8.91347 21.4294
1333 1 0 7.13077 22.69
1334 1 0 8.02212 21.4294
1335 1 1.26055 9.80481 22.69
1336 1 0 8.02212 23.9505
1337 1 18.9083 8.91347 6.30277
1338 1 18.9083 9.80481 7.56333
1339 1 17.6478 7.13077 7.56333
1340 1 18.9083 8.91347 8.82388
1341 1 16.3872 8.91347 8.82388
1342 1 17.6478 7.13077 10.0844
1343 1 17.6478 8.02212 8.82388
1344 1 18.9083 9.80481 10.0844
1345 1 16.3872 9.80481 10.0844
1346 1 17.6478 8.02212 11.345
1347 1 15.1267 7.13077 10.0844
1348 1 16.3872 8.91347 11.345
1349 1 13.8661 8.91347 11.345
1350 1 15.1267 7.13077 12.6055
1351 1 15.1267 8.02212 11.345
1352 1 16.3872 9.80481 12.6055
1353 1 13.8661 9.80481 12.6055
1354 1 15.1267 8.02212 13.8661
1355 1 12.6055 7.13077 12.6055
1356 1 13.8661 8.91347 13.8661
1357 1 11.345 8.91347 13.8661
1358 1 12.6055 7.13077 15.1267
1359 1 12.6055 8.02212 13.8661
1360 1 13.8661 9.80481 15.1267
1361 1 11.345 9.80481 15.1267
1362 1 12.6055 8.02212 16.3872
1363 1 10.0844 7.13077 15.1267
1364 1 11.345 8.91347 16.3872
1365 1 8.82388 8.91347 16.3872
1366 1 10.0844 7.13077 17.6478
1367 1 10.0844 8.02212 16.3872
1368 1 11.345 9.80481 17.6478
1369 1 8.82388 9.80481 17.6478
1370 1 10.0844 8.02212 18.9083
1371 1 7.56333 7.13077 17.6478
1372 1 8.82388 8.91347 18.9083
1373 1 6.30277 8.91347 18.9083
1374 1 7.56333 7.13077 20.1689
1375 1 7.56333 8.02212 18.9083
1376 1 8.82388 9.80481 20.1689
1377 1 6.30277 9.80481 20.1689
1378 1 7.56333 8.02212 21.4294
1379 1 5.04222 7.13077 20.1689
1380 1 6.30277 8.91347 21.4294
1381 1 3.78166 8.91347 21.4294
1382 1 5.04222 7.13077 22.69
1383 1 5.04222 8.02212 21.4294
1384 1 6.30277 9.80481 22.69
1385 1 3.78166 9.80481 22.69
1386 1 5.04222 8.02212 23.9505
1387 1 2.52111 7.13077 22.69
1388 1 3.78166 8.91347 23.9505
1389 1 1.26055 8.91347 23.9505
1390 1 2.52111 7.13077 25.2111
1391 1 2.52111 8.02212 23.9505
1392 1 3.78166 9.80481 25.2111
1393 1 1.26055 9.80481 25.2111
1394 1 2.52111 8.02212 26.4716
1395 1 0 7.13077 25.2111
1396 1 1.26055 8.91347 26.4716
1397 1 0 7.13077 27.7322
1398 1 0 8.02212 26.4716
1399 1 1.26055 9.80481 27.7322
1400 1 0 8.02212 28.9928
1401 1 18.9083 8.91347 11.345
1402 1 18.9083 9.80481 12.6055
1403 1 17.6478 7.13077 12.6055
1404 1 18.9083 8.91347 13.8661
1405 1 16.3872 8.91347 13.8661
1406 1 17.6478 7.13077 15.1267
1407 1 17.6478 8.02212 13.8661
1408 1 18.9083 9.80481 15.1267
1409 1 16.3872 9.80481 15.1267
1410 1 17.6478 8.02212 16.3872
1411 1 15.1267 7.13077 15.1267
1412 1 16.3872 8.91347 16.3872
1413 1 13.8661 8.91347 16.3872
1414 1 15.1267 7.13077 17.6478
1415 1 15.1267 8.02212 16.3872
1416 1 16.3872 9.80481 17.6478
1417 1 13.8661 9.80481 17.6478
1418 1 15.1267 8.02212 18.9083
1419 1 12.6055 7.13077 17.6478
1420 1 13.8661 8.91347 18.9083
1421 1 11.345 8.91347 18.9083
1422 1 12.6055 7.13077 20.1689
1423 1 12.6055 8.02212 18.9083
1424 1 13.8661 9.80481 20.1689
1425 1 11.345 9.80481 20.1689
1426 1 12.6055 8.02212 21.4294
1427 1 10.0844 7.13077 20.1689
1428 1 11.345 8.91347 21.4294
1429 1 8.82388 8.91347 21.4294
1430 1 10.0844 7.13077 22.69
1431 1 10.0844 8.02212 21.4294
1432 1 11.345 9.80481 22.69
1433 1 8.82388 9.80481 22.69
1434 1 10.0844 8.02212 23.9505
1435 1 7.56333 7.13077 22.69
1436 1 8.82388 8.91347 23.9505
1437 1 6.30277 8.91347 23.9505
1438 1 7.56333 7.13077 25.2111
1439 1 7.56333 8.02212 23.9505
1440 1 8.82388 9.80481 25.2111
1441 1 6.30277 9.80481 25.2111
1442 1 7.56333 8.02212 26.4716
1443 1 5.04222 7.13077 25.2111
1444 1 6.30277 8.91347 26.4716
1445 1 3.78166 8.91347 26.4716
1446 1 5.04222 7.13077 27.7322
1447 1 5.04222 8.02212 26.4716
1448 1 6.30277 9.80481 27.7322
1449 1 3.78166 9.80481 27.7322
1450 1 5.04222 8.02212 28.9928
1451 1 2.52111 7.13077 27.7322
1452 1 3.78166 8.91347 28.9928
1453 1 1.26055 8.91347 28.9928
1454 1 2.52111 7.13077 30.2533
1455 1 2.52111 8.02212 28.9928
1456 1 3.78166 9.80481 30.2533
1457 1 1.26055 9.80481 30.2533
1458 1 2.52111 8.02212 31.5139
1459 1 0 7.13077 30.2533
1460 1 1.26055 8.91347 31.5139
1461 1 0 7.13077 32.7744
1462 1 0 8.02212 31.5139
1463 1 1.26055 9.80481 32.7744
1464 1 0 8.02212 34.035
1465 1 18.9083 8.91347 16.3872
1466 1 18.9083 9.80481 17.6478
1467 1 17.6478 7.13077 17.6478
1468 1 18.9083 8.91347 18.9083
1469 1 16.3872 8.91347 18.9083
1470 1 17.6478 7.13077 20.1689
1471 1 17.6478 8.02212 18.9083
1472 1 18.9083 9.80481 20.1689
1473 1 16.3872 9.80481 20.1689
1474 1 17.6478 8.02212 21.4294
1475 1 15.1267 7.13077 20.1689
1476 1 16.3872 8.91347 21.4294
1477 1 13.8661 8.91347 21.4294
1478 1 15.1267 7.13077 22.69
1479 1 15.1267 8.02212 21.4294
1480 1 16.3872 9.80481 22.69
1481 1 13.8661 9.80481 22.69
1482 1 15.1267 8.02212 23.9505
1483 1 12.6055 7.13077 22.69
1484 1 13.8661 8.91347 23.9505
1485 1 11.345 8.91347 23.9505
1486 1 12.6055 7.13077 25.2111
1487 1 12.6055 8.02212 23.9505
1488 1 13.8661 9.80481 25.2111
1489 1 11.345 9.80481 25.2111
1490 1 12.6055 8.02212 26.4716
1491 1 10.0844 7.13077 25.2111
1492 1 11.345 8.91347 26.4716
1493 1 8.82388 8.91347 26.4716
1494 1 10.0844 7.13077 27.7322
1495 1 10.0844 8.02212 26.4716
1496 1 11.345 9.80481 27.7322
1497 1 8.82388 9.80481 27.7322
1498 1 10.0844 8.02212 28.9928
1499 1 7.56333 7.13077 27.7322
1500 1 8.82388 8.91347 28.9928
1501 1 6.30277 8.91347 28.9928
1502 1 7.56333 7.13077 30.2533
1503 1 7.56333 8.02212 28.9928
1504 1 8.82388 9.80481 30.2533
1505 1 6.30277 9.80481 30.2533
1506 1 7.56333 8.02212 31.5139
1507 1 5.04222 7.13077 30.2533
1508 1 6.30277 8.91347 31.5139
1509 1 3.78166 8.91347 31.5139
1510 1 5.04222 7.13077 32.7744
1511 1 5.04222 8.02212 31.5139
1512 1 6.30277 9.80481 32.7744
1513 1 3.78166 9.80481 32.7744
1514 1 5.04222 8.02212 34.035
1515 1 2.52111 7.13077 32.7744
1516 1 3.78166 8.91347 34.035
1517 1 1.26055 8.91347 34.035
1518 1 2.52111 7.13077 35.2955
1519 1 2.52111 8.02212 34.035
1520 1 3.78166 9.80481 35.2955
1521 1 1.26055 9.80481 35.2955
1522 1 2.52111 8.02212 36.5561
1523 1 0 7.13077 35.2955
1524 1 1.26055 8.91347 36.5561
1525 1 0 7.13077 37.8166
1526 1 0 8.02212 36.5561
1527 1 1.26055 9.80481 37.8166
1528 1 18.9083 8.91347 21.4294
1529 1 18.9083 9.80481 22.69
1530 1 17.6478 7.13077 22.69
1531 1 18.9083 8.91347 23.9505
1532 1 16.3872 8.91347 23.9505
1533 1 17.6478 7.13077 25.2111
1534 1 17.6478 8.02212 23.9505
1535 1 18.9083 9.80481 25.2111
1536 1 16.3872 9.80481 25.2111
1537 1 17.6478 8.02212 26.4716
1538 1 15.1267 7.13077 25.2111
1539 1 16.3872 8.91347 26.4716
1540 1 13.8661 8.91347 26.4716
1541 1 15.1267 7.13077 27.7322
1542 1 15.1267 8.02212 26.4716
1543 1 16.3872 9.80481 27.7322
1544 1 13.8661 9.80481 27.7322
1545 1 15.1267 8.02212 28.9928
1546 1 12.6055 7.13077 27.7322
1547 1 13.8661 8.91347 28.9928
1548 1 11.345 8.91347 28.9928
1549 1 12.6055 7.13077 30.2533
1550 1 12.6055 8.02212 28.9928
1551 1 13.8661 9.80481 30.2533
1552 1 11.345 9.80481 30.2533
1553 1 12.6055 8.02212 31.5139
1554 1 10.0844 7.13077 30.2533
1555 1 11.345 8.91347 31.5139
1556 1 8.82388 8.91347 31.5139
1557 1 10.0844 7.13077 32.7744
1558 1 10.0844 8.02212 31.5139
1559 1 11.345 9.80481 32.7744
1560 1 8.82388 9.80481 32.7744
1561 1 10.0844 8.02212 34.035
1562 1 7.56333 7.13077 32.7744
1563 1 8.82388 8.91347 34.035
1564 1 6.30277 8.91347 34.035
1565 1 7.56333 7.13077 35.2955
1566 1 7.56333 8.02212 34.035
1567 1 8.82388 9.80481 35.2955
1568 1 6.30277 9.80481 35.2955
1569 1 7.56333 8.02212 36.5561
1570 1 5.04222 7.13077 35.2955
1571 1 6.30277 8.91347 36.5561
1572 1 3.78166 8.91347 36.5561
1573 1 5.04222 7.13077 37.8166
1574 1 5.04222 8.02212 36.5561
1575 1 6.30277 9.80481 37.8166
1576 1 3.78166 9.80481 37.8166
1577 1 2.52111 7.13077 37.8166
1578 1 18.9083 8.91347 26.4716
1579 1 18.9083 9.80481 27.7322
1580 1 17.6478 7.13077 27.7322
1581 1 18.9083 8.91347 28.9928
1582 1 16.3872 8.91347 28.9928
1583 1 17.6478 7.13077 30.2533
1584 1 17.6478 8.02212 28.9928
1585 1 18.9083 9.80481 30.2533
1586 1 16.3872 9.80481 30.2533
1587 1 17.6478 8.02212 31.5139
1588 1 15.1267 7.13077 30.2533
1589 1 16.3872 8.91347 31.5139
1590 1 13.8661 8.91347 31.5139
1591 1 15.1267 7.13077 32.7744
1592 1 15.1267 8.02212 31.5139
1593 1 16.3872 9.80481 32.7744
1594 1 13.8661 9.80481 32.7744
1595 1 15.1267 8.02212 34.035
1596 1 12.6055 7.13077 32.7744
1597 1 13.8661 8.91347 34.035
1598 1 11.345 8.91347 34.035
1599 1 12.6055 7.13077 35.2955
1600 1 12.6055 8.02212 34.035
1601 1 13.8661 9.80481 35.2955
1602 1 11.345 9.80481 35.2955
1603 1 12.6055 8.02212 36.5561
1604 1 10.0844 7.13077 35.2955
1605 1 11.345 8.91347 36.5561
1606 1 8.82388 8.91347 36.5561
1607 1 10.0844 7.13077 37.8166
1608 1 10.0844 8.02212 36.5561
1609 1 11.345 9.80481 37.8166
1610 1 8.82388 9.80481 37.8166
1611 1 7.56333 7.13077 37.8166
1612 1 18.9083 8.91347 31.5139
1613 1 18.9083 9.80481 32.7744
1614 1 17.6478 7.13077 32.7744
1615 1 18.9083 8.91347 34.035
1616 1 16.3872 8.91347 34.035
1617 1 17.6478 7.13077 35.2955
1618 1 17.6478 8.02212 34.035
1619 1 18.9083 9.80481 35.2955
1620 1 16.3872 9.80481 35.2955
1621 1 17.6478 8.02212 36.5561
1622 1 15.1267 7.13077 35.2955
1623 1 16.3872 8.91347 36.5561
1624 1 13.8661 8.91347 36.5561
1625 1 15.1267 7.13077 37.8166
1626 1 15.1267 8.02212 36.5561
1627 1 16.3872 9.80481 37.8166
1628 1 13.8661 9.80481 37.8166
1629 1 12.6055 7.13077 37.8166
1630 1 18.9083 8.91347 36.5561
1631 1 18.9083 9.80481 37.8166
1632 1 17.6478 7.13077 37.8166
1633 1 2.52111 11.5875 -3.78166
1634 1 1.26055 12.4789 -3.78166
1635 1 0 10.6962 -2.52111
1636 1 0 11.5875 -3.78166
1637 1 1.26055 13.3702 -2.52111
1638 1 0 11.5875 -1.26055
1639 1 7.56333 11.5875 -3.78166
1640 1 6.30277 12.4789 -3.78166
1641 1 3.78166 12.4789 -3.78166
1642 1 5.04222 10.6962 -2.52111
1643 1 5.04222 11.5875 -3.78166
1644 1 6.30277 13.3702 -2.52111
1645 1 3.78166 13.3702 -2.52111
1646 1 5.04222 11.5875 -1.26055
1647 1 2.52111 10.6962 -2.52111
1648 1 3.78166 12.4789 -1.26055
1649 1 1.26055 12.4789 -1.26055
1650 1 2.52111 10.6962 0
1651 1 2.52111 11.5875 -1.26055
1652 1 3.78166 13.3702 0
1653 1 1.26055 13.3702 0
1654 1 2.52111 11.5875 1.26055
1655 1 0 10.6962 0
1656 1 1.26055 12.4789 1.26055
1657 1 0 10.6962 2.52111
1658 1 0 11.5875 1.26055
1659 1 1.26055 13.3702 2.52111
1660 1 0 11.5875 3.78166
1661 1 12.6055 11.5875 -3.78166
1662 1 11.345 12.4789 -3.78166
1663 1 8.82388 12.4789 -3.78166
1664 1 10.0844 10.6962 -2.52111
1665 1 10.0844 11.5875 -3.78166
1666 1 11.345 13.3702 -2.52111
1667 1 8.82388 13.3702 -2.52111
1668 1 10.0844 11.5875 -1.26055
1669 1 7.56333 10.6962 -2.52111
1670 1 8.82388 12.4789 -1.26055
1671 1 6.30277 12.4789 -1.26055
1672 1 7.56333 10.6962 0
1673 1 7.56333 11.5875 -1.26055
1674 1 8.82388 13.3702 0
1675 1 6.30277 13.3702 0
1676 1 7.56333 11.5875 1.26055
1677 1 5.04222 10.6962 0
1678 1 6.30277 12.4789 1.26055
1679 1 3.78166 12.4789 1.26055
1680 1 5.04222 10.6962 2.52111
1681 1 5.04222 11.5875 1.26055
1682 1 6.30277 13.3702 2.52111
1683 1 3.78166 13.3702 2.52111
1684 1 5.04222 11.5875 3.78166
1685 1 2.52111 10.6962 2.52111
1686 1 3.78166 12.4789 3.78166
1687 1 1.26055 12.4789 3.78166
1688 1 2.52111 10.6962 5.04222
1689 1 2.52111 11.5875 3.78166
1690 1 3.78166 13.3702 5.04222
1691 1 1.26055 13.3702 5.04222
1692 1 2.52111 11.5875 6.30277
1693 1 0 10.6962 5.04222
1694 1 1.26055 12.4789 6.30277
1695 1 0 10.6962 7.56333
1696 1 0 11.5875 6.30277
1697 1 1.26055 13.3702 7.56333
1698 1 0 11.5875 8.82388
1699 1 17.6478 11.5875 -3.78166
1700 1 16.3872 12.4789 -3.78166
1701 1 13.8661 12.4789 -3.78166
1702 1 15.1267 10.6962 -2.52111
1703 1 15.1267 11.5875 -3.78166
1704 1 16.3872 13.3702 -2.52111
1705 1 13.8661 13.3702 -2.52111
1706 1 15.1267 11.5875 -1.26055
1707 1 12.6055 10.6962 -2.52111
1708 1 13.8661 12.4789 -1.26055
1709 1 11.345 12.4789 -1.26055
1710 1 12.6055 10.6962 0
1711 1 12.6055 11.5875 -1.26055
1712 1 13.8661 13.3702 0
1713 1 11.345 13.3702 0
1714 1 12.6055 11.5875 1.26055
1715 1 10.0844 10.6962 0
1716 1 11.345 12.4789 1.26055
1717 1 8.82388 12.4789 1.26055
1718 1 10.0844 10.6962 2.52111
1719 1 10.0844 11.5875 1.26055
1720 1 11.345 13.3702 2.52111
1721 1 8.82388 13.3702 2.52111
1722 1 10.0844 11.5875 3.78166
1723 1 7.56333 10.6962 2.52111
1724 1 8.82388 12.4789 3.78166
1725 1 6.30277 12.4789 3.78166
1726 1 7.56333 10.6962 5.04222
1727 1 7.56333 11.5875 3.78166
1728 1 8.82388 13.3702 5.04222
1729 1 6.30277 13.3702 5.04222
1730 1 7.56333 11.5875 6.30277
1731 1 5.04222 10.6962 5.04222
1732 1 6.30277 12.4789 6.30277
1733 1 3.78166 12.4789 6.30277
1734 1 5.04222 10.6962 7.56333
1735 1 5.04222 11.5875 6.30277
1736 1 6.30277 13.3702 7.56333
1737 1 3.78166 13.3702 7.56333
1738 1 5.04222 11.5875 8.82388
1739 1 2.52111 10.6962 7.56333
1740 1 3.78166 12.4789 8.82388
1741 1 1.26055 12.4789 8.82388
1742 1 2.52111 10.6962 10.0844
1743 1 2.52111 11.5875 8.82388
1744 1 3.78166 13.3702 10.0844
1745 1 1.26055 13.3702 10.0844
1746 1 2.52111 11.5875 11.345
1747 1 0 10.6962 10.0844
1748 1 1.26055 12.4789 11.345
1749 1 0 10.6962 12.6055
1750 1 0 11.5875 11.345
1751 1 1.26055 13.3702 12.6055
1752 1 0 11.5875 13.8661
1753 1 18.9083 12.4789 -3.78166
1754 1 18.9083 13.3702 -2.52111
1755 1 17.6478 10.6962 -2.52111
1756 1 18.9083 12.4789 -1.26055
1757 1 16.3872 12.4789 -1.26055
1758 1 17.6478 10.6962 0
1759 1 17.6478 11.5875 -1.26055
1760 1 18.9083 13.3702 0
1761 1 16.3872 13.3702 0
1762 1 17.6478 11.5875 1.26055
1763 1 15.1267 10.6962 0
1764 1 16.3872 12.4789 1.26055
1765 1 13.8661 12.4789 1.26055
1766 1 15.1267 10.6962 2.52111
1767 1 15.1267 11.5875 1.26055
1768 1 16.3872 13.3702 2.52111
1769 1 13.8661 13.3702 2.52111
1770 1 15.1267 11.5875 3.78166
1771 1 12.6055 10.6962 2.52111
1772 1 13.8661 12.4789 3.78166
1773 1 11.345 12.4789 3.78166
1774 1 12.6055 10.6962 5.04222
1775 1 12.6055 11.5875 3.78166
1776 1 13.8661 13.3702 5.04222
1777 1 11.345 13.3702 5.04222
1778 1 12.6055 11.5875 6.30277
1779 1 10.0844 10.6962 5.04222
1780 1 11.345 12.4789 6.30277
1781 1 8.82388 12.4789 6.30277
1782 1 10.0844 10.6962 7.56333
1783 1 10.0844 11.5875 6.30277
1784 1 11.345 13.3702 7.56333
1785 1 8.82388 13.3702 7.56333
1786 1 10.0844 11.5875 8.82388
1787 1 7.56333 10.6962 7.56333
1788 1 8.82388 12.4789 8.82388
1789 1 6.30277 12.4789 8.82388
1790 1 7.56333 10.6962 10.0844
1791 1 7.56333 11.5875 8.82388
1792 1 8.82388 13.3702 10.0844
1793 1 6.30277 13.3702 10.0844
1794 1 7.56333 11.5875 11.345
1795 1 5.04222 10.6962 10.0844
1796 1 6.30277 12.4789 11.345
1797 1 3.78166 12.4789 11.345
1798 1 5.04222 10.6962 12.6055
1799 1 5.04222 11.5875 11.345
1800 1 6.30277 13.3702 12.6055
1801 1 3.78166 13.3702 12.6055
1802 1 5.04222 11.5875 13.8661
1803 1 2.52111 10.6962 12.6055
1804 1 3.78166 12.4789 13.8661
1805 1 1.26055 12.4789 13.8661
1806 1 2.52111 10.6962 15.1267
1807 1 2.52111 11.5875 13.8661
1808 1 3.78166 13.3702 15.1267
1809 1 1.26055 13.3702 15.1267
1810 1 2.52111 11.5875 16.3872
1811 1 0 10.6962 15.1267
1812 1 1.26055 12.4789 16.3872
1813 1 0 10.6962 17.6478
1814 1 0 11.5875 16.3872
1815 1 1.26055 13.3702 17.6478
1816 1 0 11.5875 18.9083
1817 1 18.9083 12.4789 1.26055
1818 1 18.9083 13.3702 2.52111
1819 1 17.6478 10.6962 2.52111
1820 1 18.9083 12.4789 3.78166
1821 1 16.3872 12.4789 3.78166
1822 1 17.6478 10.6962 5.04222
1823 1 17.6478 11.5875 3.78166
1824 1 18.9083 13.3702 5.04222
1825 1 16.3872 13.3702 5.04222
1826 1 17.6478 11.5875 6.30277
1827 1 15.1267 10.6962 5.04222
1828 1 16.3872 12.4789 6.30277
1829 1 13.8661 12.4789 6.30277
1830 1 15.1267 10.6962 7.56333
1831 1 15.1267 11.5875 6.30277
1832 1 16.3872 13.3702 7.56333
1833 1 13.8661 13.3702 7.56333
1834 1 15.1267 11.5875 8.82388
1835 1 12.6055 10.6962 7.56333
1836 1 13.8661 12.4789 8.82388
1837 1 11.345 12.4789 8.82388
1838 1 12.6055 10.6962 10.0844
1839 1 12.6055 11.5875 8.82388
1840 1 13.8661 13.3702 10.0844
1841 1 11.345 13.3702 10.0844
1842 1 12.6055 11.5875 11.345
1843 1 10.0844 10.6962 10.0844
1844 1 11.345 12.4789 11.345
1845 1 8.82388 12.4789 11.345
1846 1 10.0844 10.6962 12.6055
1847 1 10.0844 11.5875 11.345
1848 1 11.345 13.3702 12.6055
1849 1 8.82388 13.3702 12.6055
1850 1 10.0844 11.5875 13.8661
1851 1 7.56333 10.6962 12.6055
1852 1 8.82388 12.4789 13.8661
1853 1 6.30277 12.4789 13.8661
1854 1 7.56333 10.6962 15.1267
1855 1 7.56333 11.5875 13.8661
1856 1 8.82388 13.3702 15.1267
1857 1 6.30277 13.3702 15.1267
1858 1 7.56333 11.5875 16.3872
1859 1 5.04222 10.6962 15.1267
1860 1 6.30277 12.4789 16.3872
1861 1 3.78166 12.4789 16.3872
1862 1 5.04222 10.6962 17.6478
1863 1 5.04222 11.5875 16.3872
1864 1 6.30277 13.3702 17.6478
1865 1 3.78166 13.3702 17.6478
1866 1 5.04222 11.5875 18.9083
1867 1 2.52111 10.6962 17.6478
1868 1 3.78166 12.4789 18.9083
1869 1 1.26055 12.4789 18.9083
1870 1 2.52111 10.6962 20.1689
1871 1 2.52111 11.5875 18.9083
1872 1 3.78166 13.3702 20.1689
1873 1 1.26055 13.3702 20.1689
1874 1 2.52111 11.5875 21.4294
1875 1 0 10.6962 20.1689
1876 1 1.26055 12.4789 21.4294
1877 1 0 10.6962 22.69
1878 1 0 11.5875 21.4294
1879 1 1.26055 13.3702 22.69
1880 1 0 11.5875 23.9505
1881 1 18.9083 12.4789 6.30277
1882 1 18.9083 13.3702 7.56333
1883 1 17.6478 10.6962 7.56333
1884 1 18.9083 12.4789 8.82388
1885 1 16.3872 12.4789 8.82388
1886 1 17.6478 10.6962 10.0844
1887 1 17.6478 11.5875 8.82388
1888 1 18.9083 13.3702 10.0844
1889 1 16.3872 13.3702 10.0844
1890 1 17.6478 11.5875 11.345
1891 1 15.1267 10.6962 10.0844
1892 1 16.3872 12.4789 11.345
1893 1 13.8661 12.4789 11.345
1894 1 15.1267 10.6962 12.6055
1895 1 15.1267 11.5875 11.345
1896 1 16.3872 13.3702 12.6055
1897 1 13.8661 13.3702 12.6055
1898 1 15.1267 11.5875 13.8661
1899 1 12.6055 10.6962 12.6055
1900 1 13.8661 12.4789 13.8661
1901 1 11.345 12.4789 13.8661
1902 1 12.6055 10.6962 15.1267
1903 1 12.6055 11.5875 13.8661
1904 1 13.8661 13.3702 15.1267
1905 1 11.345 13.3702 15.1267
1906 1 12.6055 11.5875 16.3872
1907 1 10.0844 10.6962 15.1267
1908 1 11.345 12.4789 16.3872
1909 1 8.82388 12.4789 16.3872
1910 1 10.0844 10.6962 17.6478
1911 1 10.0844 11.5875 16.3872
1912 1 11.345 13.3702 17.6478
1913 1 8.82388 13.3702 17.6478
1914 1 10.0844 11.5875 18.9083
1915 1 7.56333 10.6962 17.6478
1916 1 8.82388 12.4789 18.9083
1917 1 6.30277 12.4789 18.9083
1918 1 7.56333 10.6962 20.1689
1919 1 7.56333 11.5875 18.9083
1920 1 8.82388 13.3702 20.1689
1921 1 6.30277 13.3702 20.1689
1922 1 7.56333 11.5875 21.4294
1923 1 5.04222 10.6962 20.1689
1924 1 6.30277 12.4789 21.4294
1925 1 3.78166 12.4789 21.4294
1926 1 5.04222 10.6962 22.69
1927 1 5.04222 11.5875 21.4294
1928 1 6.30277 13.3702 22.69
1929 1 3.78166 13.3702 22.69
1930 1 5.04222 11.5875 23.9505
1931 1 2.52111 10.6962 22.69
1932 1 3.78166 12.4789 23.9505
1933 1 1.26055 12.4789 23.9505
1934 1 2.52111 10.6962 25.2111
1935 1 2.52111 11.5875 23.9505
1936 1 3.78166 13.3702 25.2111
1937 1 1.26055 13.3702 25.2111
1938 1 2.52111 11.5875 26.4716
1939 1 0 10.6962 25.2111
1940 1 1.26055 12.4789 26.4716
1941 1 0 10.6962 27.7322
1942 1 0 11.5875 26.4716
1943 1 1.26055 13.3702 27.7322
1944 1 0 11.5875 28.9928
1945 1 18.9083 12.4789 11.345
1946 1 18.9083 13.3702 12.6055
1947 1 17.6478 10.6962 12.6055
1948 1 18.9083 12.4789 13.8661
1949 1 16.3872 12.4789 13.8661
1950 1 17.6478 10.6962 15.1267
1951 1 17.6478 11.5875 13.8661
1952 1 18.9083 13.3702 15.1267
1953 1 16.3872 13.3702 15.1267
1954 1 17.6478 11.5875 16.3872
1955 1 15.1267 10.6962 15.1267
1956 1 16.3872 12.4789 16.3872
1957 1 13.8661 12.4789 16.3872
1958 1 15.1267 10.6962 17.6478
1959 1 15.1267 11.5875 16.3872
1960 1 16.3872 13.3702 17.6478
1961 1 13.8661 13.3702 17.6478
1962 1 15.1267 11.5875 18.9083
1963 1 12.6055 10.6962 17.6478
1964 1 13.8661 12.4789 18.9083
1965 1 11.345 12.4789 18.9083
1966 1 12.6055 10.6962 20.1689
1967 1 12.6055 11.5875 18.9083
1968 1 13.8661 13.3702 20.1689
1969 1 11.345 13.3702 20.1689
1970 1 12.6055 11.5875 21.4294
1971 1 10.0844 10.6962 20.1689
1972 1 11.345 12.4789 21.4294
1973 1 8.82388 12.4789 21.4294
1974 1 10.0844 10.6962 22.69
1975 1 10.0844 11.5875 21.4294
1976 1 11.345 13.3702 22.69
1977 1 8.82388 13.3702 22.69
1978 1 10.0844 11.5875 23.9505
1979 1 7.56333 10.6962 22.69
1980 1 8.82388 12.4789 23.9505
1981 1 6.30277 12.4789 23.9505
1982 1 7.56333 10.6962 25.2111
1983 1 7.56333 11.5875 23.9505
1984 1 8.82388 13.3702 25.2111
1985 1 6.30277 13.3702 25.2111
1986 1 7.56333 11.5875 26.4716
1987 1 5.04222 10.6962 25.2111
1988 1 6.30277 12.4789 26.4716
1989 1 3.78166 12.4789 26.4716
1990 1 5.04222 10.6962 27.7322
1991 1 5.04222 11.5875 26.4716
1992 1 6.30277 13.3702 27.7322
1993 1 3.78166 13.3702 27.7322
1994 1 5.04222 11.5875 28.9928
1995 1 2.52111 10.6962 27.7322
1996 1 3.78166 12.4789 28.9928
1997 1 1.26055 12.4789 28.9928
1998 1 2.52111 10.6962 30.2533
1999 1 2.52111 11.5875 28.9928
2000 1 3.78166 13.3702 30.2533
2001 1 1.26055 13.3702 30.2533
2002 1 2.52111 11.5875 31.5139
2003 1 0 10.6962 30.2533
2004 1 1.26055 12.4789 31.5139
2005 1 0 10.6962 32.7744
2006 1 0 11.5875 31.5139
2007 1 1.26055 13.3702 32.7744
2008 1 0 11.5875 34.035
2009 1 18.9083 12.4789 16.3872
2010 1 18.9083 13.3702 17.6478
2011 1 17.6478 10.6962 17.6478
2012 1 18.9083 12.4789 18.9083
2013 1 16.3872 12.4789 18.9083
2014 1 17.6478 10.6962 20.1689
2015 1 17.6478 11.5875 18.9083
2016 1 18.9083 13.3702 20.1689
2017 1 16.3872 13.3702 20.1689
2018 1 17.6478 11.5875 21.4294
2019 1 15.1267 10.6962 20.1689
2020 1 16.3872 12.4789 21.4294
2021 1 13.8661 12.4789 21.4294
2022 1 15.1267 10.6962 22.69
2023 1 15.1267 11.5875 21.4294
2024 1 16.3872 13.3702 22.69
2025 1 13.8661 13.3702 22.69
2026 1 15.1267 11.5875 23.9505
2027 1 12.6055 10.6962 22.69
2028 1 13.8661 12.4789 23.9505
2029 1 11.345 12.4789 23.9505
2030 1 12.6055 10.6962 25.2111
2031 1 12.6055 11.5875 23.9505
2032 1 13.8661 13.3702 25.2111
2033 1 11.345 13.3702 25.2111
2034 1 12.6055 11.5875 26.4716
2035 1 10.0844 10.6962 25.2111
2036 1 11.345 12.4789 26.4716
2037 1 8.82388 12.4789 26.4716
2038 1 10.0844 10.6962 27.7322
2039 1 10.0844 11.5875 26.4716
2040 1 11.345 13.3702 27.7322
2041 1 8.82388 13.3702 27.7322
2042 1 10.0844 11.5875 28.9928
2043 1 7.56333 10.6962 27.7322
2044 1 8.82388 12.4789 28.9928
2045 1 6.30277 12.4789 28.9928
2046 1 7.56333 10.6962 30.2533
2047 1 7.56333 11.5875 28.9928
2048 1 8.82388 13.3702 30.2533
2049 1 6.30277 13.3702 30.2533
2050 1 7.56333 11.5875 31.5139
2051 1 5.04222 10.6962 30.2533
2052 1 6.30277 12.4789 31.5139
2053 1 3.78166 12.4789 31.5139
2054 1 5.04222 10.6962 32.7744
2055 1 5.04222 11.5875 31.5139
2056 1 6.30277 13.3702 32.7744
2057 1 3.78166 13.3702 32.7744
2058 1 5.04222 11.5875 34.035
2059 1 2.52111 10.6962 32.7744
2060 1 3.78166 12.4789 34.035
2061 1 1.26055 12.4789 34.035
2062 1 2.52111 10.6962 35.2955
2063 1 2.52111 11.5875 34.035
2064 1 3.78166 13.3702 35.2955
2065 1 1.26055 13.3702 35.2955
2066 1 2.52111 11.5875 36.5561
2067 1 0 10.6962 35.2955
2068 1 1.26055 12.4789 36.5561
2069 1 0 10.6962 37.8166
2070 1 0 11.5875 36.5561
2071 1 1.26055 13.3702 37.8166
2072 1 18.9083 12.4789 21.4294
2073 1 18.9083 13.3702 22.69
2074 1 17.6478 10.6962 22.69
2075 1 18.9083 12.4789 23.9505
2076 1 16.3872 12.4789 23.9505
2077 1 17.6478 10.6962 25.2111
2078 1 17.6478 11.5875 23.9505
2079 1 18.9083 13.3702 25.2111
2080 1 16.3872 13.3702 25.2111
2081 1 17.6478 11.5875 26.4716
2082 1 15.1267 10.6962 25.2111
2083 1 16.3872 12.4789 26.4716
2084 1 13.8661 12.4789 26.4716
2085 1 15.1267 10.6962 27.7322
2086 1 15.1267 11.5875 26.4716
2087 1 16.3872 13.3702 27.7322
2088 1 13.8661 13.3702 27.7322
2089 1 15.1267 11.5875 28.9928
2090 1 12.6055 10.6962 27.7322
2091 1 13.8661 12.4789 28.9928
2092 1 11.345 12.4789 28.9928
2093 1 12.6055 10.6962 30.2533
2094 1 12.6055 11.5875 28.9928
2095 1 13.8661 13.3702 30.2533
2096 1 11.345 13.3702 30.2533
2097 1 12.6055 11.5875 31.5139
2098 1 10.0844 10.6962 30.2533
2099 1 11.345 12.4789 31.5139
2100 1 8.82388 12.4789 31.5139
2101 1 10.0844 10.6962 32.7744
2102 1 10.0844 11.5875 31.5139
2103 1 11.345 13.3702 32.7744
2104 1 8.82388 13.3702 32.7744
2105 1 10.0844 11.5875 34.035
2106 1 7.56333 10.6962 32.7744
2107 1 8.82388 12.4789 34.035
2108 1 6.30277 12.4789 34.035
2109 1 7.56333 10.6962 35.2955
2110 1 7.56333 11.5875 34.035
2111 1 8.82388 13.3702 35.2955
2112 1 6.30277 13.3702 35.2955
2113 1 7.56333 11.5875 36.5561
2114 1 5.04222 10.6962 35.2955
2115 1 6.30277 12.4789 36.5561
2116 1 3.78166 12.4789 36.5561
2117 1 5.04222 10.6962 37.8166
2118 1 5.04222 11.5875 36.5561
2119 1 6.30277 13.3702 37.8166
2120 1 3.78166 13.3702 37.8166
2121 1 2.52111 10.6962 37.8166
2122 1 18.9083 12.4789 26.4716
2123 1 18.9083 13.3702 27.7322
2124 1 17.6478 10.6962 27.7322
2125 1 18.9083 12.4789 28.9928
2126 1 16.3872 12.4789 28.9928
2127 1 17.6478 10.6962 30.2533
2128 1 17.6478 11.5875 28.9928
2129 1 18.9083 13.3702 30.2533
2130 1 16.3872 13.3702 30.2533
2131 1 17.6478 11.5875 31.5139
2132 1 15.1267 10.6962 30.2533
2133 1 16.3872 12.4789 31.5139
2134 1 13.8661 12.4789 31.5139
2135 1 15.1267 10.6962 32.7744
2136 1 15.1267 11.5875 31.5139
2137 1 16.3872 13.3702 32.7744
2138 1 13.8661 13.3702 32.7744
2139 1 15.1267 11.5875 34.035
2140 1 12.6055 10.6962 32.7744
2141 1 13.8661 12.4789 34.035
2142 1 11.345 12.4789 34.035
2143 1 12.6055 10.6962 35.2955
2144 1 12.6055 11.5875 34.035
2145 1 13.8661 13.3702 35.2955
2146 1 11.345 13.3702 35.2955
2147 1 12.6055 11.5875 36.5561
2148 1 10.0844 10.6962 35.2955
2149 1 11.345 12.4789 36.5561
2150 1 8.82388 12.4789 36.5561
2151 1 10.0844 10.6962 37.8166
2152 1 10.0844 11.5875 36.5561
2153 1 11.345 13.3702 37.8166
2154 1 8.82388 13.3702 37.8166
2155 1 7.56333 10.6962 37.8166
2156 1 18.9083 12.4789 31.5139
2157 1 18.9083 13.3702 32.7744
2158 1 17.6478 10.6962 32.7744
2159 1 18.9083 12.4789 34.035
2160 1 16.3872 12.4789 34.035
2161 1 17.6478 10.6962 35.2955
2162 1 17.6478 11.5875 34.035
2163 1 18.9083 13.3702 35.2955
2164 1 16.3872 13.3702 35.2955
2165 1 17.6478 11.5875 36.5561
2166 1 15.1267 10.6962 35.2955
2167 1 16.3872 12.4789 36.5561
2168 1 13.8661 12.4789 36.5561
2169 1 15.1267 10.6962 37.8166
2170 1 15.1267 11.5875 36.5561
2171 1 16.3872 13.3702 37.8166
2172 1 13.8661 13.3702 37.8166
2173 1 12.6055 10.6962 37.8166
2174 1 18.9083 12.4789 36.5561
2175 1 18.9083 13.3702 37.8166
2176 1 17.6478 10.6962 37.8166
2177 1 2.52111 15.1529 -3.78166
2178 1 1.26055 16.0442 -3.78166
2179 1 0 14.2615 -2.52111
2180 1 0 15.1529 -3.78166
2181 1 1.26055 16.9356 -2.52111
2182 1 0 15.1529 -1.26055
2183 1 7.56333 15.1529 -3.78166
2184 1 6.30277 16.0442 -3.78166
2185 1 3.78166 16.0442 -3.78166
2186 1 5.04222 14.2615 -2.52111
2187 1 5.04222 15.1529 -3.78166
2188 1 6.30277 16.9356 -2.52111
2189 1 3.78166 16.9356 -2.52111
2190 1 5.04222 15.1529 -1.26055
2191 1 2.52111 14.2615 -2.52111
2192 1 3.78166 16.0442 -1.26055
2193 1 1.26055 16.0442 -1.26055
2194 1 2.52111 14.2615 0
2195 1 2.52111 15.1529 -1.26055
2196 1 3.78166 16.9356 0
2197 1 1.26055 16.9356 0
2198 1 2.52111 15.1529 1.26055
2199 1 0 14.2615 0
2200 1 1.26055 16.0442 1.26055
2201 1 0 14.2615 2.52111
2202 1 0 15.1529 1.26055
2203 1 1.26055 16.9356 2.52111
2204 1 0 15.1529 3.78166
2205 1 12.6055 15.1529 -3.78166
2206 1 11.345 16.0442 -3.78166
2207 1 8.82388 16.0442 -3.78166
2208 1 10.0844 14.2615 -2.52111
2209 1 10.0844 15.1529 -3.78166
2210 1 11.345 16.9356 -2.52111
2211 1 8.82388 16.9356 -2.52111
2212 1 10.0844 15.1529 -1.26055
2213 1 7.56333 14.2615 -2.52111
2214 1 8.82388 16.0442 -1.26055
2215 1 6.30277 16.0442 -1.26055
2216 1 7.56333 14.2615 0
2217 1 7.56333 15.1529 -1.26055
2218 1 8.82388 16.9356 0
2219 1 6.30277 16.9356 0
2220 1 7.56333 15.1529 1.26055
2221 1 5.04222 14.2615 0
2222 1 6.30277 16.0442 1.26055
2223 1 3.78166 16.0442 1.26055
2224 1 5.04222 14.2615 2.52111
2225 1 5.04222 15.1529 1.26055
2226 1 6.30277 16.9356 2.52111
2227 1 3.78166 16.9356 2.52111
2228 1 5.04222 15.1529 3.78166
2229 1 2.52111 14.2615 2.52111
2230 1 3.78166 16.0442 3.78166
2231 1 1.26055 16.0442 3.78166
2232 1 2.52111 14.2615 5.04222
2233 1 2.52111 15.1529 3.78166
2234 1 3.78166 16.9356 5.04222
2235 1 1.26055 16.9356 5.04222
2236 1 2.52111 15.1529 6.30277
2237 1 0 14.2615 5.04222
2238 1 1.26055 16.0442 6.30277
2239 1 0 14.2615 7.56333
2240 1 0 15.1529 6.30277
2241 1 1.26055 16.9356 7.56333
2242 1 0 15.1529 8.82388
2243 1 17.6478 15.1529 -3.78166
2244 1 16.3872 16.0442 -3.78166
2245 1 13.8661 16.0442 -3.78166
2246 1 15.1267 14.2615 -2.52111
2247 1 15.1267 15.1529 -3.78166
2248 1 16.3872 16.9356 -2.52111
2249 1 13.8661 16.9356 -2.52111
2250 1 15.1267 15.1529 -1.26055
2251 1 12.6055 14.2615 -2.52111
2252 1 13.8661 16.0442 -1.26055
2253 1 11.345 16.0442 -1.26055
2254 1 12.6055 14.2615 0
2255 1 12.6055 15.1529 -1.26055
2256 1 13.8661 16.9356 0
2257 1 11.345 16.9356 0
2258 1 12.6055 15.1529 1.26055
2259 1 10.0844 14.2615 0
2260 1 11.345 16.0442 1.26055
2261 1 8.82388 16.0442 1.26055
2262 1 10.0844 14.2615 2.52111
2263 1 10.0844 15.1529 1.26055
2264 1 11.345 16.9356 2.52111
2265 1 8.82388 16.9356 2.52111
2266 1 10.0844 15.1529 3.78166
2267 1 7.56333 14.2615 2.52111
2268 1 8.82388 16.0442 3.78166
2269 1 6.30277 16.0442 3.78166
2270 1 7.56333 14.2615 5.04222
2271 1 7.56333 15.1529 3.78166
2272 1 8.82388 16.9356 5.04222
2273 1 6.30277 16.9356 5.04222
2274 1 7.56333 15.1529 6.30277
2275 1 5.04222 14.2615 5.04222
2276 1 6.30277 16.0442 6.30277
2277 1 3.78166 16.0442 6.30277
2278 1 5.04222 14.2615 7.56333
2279 1 5.04222 15.1529 6.30277
2280 1 6.30277 16.9356 7.56333
2281 1 3.78166 16.9356 7.56333
2282 1 5.04222 15.1529 8.82388
2283 1 2.52111 14.2615 7.56333
2284 1 3.78166 16.0442 8.82388
2285 1 1.26055 16.0442 8.82388
2286 1 2.52111 14.2615 10.0844
2287 1 2.52111 15.1529 8.82388
2288 1 3.78166 16.9356 10.0844
2289 1 1.26055 16.9356 10.0844
2290 1 2.52111 15.1529 11.345
2291 1 0 14.2615 10.0844
2292 1 1.26055 16.0442 11.345
2293 1 0 14.2615 12.6055
2294 1 0 15.1529 11.345
2295 1 1.26055 16.9356 12.6055
2296 1 0 15.1529 13.8661
2297 1 18.9083 16.0442 -3.78166
2298 1 18.9083 16.9356 -2.52111
2299 1 17.6478 14.2615 -2.52111
2300 1 18.9083 16.0442 -1.26055
2301 1 16.3872 16.0442 -1.26055
2302 1 17.6478 14.2615 0
2303 1 17.6478 15.1529 -1.26055
2304 1 18.9083 16.9356 0
2305 1 16.3872 16.9356 0
2306 1 17.6478 15.1529 1.26055
2307 1 15.1267 14.2615 0
2308 1 16.3872 16.0442 1.26055
2309 1 13.8661 16.0442 1.26055
2310 1 15.1267 14.2615 2.52111
2311 1 15.1267 15.1529 1.26055
2312 1 16.3872 16.9356 2.52111
2313 1 13.8661 16.9356 2.52111
2314 1 15.1267 15.1529 3.78166
2315 1 12.6055 14.2615 2.52111
2316 1 13.8661 16.0442 3.78166
2317 1 11.345 16.0442 3.78166
2318 1 12.6055 14.2615 5.04222
2319 1 12.6055 15.1529 3.78166
2320 1 13.8661 16.9356 5.04222
2321 1 11.345 16.9356 5.04222
2322 1 12.6055 15.1529 6.30277
2323 1 10.0844 14.2615 5.04222
2324 1 11.345 16.0442 6.30277
2325 1 8.82388 16.0442 6.30277
2326 1 10.0844 14.2615 7.56333
2327 1 10.0844 15.1529 6.30277
2328 1 11.345 16.9356 7.56333
2329 1 8.82388 16.9356 7.56333
2330 1 10.0844 15.1529 8.82388
2331 1 7.56333 14.2615 7.56333
2332 1 8.82388 16.0442 8.82388
2333 1 6.30277 16.0442 8.82388
2334 1 7.56333 14.2615 10.0844
2335 1 7.56333 15.1529 8.82388
2336 1 8.82388 16.9356 10.0844
2337 1 6.30277 16.9356 10.0844
2338 1 7.56333 15.1529 11.345
2339 1 5.04222 14.2615 10.0844
2340 1 6.30277 16.0442 11.345
2341 1 3.78166 16.0442 11.345
2342 1 5.04222 14.2615 12.6055
2343 1 5.04222 15.1529 11.345
2344 1 6.30277 16.9356 12.6055
2345 1 3.78166 16.9356 12.6055
2346 1 5.04222 15.1529 13.8661
2347 1 2.52111 14.2615 12.6055
2348 1 3.78166 16.0442 13.8661
2349 1 1.26055 16.0442 13.8661
2350 1 2.52111 14.2615 15.1267
2351 1 2.52111 15.1529 13.8661
2352 1 3.78166 16.9356 15.1267
2353 1 1.26055 16.9356 15.1267
2354 1 2.52111 15.1529 16.3872
2355 1 0 14.2615 15.1267
2356 1 1.26055 16.0442 16.3872
2357 1 0 14.2615 17.6478
2358 1 0 15.1529 16.3872
2359 1 1.26055 16.9356 17.6478
2360 1 0 15.1529 18.9083
2361 1 18.9083 16.0442 1.26055
2362 1 18.9083 16.9356 2.52111
2363 1 17.6478 14.2615 2.52111
2364 1 18.9083 16.0442 3.78166
2365 1 16.3872 16.0442 3.78166
2366 1 17.6478 14.2615 5.04222
2367 1 17.6478 15.1529 3.78166
2368 1 18.9083 16.9356 5.04222
2369 1 16.3872 16.9356 5.04222
2370 1 17.6478 15.1529 6.30277
2371 1 15.1267 14.2615 5.04222
2372 1 16.3872 16.0442 6.30277
2373 1 13.8661 16.0442 6.30277
2374 1 15.1267 14.2615 7.56333
2375 1 15.1267 15.1529 6.30277
2376 1 16.3872 16.9356 7.56333
2377 1 13.8661 16.9356 7.56333
2378 1 15.1267 15.1529 8.82388
2379 1 12.6055 14.2615 7.56333
2380 1 13.8661 16.0442 8.82388
2381 1 11.345 16.0442 8.82388
2382 1 12.6055 14.2615 10.0844
2383 1 12.6055 15.1529 8.82388
2384 1 13.8661 16.9356 10.0844
2385 1 11.345 16.9356 10.0844
2386 1 12.6055 15.1529 11.345
2387 1 10.0844 14.2615 10.0844
2388 1 11.345 16.0442 11.345
2389 1 8.82388 16.0442 11.345
2390 1 10.0844 14.2615 12.6055
2391 1 10.0844 15.1529 11.345
2392 1 11.345 16.9356 12.6055
2393 1 8.82388 16.9356 12.6055
2394 1 10.0844 15.1529 13.8661
2395 1 7.56333 14.2615 12.6055
2396 1 8.82388 16.0442 13.8661
2397 1 6.30277 16.0442 13.8661
2398 1 7.56333 14.2615 15.1267
2399 1 7.56333 15.1529 13.8661
2400 1 8.82388 16.9356 15.1267
2401 1 6.30277 16.9356 15.1267
2402 1 7.56333 15.1529 16.3872
2403 1 5.04222 14.2615 15.1267
2404 1 6.30277 16.0442 16.3872
2405 1 3.78166 16.0442 16.3872
2406 1 5.04222 14.2615 17.6478
2407 1 5.04222 15.1529 16.3872
2408 1 6.30277 16.9356 17.6478
2409 1 3.78166 16.9356 17.6478
2410 1 5.04222 15.1529 18.9083
2411 1 2.52111 14.2615 17.6478
2412 1 3.78166 16.0442 18.9083
2413 1 1.26055 16.0442 18.9083
2414 1 2.52111 14.2615 20.1689
2415 1 2.52111 15.1529 18.9083
2416 1 3.78166 16.9356 20.1689
2417 1 1.26055 16.9356 20.1689
2418 1 2.52111 15.1529 21.4294
2419 1 0 14.2615 20.1689
2420 1 1.26055 16.0442 21.4294
2421 1 0 14.2615 22.69
2422 1 0 15.1529 21.4294
2423 1 1.26055 16.9356 22.69
2424 1 0 15.1529 23.9505
2425 1 18.9083 16.0442 6.30277
2426 1 18.9083 16.9356 7.56333
2427 1 17.6478 14.2615 7.56333
2428 1 18.9083 16.0442 8.82388
2429 1 16.3872 16.0442 8.82388
2430 1 17.6478 14.2615 10.0844
2431 1 17.6478 15.1529 8.82388
2432 1 18.9083 16.9356 10.0844
2433 1 16.3872 16.9356 10.0844
2434 1 17.6478 15.1529 11.345
2435 1 15.1267 14.2615 10.0844
2436 1 16.3872 16.0442 11.345
2437 1 13.8661 16.0442 11.345
2438 1 15.1267 14.2615 12.6055
2439 1 15.1267 15.1529 11.345
2440 1 16.3872 16.9356 12.6055
2441 1 13.8661 16.9356 12.6055
2442 1 15.1267 15.1529 13.8661
2443 1 12.6055 14.2615 12.6055
2444 1 13.8661 16.0442 13.8661
2445 1 11.345 16.0442 13.8661
2446 1 12.6055 14.2615 15.1267
2447 1 12.6055 15.1529 13.8661
2448 1 13.8661 16.9356 15.1267
2449 1 11.345 16.9356 15.1267
2450 1 12.6055 15.1529 16.3872
2451 1 10.0844 14.2615 15.1267
2452 1 11.345 16.0442 16.3872
2453 1 8.82388 16.0442 16.3872
2454 1 10.0844 14.2615 17.6478
2455 1 10.0844 15.1529 16.3872
2456 1 11.345 16.9356 17.6478
2457 1 8.82388 16.9356 17.6478
2458 1 10.0844 15.1529 18.9083
2459 1 7.56333 14.2615 17.6478
2460 1 8.82388 16.0442 18.9083
2461 1 6.30277 16.0442 18.9083
2462 1 7.56333 14.2615 20.1689
2463 1 7.56333 15.1529 18.9083
2464 1 8.82388 16.9356 20.1689
2465 1 6.30277 16.9356 20.1689
2466 1 7.56333 15.1529 21.4294
2467 1 5.04222 14.2615 20.1689
2468 1 6.30277 16.0442 21.4294
2469 1 3.78166 16.0442 21.4294
2470 1 5.04222 14.2615 22.69
2471 1 5.04222 15.1529 21.4294
2472 1 6.30277 16.9356 22.69
2473 1 3.78166 16.9356 22.69
2474 1 5.04222 15.1529 23.9505
2475 1 2.52111 14.2615 22.69
2476 1 3.78166 16.0442 23.9505
2477 1 1.26055 16.0442 23.9505
2478 1 2.52111 14.2615 25.2111
2479 1 2.52111 15.1529 23.9505
2480 1 3.78166 16.9356 25.2111
2481 1 1.26055 16.9356 25.2111
2482 1 2.52111 15.1529 26.4716
2483 1 0 14.2615 25.2111
2484 1 1.26055 16.0442 26.4716
2485 1 0 14.2615 27.7322
2486 1 0 15.1529 26.4716
2487 1 1.26055 16.9356 27.7322
2488 1 0 15.1529 28.9928
2489 1 18.9083 16.0442 11.345
2490 1 18.9083 16.9356 12.6055
2491 1 17.6478 14.2615 12.6055
2492 1 18.9083 16.0442 13.8661
2493 1 16.3872 16.0442 13.8661
2494 1 17.6478 14.2615 15.1267
2495 1 17.6478 15.1529 13.8661
2496 1 18.9083 16.9356 15.1267
2497 1 16.3872 16.9356 15.1267
2498 1 17.6478 15.1529 16.3872
2499 1 15.1267 14.2615 15.1267
2500 1 16.3872 16.0442 16.3872
2501 1 13.8661 16.0442 16.3872
2502 1 15.1267 14.2615 17.6478
2503 1 15.1267 15.1529 16.3872
2504 1 16.3872 16.9356 17.6478
2505 1 13.8661 16.9356 17.6478
2506 1 15.1267 15.1529 18.9083
2507 1 12.6055 14.2615 17.6478
2508 1 13.8661 16.0442 18.9083
2509 1 11.345 16.0442 18.9083
2510 1 12.6055 14.2615 20.1689
2511 1 12.6055 15.1529 18.9083
2512 1 13.8661 16.9356 20.1689
2513 1 11.345 16.9356 20.1689
2514 1 12.6055 15.1529 21.4294
2515 1 10.0844 14.2615 20.1689
2516 1 11.345 16.0442 21.4294
2517 1 8.82388 16.0442 21.4294
2518 1 10.0844 14.2615 22.69
2519 1 10.0844 15.1529 21.4294
2520 1 11.345 16.9356 22.69
2521 1 8.82388 16.9356 22.69
2522 1 10.0844 15.1529 23.9505
2523 1 7.56333 14.2615 22.69
2524 1 8.82388 16.0442 23.9505
2525 1 6.30277 16.0442 23.9505
2526 1 7.56333 14.2615 25.2111
2527 1 7.56333 15.1529 23.9505
2528 1 8.82388 16.9356 25.2111
2529 1 6.30277 16.9356 25.2111
2530 1 7.56333 15.1529 26.4716
2531 1 5.04222 14.2615 25.2111
2532 1 6.30277 16.0442 26.4716
2533 1 3.78166 16.0442 26.4716
2534 1 5.04222 14.2615 27.7322
2535 1 5.04222 15.1529 26.4716
2536 1 6.30277 16.9356 27.7322
2537 1 3.78166 16.9356 27.7322
2538 1 5.04222 15.1529 28.9928
2539 1 2.52111 14.2615 27.7322
2540 1 3.78166 16.0442 28.9928
2541 1 1.26055 16.0442 28.9928
2542 1 2.52111 14.2615 30.2533
2543 1 2.52111 15.1529 28.9928
2544 1 3.78166 16.9356 30.2533
2545 1 1.26055 16.9356 30.2533
2546 1 2.52111 15.1529 31.5139
2547 1 0 14.2615 30.2533
2548 1 1.26055 16.0442 31.5139
2549 1 0 14.2615 32.7744
2550 1 0 15.1529 31.5139
2551 1 1.26055 16.9356 32.7744
2552 1 0 15.1529 34.035
2553 1 18.9083 16.0442 16.3872
2554 1 18.9083 16.9356 17.6478
2555 1 17.6478 14.2615 17.6478
2556 1 18.9083 16.0442 18.9083
2557 1 16.3872 16.0442 18.9083
2558 1 17.6478 14.2615 20.1689
2559 1 17.6478 15.1529 18.9083
2560 1 18.9083 16.9356 20.1689
2561 1 16.3872 16.9356 20.1689
2562 1 17.6478 15.1529 21.4294
2563 1 15.1267 14.2615 20.1689
2564 1 16.3872 16.0442 21.4294
2565 1 13.8661 16.0442 21.4294
2566 1 15.1267 14.2615 22.69
2567 1 15.1267 15.1529 21.4294
2568 1 16.3872 16.9356 22.69
2569 1 13.8661 16.9356 22.69
2570 1 15.1267 15.1529 23.9505
2571 1 12.6055 14.2615 22.69
2572 1 13.8661 16.0442 23.9505
2573 1 11.345 16.0442 23.9505
2574 1 12.6055 14.2615 25.2111
2575 1 12.6055 15.1529 23.9505
2576 1 13.8661 16.9356 25.2111
2577 1 11.345 16.9356 25.2111
2578 1 12.6055 15.1529 26.4716
2579 1 10.0844 14.2615 25.2111
2580 1 11.345 16.0442 26.4716
2581 1 8.82388 16.0442 26.4716
2582 1 10.0844 14.2615 27.7322
2583 1 10.0844 15.1529 26.4716
2584 1 11.345 16.9356 27.7322
2585 1 8.82388 16.9356 27.7322
2586 1 10.0844 15.1529 28.9928
2587 1 7.56333 14.2615 27.7322
2588 1 8.82388 16.0442 28.9928
2589 1 6.30277 16.0442 28.9928
2590 1 7.56333 14.2615 30.2533
2591 1 7.56333 15.1529 28.9928
2592 1 8.82388 16.9356 30.2533
2593 1 6.30277 16.9356 30.2533
2594 1 7.56333 15.1529 31.5139
2595 1 5.04222 14.2615 30.2533
2596 1 6.30277 16.0442 31.5139
2597 1 3.78166 16.0442 31.5139
2598 1 5.04222 14.2615 32.7744
2599 1 5.04222 15.1529 31.5139
2600 1 6.30277 16.9356 32.7744
2601 1 3.78166 16.9356 32.7744
2602 1 5.04222 15.1529 34.035
2603 1 2.52111 14.2615 32.7744
2604 1 3.78166 16.0442 34.035
2605 1 1.26055 16.0442 34.035
2606 1 2.52111 14.2615 35.2955
2607 1 2.52111 15.1529 34.035
2608 1 3.78166 16.9356 35.2955
2609 1 1.26055 16.9356 35.2955
2610 1 2.52111 15.1529 36.5561
2611 1 0 14.2615 35.2955
2612 1 1.26055 16.0442 36.5561
2613 1 0 14.2615 37.8166
2614 1 0 15.1529 36.5561
2615 1 1.26055 16.9356 37.8166
2616 1 18.9083 16.0442 21.4294
2617 1 18.9083 16.9356 22.69
2618 1 17.6478 14.2615 22.69
2619 1 18.9083 16.0442 23.9505
2620 1 16.3872 16.0442 23.9505
2621 1 17.6478 14.2615 25.2111
2622 1 17.6478 15.1529 23.9505
2623 1 18.9083 16.9356 25.2111
2624 1 16.3872 16.9356 25.2111
2625 1 17.6478 15.1529 26.4716
2626 1 15.1267 14.2615 25.2111
2627 1 16.3872 16.0442 26.4716
2628 1 13.8661 16.0442 26.4716
2629 1 15.1267 14.2615 27.7322
2630 1 15.1267 15.1529 26.4716
2631 1 16.3872 16.9356 27.7322
2632 1 13.8661 16.9356 27.7322
2633 1 15.1267 15.1529 28.9928
2634 1 12.6055 14.2615 27.7322
2635 1 13.8661 16.0442 28.9928
2636 1 11.345 16.0442 28.9928
2637 1 12.6055 14.2615 30.2533
2638 1 12.6055 15.1529 28.9928
2639 1 13.8661 16.9356 30.2533
2640 1 11.345 16.9356 30.2533
2641 1 12.6055 15.1529 31.5139
2642 1 10.0844 14.2615 30.2533
2643 1 11.345 16.0442 31.5139
2644 1 8.82388 16.0442 31.5139
2645 1 10.0844 14.2615 32.7744
2646 1 10.0844 15.1529 31.5139
2647 1 11.345 16.9356 32.7744
2648 1 8.82388 16.9356 32.7744
2649 1 10.0844 15.1529 34.035
2650 1 7.56333 14.2615 32.7744
2651 1 8.82388 16.0442 34.035
2652 1 6.30277 16.0442 34.035
2653 1 7.56333 14.2615 35.2955
2654 1 7.56333 15.1529 34.035
2655 1 8.82388 16.9356 35.2955
2656 1 6.30277 16.9356 35.2955
2657 1 7.56333 15.1529 36.5561
2658 1 5.04222 14.2615 35.2955
2659 1 6.30277 16.0442 36.5561
2660 1 3.78166 16.0442 36.5561
2661 1 5.04222 14.2615 37.8166
2662 1 5.04222 15.1529 36.5561
2663 1 6.30277 16.9356 37.8166
2664 1 3.78166 16.9356 37.8166
2665 1 2.52111 14.2615 37.8166
2666 1 18.9083 16.0442 26.4716
2667 1 18.9083 16.9356 27.7322
2668 1 17.6478 14.2615 27.7322
2669 1 18.9083 16.0442 28.9928
2670 1 16.3872 16.0442 28.9928
2671 1 17.6478 14.2615 30.2533
2672 1 17.6478 15.1529 28.9928
2673 1 18.9083 16.9356 30.2533
2674 1 16.3872 16.9356 30.2533
2675 1 17.6478 15.1529 31.5139
2676 1 15.1267 14.2615 30.2533
2677 1 16.3872 16.0442 31.5139
2678 1 13.8661 16.0442 31.5139
2679 1 15.1267 14.2615 32.7744
2680 1 15.1267 15.1529 31.5139
2681 1 16.3872 16.9356 32.7744
2682 1 13.8661 16.9356 32.7744
2683 1 15.1267 15.1529 34.035
2684 1 12.6055 14.2615 32.7744
2685 1 13.8661 16.0442 34.035
2686 1 11.345 16.0442 34.035
2687 1 12.6055 14.2615 35.2955
2688 1 12.6055 15.1529 34.035
2689 1 13.8661 16.9356 35.2955
2690 1 11.345 16.9356 35.2955
2691 1 12.6055 15.1529 36.5561
2692 1 10.0844 14.2615 35.2955
2693 1 11.345 16.0442 36.5561
2694 1 8.82388 16.0442 36.5561
2695 1 10.0844 14.2615 37.8166
2696 1 10.0844 15.1529 36.5561
2697 1 11.345 16.9356 37.8166
2698 1 8.82388 16.9356 37.8166
2699 1 7.56333 14.2615 37.8166
2700 1 18.9083 16.0442 31.5139
2701 1 18.9083 16.9356 32.7744
2702 1 17.6478 14.2615 32.7744
2703 1 18.9083 16.0442 34.035
2704 1 16.3872 16.0442 34.035
2705 1 17.6478 14.2615 35.2955
2706 1 17.6478 15.1529 34.035
2707 1 18.9083 16.9356 35.2955
2708 1 16.3872 16.9356 35.2955
2709 1 17.6478 15.1529 36.5561
2710 1 15.1267 14.2615 35.2955
2711 1 16.3872 16.0442 36.5561
2712 1 13.8661 16.0442 36.5561
2713 1 15.1267 14.2615 37.8166
2714 1 15.1267 15.1529 36.5561
2715 1 16.3872 16.9356 37.8166
2716 1 13.8661 16.9356 37.8166
2717 1 12.6055 14.2615 37.8166
2718 1 18.9083 16.0442 36.5561
2719 1 18.9083 16.9356 37.8166
2720 1 17.6478 14.2615 37.8166
2721 1 2.52111 18.7183 -3.78166
2722 1 1.26055 19.6096 -3.78166
2723 1 0 17.8269 -2.52111
2724 1 0 18.7183 -3.78166
2725 1 1.26055 20.501 -2.52111
2726 1 0 18.7183 -1.26055
2727 1 7.56333 18.7183 -3.78166
2728 1 6.30277 19.6096 -3.78166
2729 1 3.78166 19.6096 -3.78166
2730 1 5.04222 17.8269 -2.52111
2731 1 5.04222 18.7183 -3.78166
2732 1 6.30277 20.501 -2.52111
2733 1 3.78166 20.501 -2.52111
2734 1 5.04222 18.7183 -1.26055
2735 1 2.52111 17.8269 -2.52111
2736 1 3.78166 19.6096 -1.26055
2737 1 1.26055 19.6096 -1.26055
2738 1 2.52111 17.8269 0
2739 1 2.52111 18.7183 -1.26055
2740 1 3.78166 20.501 0
2741 1 1.26055 20.501 0
2742 1 2.52111 18.7183 1.26055
2743 1 0 17.8269 0
2744 1 1.26055 19.6096 1.26055
2745 1 0 17.8269 2.52111
2746 1 0 18.7183 1.26055
2747 1 1.26055 20.501 2.52111
2748 1 0 18.7183 3.78166
2749 1 12.6055 18.7183 -3.78166
2750 1 11.345 19.6096 -3.78166
2751 1 8.82388 19.6096 -3.78166
2752 1 10.0844 17.8269 -2.52111
2753 1 10.0844 18.7183 -3.78166
2754 1 11.345 20.501 -2.52111
2755 1 8.82388 20.501 -2.52111
2756 1 10.0844 18.7183 -1.26055
2757 1 7.56333 17.8269 -2.52111
2758 1 8.82388 19.6096 -1.26055
2759 1 6.30277 19.6096 -1.26055
2760 1 7.56333 17.8269 0
2761 1 7.56333 18.7183 -1.26055
2762 1 8.82388 20.501 0
2763 1 6.30277 20.501 0
2764 1 7.56333 18.7183 1.26055
2765 1 5.04222 17.8269 0
2766 1 6.30277 19.6096 1.26055
2767 1 3.78166 19.6096 1.26055
2768 1 5.04222 17.8269 2.52111
2769 1 5.04222 18.7183 1.26055
2770 1 6.30277 20.501 2.52111
2771 1 3.78166 20.501 2.52111
2772 1 5.04222 18.7183 3.78166
2773 1 2.52111 17.8269 2.52111
2774 1 3.78166 19.6096 3.78166
2775 1 1.26055 19.6096 3.78166
2776 1 2.52111 17.8269 5.04222
2777 1 2.52111 18.7183 3.78166
2778 1 3.78166 20.501 5.04222
2779 1 1.26055 20.501 5.04222
2780 1 2.52111 18.7183 6.30277
2781 1 0 17.8269 5.04222
2782 1 1.26055 19.6096 6.30277
2783 1 0 17.8269 7.56333
2784 1 0 18.7183 6.30277
2785 1 1.26055 20.501 7.56333
2786 1 0 18.7183 8.82388
2787 1 17.6478 18.7183 -3.78166
2788 1 16.3872 19.6096 -3.78166
2789 1 13.8661 19.6096 -3.78166
2790 1 15.1267 17.8269 -2.52111
2791 1 15.1267 18.7183 -3.78166
2792 1 16.3872 20.501 -2.52111
2793 1 13.8661 20.501 -2.52111
2794 1 15.1267 18.7183 -1.26055
2795 1 12.6055 17.8269 -2.52111
2796 1 13.8661 19.6096 -1.26055
2797 1 11.345 19.6096 -1.26055
2798 1 12.6055 17.8269 0
2799 1 12.6055 18.7183 -1.26055
2800 1 13.8661 20.501 0
2801 1 11.345 20.501 0
2802 1 12.6055 18.7183 1.26055
2803 1 10.0844 17.8269 0
2804 1 11.345 19.6096 1.26055
2805 1 8.82388 19.6096 1.26055
2806 1 10.0844 17.8269 2.52111
2807 1 10.0844 18.7183 1.26055
2808 1 11.345 20.501 2.52111
2809 1 8.82388 20.501 2.52111
2810 1 10.0844 18.7183 3.78166
2811 1 7.56333 17.8269 2.52111
2812 1 8.82388 19.6096 3.78166
2813 1 6.30277 19.6096 3.78166
2814 1 7.56333 17.8269 5.04222
2815 1 7.56333 18.7183 3.78166
2816 1 8.82388 20.501 5.04222
2817 1 6.30277 20.501 5.04222
2818 1 7.56333 18.7183 6.30277
2819 1 5.04222 17.8269 5.04222
2820 1 6.30277 19.6096 6.30277
2821 1 3.78166 19.6096 6.30277
2822 1 5.04222 17.8269 7.56333
2823 1 5.04222 18.7183 6.30277
2824 1 6.30277 20.501 7.56333
2825 1 3.78166 20.501 7.56333
2826 1 5.04222 18.7183 8.82388
2827 1 2.52111 17.8269 7.56333
2828 1 3.78166 19.6096 8.82388
2829 1 1.26055 19.6096 8.82388
2830 1 2.52111 17.8269 10.0844
2831 1 2.52111 18.7183 8.82388
2832 1 3.78166 20.501 10.0844
2833 1 1.26055 20.501 10.0844
2834 1 2.52111 18.7183 11.345
2835 1 0 17.8269 10.0844
2836 1 1.26055 19.6096 11.345
2837 1 0 17.8269 12.6055
2838 1 0 18.7183 11.345
2839 1 1.26055 20.501 12.6055
2840 1 0 18.7183 13.8661
2841 1 18.9083 19.6096 -3.78166
2842 1 18.9083 20.501 -2.52111
2843 1 17.6478 17.8269 -2.52111
2844 1 18.9083 19.6096 -1.26055
2845 1 16.3872 19.6096 -1.26055
2846 1 17.6478 17.8269 0
2847 1 17.6478 18.7183 -1.26055
2848 1 18.9083 20.501 0
2849 1 16.3872 20.501 0
2850 1 17.6478 18.7183 1.26055
2851 1 15.1267 17.8269 0
2852 1 16.3872 19.6096 1.26055
2853 1 13.8661 19.6096 1.26055
2854 1 15.1267 17.8269 2.52111
2855 1 15.1267 18.7183 1.26055
2856 1 16.3872 20.501 2.52111
2857 1 13.8661 20.501 2.52111
2858 1 15.1267 18.7183 3.78166
2859 1 12.6055 17.8269 2.52111
2860 1 13.8661 19.6096 3.78166
2861 1 11.345 19.6096 3.78166
2862 1 12.6055 17.8269 5.04222
2863 1 12.6055 18.7183 3.78166
2864 1 13.8661 20.501 5.04222
2865 1 11.345 20.501 5.04222
2866 1 12.6055 18.7183 6.30277
2867 1 10.0844 17.8269 5.04222
2868 1 11.345 19.6096 6.30277
2869 1 8.82388 19.6096 6.30277
2870 1 10.0844 17.8269 7.56333
2871 1 10.0844 18.7183 6.30277
2872 1 11.345 20.501 7.56333
2873 1 8.82388 20.501 7.56333
2874 1 10.0844 18.7183 8.82388
2875 1 7.56333 17.8269 7.56333
2876 1 8.82388 19.6096 8.82388
2877 1 6.30277 19.6096 8.82388
2878 1 7.56333 17.8269 10.0844
2879 1 7.56333 18.7183 8.82388
2880 1 8.82388 20.501 10.0844
2881 1 6.30277 20.501 10.0844
2882 1 7.56333 18.7183 11.345
2883 1 5.04222 17.8269 10.0844
2884 1 6.30277 19.6096 11.345
2885 1 3.78166 19.6096 11.345
2886 1 5.04222 17.8269 12.6055
2887 1 5.04222 18.7183 11.345
2888 1 6.30277 20.501 12.6055
2889 1 3.78166 20.501 12.6055
2890 1 5.04222 18.7183 13.8661
2891 1 2.52111 17.8269 12.6055
2892 1 3.78166 19.6096 13.8661
2893 1 1.26055 19.6096 13.8661
2894 1 2.52111 17.8269 15.1267
2895 1 2.52111 18.7183 13.8661
2896 1 3.78166 20.501 15.1267
2897 1 1.26055 20.501 15.1267
2898 1 2.52111 18.7183 16.3872
2899 1 0 17.8269 15.1267
2900 1 1.26055 19.6096 16.3872
2901 1 0 17.8269 17.6478
2902 1 0 18.7183 16.3872
2903 1 1.26055 20.501 17.6478
2904 1 0 18.7183 18.9083
2905 1 18.9083 19.6096 1.26055
2906 1 18.9083 20.501 2.52111
2907 1 17.6478 17.8269 2.52111
2908 1 18.9083 19.6096 3.78166
2909 1 16.3872 19.6096 3.78166
2910 1 17.6478 17.8269 5.04222
2911 1 17.6478 18.7183 3.78166
2912 1 18.9083 20.501 5.04222
2913 1 16.3872 20.501 5.04222
2914 1 17.6478 18.7183 6.30277
2915 1 15.1267 17.8269 5.04222
2916 1 16.3872 19.6096 6.30277
2917 1 13.8661 19.6096 6.30277
2918 1 15.1267 17.8269 7.56333
2919 1 15.1267 18.7183 6.30277
2920 1 16.3872 20.501 7.56333
2921 1 13.8661 20.501 7.56333
2922 1 15.1267 18.7183 8.82388
2923 1 12.6055 17.8269 7.56333
2924 1 13.8661 19.6096 8.82388
2925 1 11.345 19.6096 8.82388
2926 1 12.6055 17.8269 10.0844
2927 1 12.6055 18.7183 8.82388
2928 1 13.8661 20.501 10.0844
2929 1 11.345 20.501 10.0844
2930 1 12.6055 18.7183 11.345
2931 1 10.0844 17.8269 10.0844
2932 1 11.345 19.6096 11.345
2933 1 8.82388 19.6096 11.345
2934 1 10.0844 17.8269 12.6055
2935 1 10.0844 18.7183 11.345
2936 1 11.345 20.501 12.6055
2937 1 8.82388 20.501 12.6055
2938 1 10.0844 18.7183 13.8661
2939 1 7.56333 17.8269 12.6055
2940 1 8.82388 19.6096 13.8661
2941 1 6.30277 19.6096 13.8661
2942 1 7.56333 17.8269 15.1267
2943 1 7.56333 18.7183 13.8661
2944 1 8.82388 20.501 15.1267
2945 1 6.30277 20.501 15.1267
2946 1 7.56333 18.7183 16.3872
2947 1 5.04222 17.8269 15.1267
2948 1 6.30277 19.6096 16.3872
2949 1 3.78166 19.6096 16.3872
2950 1 5.04222 17.8269 17.6478
2951 1 5.04222 18.7183 16.3872
2952 1 6.30277 20.501 17.6478
2953 1 3.78166 20.501 17.6478
2954 1 5.04222 18.7183 18.9083
2955 1 2.52111 17.8269 17.6478
2956 1 3.78166 19.6096 18.9083
2957 1 1.26055 19.6096 18.9083
2958 1 2.52111 17.8269 20.1689
2959 1 2.52111 18.7183 18.9083
2960 1 3.78166 20.501 20.1689
2961 1 1.26055 20.501 20.1689
2962 1 2.52111 18.7183 21.4294
2963 1 0 17.8269 20.1689
2964 1 1.26055 19.6096 21.4294
2965 1 0 17.8269 22.69
2966 1 0 18.7183 21.4294
2967 1 1.26055 20.501 22.69
2968 1 0 18.7183 23.9505
2969 1 18.9083 19.6096 6.30277
2970 1 18.9083 20.501 7.56333
2971 1 17.6478 17.8269 7.56333
2972 1 18.9083 19.6096 8.82388
2973 1 16.3872 19.6096 8.82388
2974 1 17.6478 17.8269 10.0844
2975 1 17.6478 18.7183 8.82388
2976 1 18.9083 20.501 10.0844
2977 1 16.3872 20.501 10.0844
2978 1 17.6478 18.7183 11.345
2979 1 15.1267 17.8269 10.0844
2980 1 16.3872 19.6096 11.345
2981 1 13.8661 19.6096 11.345
2982 1 15.1267 17.8269 12.6055
2983 1 15.1267 18.7183 11.345
2984 1 16.3872 20.501 12.6055
2985 1 13.8661 20.501 12.6055
2986 1 15.1267 18.7183 13.8661
2987 1 12.6055 17.8269 12.6055
2988 1 13.8661 19.6096 13.8661
2989 1 11.345 19.6096 13.8661
2990 1 12.6055 17.8269 15.1267
2991 1 12.6055 18.7183 13.8661
2992 1 13.8661 20.501 15.1267
2993 1 11.345 20.501 15.1267
2994 1 12.6055 18.7183 16.3872
2995 1 10.0844 17.8269 15.1267
2996 1 11.345 19.6096 16.3872
2997 1 8.82388 19.6096 16.3872
2998 1 10.0844 17.8269 17.6478
2999 1 10.0844 18.7183 16.3872
3000 1 11.345 20.501 17.6478
3001 1 8.82388 20.501 17.6478
3002 1 10.0844 18.7183 18.9083
3003 1 7.56333 17.8269 17.6478
3004 1 8.82388 19.6096 18.9083
3005 1 6.30277 19.6096 18.9083
3006 1 7.56333 17.8269 20.1689
3007 1 7.56333 18.7183 18.9083
3008 1 8.82388 20.501 20.1689
3009 1 6.30277 20.501 20.1689
3010 1 7.56333 18.7183 21.4294
3011 1 5.04222 17.8269 20.1689
3012 1 6.30277 19.6096 21.4294
3013 1 3.78166 19.6096 21.4294
3014 1 5.04222 17.8269 22.69
3015 1 5.04222 18.7183 21.4294
3016 1 6.30277 20.501 22.69
3017 1 3.78166 20.501 22.69
3018 1 5.04222 18.7183 23.9505
3019 1 2.52111 17.8269 22.69
3020 1 3.78166 19.6096 23.9505
3021 1 1.26055 19.6096 23.9505
3022 1 2.52111 17.8269 25.2111
3023 1 2.52111 18.7183 23.9505
3024 1 3.78166 20.501 25.2111
3025 1 1.26055 20.501 25.2111
3026 1 2.52111 18.7183 26.4716
3027 1 0 17.8269 25.2111
3028 1 1.26055 19.6096 26.4716
3029 1 0 17.8269 27.7322
3030 1 0 18.7183 26.4716
3031 1 1.26055 20.501 27.7322
3032 1 0 18.7183 28.9928
3033 1 18.9083 19.6096 11.345
3034 1 18.9083 20.501 12.6055
3035 1 17.6478 17.8269 12.6055
3036 1 18.9083 19.6096 13.8661
3037 1 16.3872 19.6096 13.8661
3038 1 17.6478 17.8269 15.1267
3039 1 17.6478 18.7183 13.8661
3040 1 18.9083 20.501 15.1267
3041 1 16.3872 20.501 15.1267
3042 1 17.6478 18.7183 16.3872
3043 1 15.1267 17.8269 15.1267
3044 1 16.3872 19.6096 16.3872
3045 1 13.8661 19.6096 16.3872
3046 1 15.1267 17.8269 17.6478
3047 1 15.1267 18.7183 16.3872
3048 1 16.3872 20.501 17.6478
3049 1 13.8661 20.501 17.6478
3050 1 15.1267 18.7183 18.9083
3051 1 12.6055 17.8269 17.6478
3052 1 13.8661 19.6096 18.9083
3053 1 11.345 19.6096 18.9083
3054 1 12.6055 17.8269 20.1689
3055 1 12.6055 18.7183 18.9083
3056 1 13.8661 20.501 20.1689
3057 1 11.345 20.501 20.1689
3058 1 12.6055 18.7183 21.4294
3059 1 10.0844 17.8269 20.1689
3060 1 11.345 19.6096 21.4294
3061 1 8.82388 19.6096 21.4294
3062 1 10.0844 17.8269 22.69
3063 1 10.0844 18.7183 21.4294
3064 1 11.345 20.501 22.69
3065 1 8.82388 20.501 22.69
3066 1 10.0844 18.7183 23.9505
3067 1 7.56333 17.8269 22.69
3068 1 8.82388 19.6096 23.9505
3069 1 6.30277 19.6096 23.9505
3070 1 7.56333 17.8269 25.2111
3071 1 7.56333 18.7183 23.9505
3072 1 8.82388 20.501 25.2111
3073 1 6.30277 20.501 25.2111
3074 1 7.56333 18.7183 26.4716
3075 1 5.04222 17.8269 25.2111
3076 1 6.30277 19.6096 26.4716
3077 1 3.78166 19.6096 26.4716
3078 1 5.04222 17.8269 27.7322
3079 1 5.04222 18.7183 26.4716
3080 1 6.30277 20.501 27.7322
3081 1 3.78166 20.501 27.7322
3082 1 5.04222 18.7183 28.9928
3083 1 2.52111 17.8269 27.7322
3084 1 3.78166 19.6096 28.9928
3085 1 1.26055 19.6096 28.9928
3086 1 2.52111 17.8269 30.2533
3087 1 2.52111 18.7183 28.9928
3088 1 3.78166 20.501 30.2533
3089 1 1.26055 20.501 30.2533
3090 1 2.52111 18.7183 31.5139
3091 1 0 17.8269 30.2533
3092 1 1.26055 19.6096 31.5139
3093 1 0 17.8269 32.7744
3094 1 0 18.7183 31.5139
3095 1 1.26055 20.501 32.7744
3096 1 0 18.7183 34.035
3097 1 18.9083 19.6096 16.3872
3098 1 18.9083 20.501 17.6478
3099 1 17.6478 17.8269 17.6478
3100 1 18.9083 19.6096 18.9083
3101 1 16.3872 19.6096 18.9083
3102 1 17.6478 17.8269 20.1689
3103 1 17.6478 18.7183 18.9083
3104 1 18.9083 20.501 20.1689
3105 1 16.3872 20.501 20.1689
3106 1 17.6478 18.7183 21.4294
3107 1 15.1267 17.8269 20.1689
3108 1 16.3872 19.6096 21.4294
3109 1 13.8661 19.6096 21.4294
3110 1 15.1267 17.8269 22.69
3111 1 15.1267 18.7183 21.4294
3112 1 16.3872 20.501 22.69
3113 1 13.8661 20.501 22.69
3114 1 15.1267 18.7183 23.9505
3115 1 12.6055 17.8269 22.69
3116 1 13.8661 19.6096 23.9505
3117 1 11.345 19.6096 23.9505
3118 1 12.6055 17.8269 25.2111
3119 1 12.6055 18.7183 23.9505
3120 1 13.8661 20.501 25.2111
3121 1 11.345 20.501 25.2111
3122 1 12.6055 18.7183 26.4716
3123 1 10.0844 17.8269 25.2111
3124 1 11.345 19.6096 26.4716
3125 1 8.82388 19.6096 26.4716
3126 1 10.0844 17.8269 27.7322
3127 1 10.0844 18.7183 26.4716
3128 1 11.345 20.501 27.7322
3129 1 8.82388 20.501 27.7322
3130 1 10.0844 18.7183 28.9928
3131 1 7.56333 17.8269 27.7322
3132 1 8.82388 19.6096 28.9928
3133 1 6.30277 19.6096 28.9928
3134 1 7.56333 17.8269 30.2533
3135 1 7.56333 18.7183 28.9928
3136 1 8.82388 20.501 30.2533
3137 1 6.30277 20.501 30.2533
3138 1 7.56333 18.7183 31.5139
3139 1 5.04222 17.8269 30.2533
3140 1 6.30277 19.6096 31.5139
3141 1 3.78166 19.6096 31.5139
3142 1 5.04222 17.8269 32.7744
3143 1 5.04222 18.7183 31.5139
3144 1 6.30277 20.501 32.7744
3145 1 3.78166 20.501 32.7744
3146 1 5.04222 18.7183 34.035
3147 1 2.52111 17.8269 32.7744
3148 1 3.78166 19.6096 34.035
3149 1 1.26055 19.6096 34.035
3150 1 2.52111 17.8269 35.2955
3151 1 2.52111 18.7183 34.035
3152 1 3.78166 20.501 35.2955
3153 1 1.26055 20.501 35.2955
3154 1 2.52111 18.7183 36.5561
3155 1 0 17.8269 35.2955
3156 1 1.26055 19.6096 36.5561
3157 1 0 17.8269 37.8166
3158 1 0 18.7183 36.5561
3159 1 1.26055 20.501 37.8166
3160 1 18.9083 19.6096 21.4294
3161 1 18.9083 20.501 22.69
3162 1 17.6478 17.8269 22.69
3163 1 18.9083 19.6096 23.9505
3164 1 16.3872 19.6096 23.9505
3165 1 17.6478 17.8269 25.2111
3166 1 17.6478 18.7183 23.9505
3167 1 18.9083 20.501 25.2111
3168 1 16.3872 20.501 25.2111
3169 1 17.6478 18.7183 26.4716
3170 1 15.1267 17.8269 25.2111
3171 1 16.3872 19.6096 26.4716
3172 1 13.8661 19.6096 26.4716
3173 1 15.1267 17.8269 27.7322
3174 1 15.1267 18.7183 26.4716
3175 1 16.3872 20.501 27.7322
3176 1 13.8661 20.501 27.7322
3177 1 15.1267 18.7183 28.9928
3178 1 12.6055 17.8269 27.7322
3179 1 13.8661 19.6096 28.9928
3180 1 11.345 19.6096 28.9928
3181 1 12.6055 17.8269 30.2533
3182 1 12.6055 18.7183 28.9928
3183 1 13.8661 20.501 30.2533
3184 1 11.345 20.501 30.2533
3185 1 12.6055 18.7183 31.5139
3186 1 10.0844 17.8269 30.2533
3187 1 11.345 19.6096 31.5139
3188 1 8.82388 19.6096 31.5139
3189 1 10.0844 17.8269 32.7744
3190 1 10.0844 18.7183 31.5139
3191 1 11.345 20.501 32.7744
3192 1 8.82388 20.501 32.7744
3193 1 10.0844 18.7183 34.035
3194 1 7.56333 17.8269 32.7744
3195 1 8.82388 19.6096 34.035
3196 1 6.30277 19.6096 34.035
3197 1 7.56333 17.8269 35.2955
3198 1 7.56333 18.7183 34.035
3199 1 8.82388 20.501 35.2955
3200 1 6.30277 20.501 35.2955
3201 1 7.56333 18.7183 36.5561
3202 1 5.04222 17.8269 35.2955
3203 1 6.30277 19.6096 36.5561
3204 1 3.78166 19.6096 36.5561
3205 1 5.04222 17.8269 37.8166
3206 1 5.04222 18.7183 36.5561
3207 1 6.30277 20.501 37.8166
3208 1 3.78166 20.501 37.8166
3209 1 2.52111 17.8269 37.8166
3210 1 18.9083 19.6096 26.4716
3211 1 18.9083 20.501 27.7322
3212 1 17.6478 17.8269 27.7322
3213 1 18.9083 19.6096 28.9928
3214 1 16.3872 19.6096 28.9928
3215 1 17.6478 17.8269 30.2533
3216 1 17.6478 18.7183 28.9928
3217 1 18.9083 20.501 30.2533
3218 1 16.3872 20.501 30.2533
3219 1 17.6478 18.7183 31.5139
3220 1 15.1267 17.8269 30.2533
3221 1 16.3872 19.6096 31.5139
3222 1 13.8661 19.6096 31.5139
3223 1 15.1267 17.8269 32.7744
3224 1 15.1267 18.7183 31.5139
3225 1 16.3872 20.501 32.7744
3226 1 13.8661 20.501 32.7744
3227 1 15.1267 18.7183 34.035
3228 1 12.6055 17.8269 32.7744
3229 1 13.8661 19.6096 34.035
3230 1 11.345 19.6096 34.035
3231 1 12.6055 17.8269 35.2955
3232 1 12.6055 18.7183 34.035
3233 1 13.8661 20.501 35.2955
3234 1 11.345 20.501 35.2955
3235 1 12.6055 18.7183 36.5561
3236 1 10.0844 17.8269 35.2955
3237 1 11.345 19.6096 36.5561
3238 1 8.82388 19.6096 36.5561
3239 1 10.0844 17.8269 37.8166
3240 1 10.0844 18.7183 36.5561
3241 1 11.345 20.501 37.8166
3242 1 8.82388 20.501 37.8166
3243 1 7.56333 17.8269 37.8166
3244 1 18.9083 19.6096 31.5139
3245 1 18.9083 20.501 32.7744
3246 1 17.6478 17.8269 32.7744
3247 1 18.9083 19.6096 34.035
3248 1 16.3872 19.6096 34.035
3249 1 17.6478 17.8269 35.2955
3250 1 17.6478 18.7183 34.035
3251 1 18.9083 20.501 35.2955
3252 1 16.3872 20.501 35.2955
3253 1 17.6478 18.7183 36.5561
3254 1 15.1267 17.8269 35.2955
3255 1 16.3872 19.6096 36.5561
3256 1 13.8661 19.6096 36.5561
3257 1 15.1267 17.8269 37.8166
3258 1 15.1267 18.7183 36.5561
3259 1 16.3872 20.501 37.8166
3260 1 13.8661 20.501 37.8166
3261 1 12.6055 17.8269 37.8166
3262 1 18.9083 19.6096 36.5561
3263 1 18.9083 20.501 37.8166
3264 1 17.6478 17.8269 37.8166
