LAMMPS (23 Jun 2022)
KOKKOS mode is enabled (src/KOKKOS/kokkos.cpp:105)
  will use up to 1 GPU(s) per node
WARNING: When using a single thread, the Kokkos Serial backend (i.e. Makefile.kokkos_mpi_only) gives better performance than the OpenMP backend (src/KOKKOS/kokkos.cpp:217)
  using 1 OpenMP thread(s) per MPI task
package kokkos
# make_surf_110.lmp — build a C(110) diamond surface for visualization
#
# Standalone script for exploring the (110) surface structure.
# Produces:
#   110_0K.data   — minimized (0 K) surface
#   110_300K.data — thermalized (300 K) surface
#   110_0K.dump   — OVITO-friendly dump (0 K)
#   110_300K.dump — OVITO-friendly dump (300 K)
#
# Run:
#   lmp -in make_surf_110.lmp
#   # or on Della:
#   module load lammps/kokkos/gpu_della9_2022
#   srun lmp -k on g 1 -sf kk -in make_surf_110.lmp

package kokkos neigh/qeq full neigh half newton on
units       real
atom_style  charge
boundary    p p m

# ── Parameters ────────────────────────────────────────────────────────
variable    lat_a equal 3.5653871687699   # ReaxFF equilibrium diamond lattice constant (Å)
variable    T equal 300.0                 # thermalization temperature (K)

# Box size in lattice units — adjust these to explore different sizes
variable    x equal 4                     # [-110] direction
variable    y equal 6                     # [001] direction
variable    lat_top equal 5               # [110] direction (slab depth)
variable    z equal ${lat_top}+5          # total z height (slab + vacuum)
variable    z equal 5+5          

# ── Lattice ───────────────────────────────────────────────────────────
# Diamond (110): surface normal along [110]
#   x = [-1 1 0]  period = a/sqrt(2)  → spacing 1/sqrt(2)
#   y = [ 0 0 1]  period = a          → spacing 1
#   z = [ 1 1 0]  period = a/sqrt(2)  → spacing 1/sqrt(2)
lattice     diamond ${lat_a}             orient z 1 1 0             orient x -1 1 0             orient y 0 0 1             spacing $(2/sqrt(2)) 1 $(3/sqrt(2))             origin 0 0 0
lattice     diamond 3.5653871687699             orient z 1 1 0             orient x -1 1 0             orient y 0 0 1             spacing $(2/sqrt(2)) 1 $(3/sqrt(2))             origin 0 0 0
lattice     diamond 3.5653871687699             orient z 1 1 0             orient x -1 1 0             orient y 0 0 1             spacing 1.4142135623730949234 1 $(3/sqrt(2))             origin 0 0 0
lattice     diamond 3.5653871687699             orient z 1 1 0             orient x -1 1 0             orient y 0 0 1             spacing 1.4142135623730949234 1 2.1213203435596423851             origin 0 0 0
Lattice spacing in x,y,z = 5.0422189 3.5653872 7.5633283

variable    bottom equal -5/8   # start below z=0 to sit in a gap between layers

region      bbox block 0 ${x} 0 ${y} ${bottom} ${z} units lattice
region      bbox block 0 4 0 ${y} ${bottom} ${z} units lattice
region      bbox block 0 4 0 6 ${bottom} ${z} units lattice
region      bbox block 0 4 0 6 -0.625 ${z} units lattice
region      bbox block 0 4 0 6 -0.625 10 units lattice
create_box  3 bbox              # 3 types: C(1) H(2) O(3)
Created orthogonal box = (0 0 -4.7270802) to (20.168876 21.392323 75.633283)
  1 by 1 by 1 MPI processor grid

# ── Create slab ───────────────────────────────────────────────────────
region      lbox block -1e-6 ${x} -1e-6 ${y} ${bottom} ${lat_top} units lattice
region      lbox block -1e-6 4 -1e-6 ${y} ${bottom} ${lat_top} units lattice
region      lbox block -1e-6 4 -1e-6 6 ${bottom} ${lat_top} units lattice
region      lbox block -1e-6 4 -1e-6 6 -0.625 ${lat_top} units lattice
region      lbox block -1e-6 4 -1e-6 6 -0.625 5 units lattice
create_atoms 1 region lbox
Created 3264 atoms
  using lattice units in orthogonal box = (0 0 -4.7270802) to (20.168876 21.392323 75.633283)
  create_atoms CPU = 0.006 seconds

variable    sublat equal ${bottom}+1/2
variable    sublat equal -0.625+1/2
region      anchor block INF INF INF INF ${bottom} ${sublat} units lattice
region      anchor block INF INF INF INF -0.625 ${sublat} units lattice
region      anchor block INF INF INF INF -0.625 -0.125 units lattice

set group all charge 0.0
Setting atom values ...
  3264 settings made for charge

# ── Groups ────────────────────────────────────────────────────────────
group       anchor region anchor
288 atoms in group anchor
group       insert empty
0 atoms in group insert
group       mobile subtract all anchor
2976 atoms in group mobile
group       carbon type 1
3264 atoms in group carbon

variable    n_lat_0 equal count(carbon)
print       'N_LAT_0 ${n_lat_0}'
N_LAT_0 3264
print       'Box x: ${x}  y: ${y}  lat_top: ${lat_top}'
Box x: 4  y: 6  lat_top: 5

# ── Masses ────────────────────────────────────────────────────────────
mass        1 12.011      # C
mass        2 1.00784     # H
mass        3 16.0        # O

# ── Potential ─────────────────────────────────────────────────────────
pair_style  reaxff NULL
pair_coeff  * * ffield.reax C H O
Reading potential file ffield.reax with DATE: 2011-02-18
WARNING: Changed valency_val to valency_boc for X (src/REAXFF/reaxff_ffield.cpp:296)
fix         reax_qeq all qeq/reaxff 1 0.0 6.0 1e-6 reaxff

# ── Trim box and remove overlaps ─────────────────────────────────────
change_box  all x final 0 ${x} y final 0 ${y} z final ${bottom} ${z}
change_box  all x final 0 4 y final 0 ${y} z final ${bottom} ${z}
change_box  all x final 0 4 y final 0 6 z final ${bottom} ${z}
change_box  all x final 0 4 y final 0 6 z final -0.625 ${z}
change_box  all x final 0 4 y final 0 6 z final -0.625 10
Changing box ...
  orthogonal box = (0 0 -4.7270802) to (20.168876 21.392323 75.633283)
  orthogonal box = (0 0 -4.7270802) to (20.168876 21.392323 75.633283)
  orthogonal box = (0 0 -4.7270802) to (20.168876 21.392323 75.633283)
delete_atoms overlap $(sqrt(3)/8) all all
delete_atoms overlap 0.21650635094610964915 all all
System init for delete_atoms ...
Neighbor list info ...
  update every 1 steps, delay 10 steps, check yes
  max neighbors/atom: 2000, page size: 100000
  master list distance cutoff = 12
  ghost atom cutoff = 12
  binsize = 12, bins = 2 2 7
  3 neighbor lists, perpetual/occasional/extra = 2 1 0
  (1) command delete_atoms, occasional
      attributes: full, newton on
      pair build: full/bin/atomonly
      stencil: full/bin/3d
      bin: standard
  (2) pair reaxff/kk, perpetual
      attributes: half, newton off, ghost, kokkos_device
      pair build: half/bin/ghost/kk/device
      stencil: full/ghost/bin/3d
      bin: kk/device
  (3) fix qeq/reaxff/kk, perpetual
      attributes: full, newton off, kokkos_device
      pair build: full/bin/kk/device
      stencil: full/bin/3d
      bin: kk/device
WARNING: Fixes cannot yet send exchange data in Kokkos communication, switching to classic exchange/border communication (src/KOKKOS/comm_kokkos.cpp:581)
Deleted 0 atoms, new total = 3264

# ── Minimize (0 K) ───────────────────────────────────────────────────
minimize    1.0e-5 1.0e-6 1000 10000

CITE-CITE-CITE-CITE-CITE-CITE-CITE-CITE-CITE-CITE-CITE-CITE-CITE

Your simulation uses code contributions which should be cited:

- pair reaxff command:

@Article{Aktulga12,
 author = {H. M. Aktulga, J. C. Fogarty, S. A. Pandit, A. Y. Grama},
 title = {Parallel reactive molecular dynamics: Numerical methods and algorithmic techniques},
 journal = {Parallel Computing},
 year =    2012,
 volume =  38,
 pages =   {245--259}
}

- fix qeq/reaxff command:

@Article{Aktulga12,
 author = {H. M. Aktulga, J. C. Fogarty, S. A. Pandit, A. Y. Grama},
 title = {Parallel reactive molecular dynamics: Numerical methods and algorithmic techniques},
 journal = {Parallel Computing},
 year =    2012,
 volume =  38,
 pages =   {245--259}
}

CITE-CITE-CITE-CITE-CITE-CITE-CITE-CITE-CITE-CITE-CITE-CITE-CITE

WARNING: Using 'neigh_modify every 1 delay 0 check yes' setting during minimization (src/min.cpp:187)
Neighbor list info ...
  update every 1 steps, delay 0 steps, check yes
  max neighbors/atom: 2000, page size: 100000
  master list distance cutoff = 12
  ghost atom cutoff = 12
  binsize = 12, bins = 2 2 7
  2 neighbor lists, perpetual/occasional/extra = 2 0 0
  (1) pair reaxff/kk, perpetual
      attributes: half, newton off, ghost, kokkos_device
      pair build: half/bin/ghost/kk/device
      stencil: full/ghost/bin/3d
      bin: kk/device
  (2) fix qeq/reaxff/kk, perpetual
      attributes: full, newton off, kokkos_device
      pair build: full/bin/kk/device
      stencil: full/bin/3d
      bin: kk/device
Per MPI rank memory allocation (min/avg/max) = 119.9 | 119.9 | 119.9 Mbytes
   Step          Temp          E_pair         E_mol          TotEng         Press          Volume    
         0   0             -592515.12      0             -592515.12      88419.653      34672.21     
         1   0             -592515.12      0             -592515.12      88419.653      34672.21     
Loop time of 1.29168 on 1 procs for 1 steps with 3264 atoms

99.4% CPU use with 1 MPI tasks x 1 OpenMP threads

Minimization stats:
  Stopping criterion = linesearch alpha is zero
  Energy initial, next-to-last, final = 
     -592515.120664742  -592515.120664742  -592515.120664534
  Force two-norm initial, final = 906.49921 906.49921
  Force max component initial, final = 62.091612 62.091612
  Final line search alpha, max atom move = 1.1718101e-14 7.2759576e-13
  Iterations, force evaluations = 1 74

MPI task timing breakdown:
Section |  min time  |  avg time  |  max time  |%varavg| %total
---------------------------------------------------------------
Pair    | 0.95898    | 0.95898    | 0.95898    |   0.0 | 74.24
Neigh   | 0          | 0          | 0          |   0.0 |  0.00
Comm    | 0.0012218  | 0.0012218  | 0.0012218  |   0.0 |  0.09
Output  | 0          | 0          | 0          |   0.0 |  0.00
Modify  | 0.29837    | 0.29837    | 0.29837    |   0.0 | 23.10
Other   |            | 0.03311    |            |       |  2.56

Nlocal:           3264 ave        3264 max        3264 min
Histogram: 1 0 0 0 0 0 0 0 0 0
Nghost:          11900 ave       11900 max       11900 min
Histogram: 1 0 0 0 0 0 0 0 0 0
Neighs:    2.62943e+06 ave 2.62943e+06 max 2.62943e+06 min
Histogram: 1 0 0 0 0 0 0 0 0 0
FullNghs:  3.76819e+06 ave 3.76819e+06 max 3.76819e+06 min
Histogram: 1 0 0 0 0 0 0 0 0 0

Total # of neighbors = 3768192
Ave neighs/atom = 1154.4706
Neighbor list builds = 0
Dangerous builds = 0
reset_timestep 0 time 0.0

print       '=== 0 K surface ==='
=== 0 K surface ===
print       'Total atoms:  $(count(all))'
Total atoms:  3264
print       'Carbon atoms: $(count(carbon))'
Carbon atoms: 3264

write_data  110_0K.data nofix nocoeff
System init for write_data ...
write_dump  all custom 110_0K.dump id type x y z modify sort id

# ── Thermalize (300 K) ───────────────────────────────────────────────
thermo          1000
thermo_style    custom step time temp pe
compute         mtemp mobile temp
compute_modify  mtemp dynamic/dof yes
thermo_modify   temp mtemp
WARNING: Temperature for thermo pressure is not for group all (src/thermo.cpp:520)
thermo_modify   lost warn flush yes

velocity    mobile create ${T} 459087
velocity    mobile create 300 459087
fix         1 mobile nvt temp $T $T $(100*dt)
fix         1 mobile nvt temp 300 $T $(100*dt)
fix         1 mobile nvt temp 300 300 $(100*dt)
fix         1 mobile nvt temp 300 300 100
timestep    1
run         10000
Per MPI rank memory allocation (min/avg/max) = 118.8 | 118.8 | 118.8 Mbytes
   Step          Time           Temp          PotEng    
         0   0              300           -592515.12    
      1000   1000           325.47764     -586588.4     
      2000   2000           325.11052     -587097.25    
      3000   3000           319.71035     -586658.01    
      4000   4000           333.79718     -587006.42    
      5000   5000           326.23332     -586835.3     
      6000   6000           338.55502     -586916.37    
      7000   7000           328.85328     -586862.9     
      8000   8000           331.42849     -586887.09    
      9000   9000           334.08219     -586975.5     
     10000   10000          330.25471     -586765.59    
Loop time of 146.139 on 1 procs for 10000 steps with 3264 atoms

Performance: 5.912 ns/day, 4.059 hours/ns, 68.428 timesteps/s
99.6% CPU use with 1 MPI tasks x 1 OpenMP threads

MPI task timing breakdown:
Section |  min time  |  avg time  |  max time  |%varavg| %total
---------------------------------------------------------------
Pair    | 108.92     | 108.92     | 108.92     |   0.0 | 74.53
Neigh   | 0          | 0          | 0          |   0.0 |  0.00
Comm    | 4.0309     | 4.0309     | 4.0309     |   0.0 |  2.76
Output  | 0.0023372  | 0.0023372  | 0.0023372  |   0.0 |  0.00
Modify  | 32.868     | 32.868     | 32.868     |   0.0 | 22.49
Other   |            | 0.3164     |            |       |  0.22

Nlocal:           3264 ave        3264 max        3264 min
Histogram: 1 0 0 0 0 0 0 0 0 0
Nghost:          11900 ave       11900 max       11900 min
Histogram: 1 0 0 0 0 0 0 0 0 0
Neighs:    2.62943e+06 ave 2.62943e+06 max 2.62943e+06 min
Histogram: 1 0 0 0 0 0 0 0 0 0
FullNghs:  3.76819e+06 ave 3.76819e+06 max 3.76819e+06 min
Histogram: 1 0 0 0 0 0 0 0 0 0

Total # of neighbors = 3768192
Ave neighs/atom = 1154.4706
Neighbor list builds = 0
Dangerous builds = 0
unfix       1
reset_timestep 0 time 0.0

print       '=== ${T} K surface ==='
=== 300 K surface ===
print       'Total atoms:  $(count(all))'
Total atoms:  3264
print       'Carbon atoms: $(count(carbon))'
Carbon atoms: 3264

write_data  110_300K.data nofix nocoeff
System init for write_data ...
write_dump  all custom 110_300K.dump id type x y z vx vy vz modify sort id

print       'Done. Open 110_0K.dump or 110_300K.dump in OVITO.'
Done. Open 110_0K.dump or 110_300K.dump in OVITO.
Total wall time: 0:02:28
