# make_surf_110.lmp — build a C(110) diamond surface for visualization
#
# Standalone script for exploring the (110) surface structure.
# Produces:
#   110_0K.data   — minimized (0 K) surface
#   110_300K.data — thermalized (300 K) surface
#   110_0K.dump   — OVITO-friendly dump (0 K)
#   110_300K.dump — OVITO-friendly dump (300 K)
#
# Run:
#   lmp -in make_surf_110.lmp
#   # or on Della:
#   module load lammps/kokkos/gpu_della9_2022
#   srun lmp -k on g 1 -sf kk -in make_surf_110.lmp

package kokkos neigh/qeq full neigh half newton on
units       real
atom_style  charge
boundary    p p m

# ── Parameters ────────────────────────────────────────────────────────
variable    lat_a equal 3.5653871687699   # ReaxFF equilibrium diamond lattice constant (Å)
variable    T equal 300.0                 # thermalization temperature (K)

# Box size in lattice units — adjust these to explore different sizes
variable    x equal 4                     # [-110] direction
variable    y equal 6                     # [001] direction
variable    lat_top equal 5               # [110] direction (slab depth)
variable    z equal ${lat_top}+5          # total z height (slab + vacuum)

# ── Lattice ───────────────────────────────────────────────────────────
# Diamond (110): surface normal along [110]
#   x = [-1 1 0]  period = a/sqrt(2)  → spacing 1/sqrt(2)
#   y = [ 0 0 1]  period = a          → spacing 1
#   z = [ 1 1 0]  period = a/sqrt(2)  → spacing 1/sqrt(2)
lattice     diamond ${lat_a} &
            orient z 1 1 0 &
            orient x -1 1 0 &
            orient y 0 0 1 &
            spacing $(2/sqrt(2)) 1 $(3/sqrt(2)) &
            origin 0 0 0

variable    bottom equal -5/8   # start below z=0 to sit in a gap between layers

region      bbox block 0 ${x} 0 ${y} ${bottom} ${z} units lattice
create_box  3 bbox              # 3 types: C(1) H(2) O(3)

# ── Create slab ───────────────────────────────────────────────────────
region      lbox block -1e-6 ${x} -1e-6 ${y} ${bottom} ${lat_top} units lattice
create_atoms 1 region lbox

variable    sublat equal ${bottom}+1/2
region      anchor block INF INF INF INF ${bottom} ${sublat} units lattice

set group all charge 0.0

# ── Groups ────────────────────────────────────────────────────────────
group       anchor region anchor
group       insert empty
group       mobile subtract all anchor
group       carbon type 1

variable    n_lat_0 equal count(carbon)
print       'N_LAT_0 ${n_lat_0}'
print       'Box x: ${x}  y: ${y}  lat_top: ${lat_top}'

# ── Masses ────────────────────────────────────────────────────────────
mass        1 12.011      # C
mass        2 1.00784     # H
mass        3 16.0        # O

# ── Potential ─────────────────────────────────────────────────────────
pair_style  reaxff NULL
pair_coeff  * * ffield.reax C H O
fix         reax_qeq all qeq/reaxff 1 0.0 6.0 1e-6 reaxff

# ── Trim box and remove overlaps ─────────────────────────────────────
change_box  all x final 0 ${x} y final 0 ${y} z final ${bottom} ${z}
delete_atoms overlap $(sqrt(3)/8) all all

# ── Minimize (0 K) ───────────────────────────────────────────────────
minimize    1.0e-5 1.0e-6 1000 10000
reset_timestep 0 time 0.0

print       '=== 0 K surface ==='
print       'Total atoms:  $(count(all))'
print       'Carbon atoms: $(count(carbon))'

write_data  110_0K.data nofix nocoeff
write_dump  all custom 110_0K.dump id type x y z modify sort id

# ── Thermalize (300 K) ───────────────────────────────────────────────
thermo          1000
thermo_style    custom step time temp pe
compute         mtemp mobile temp
compute_modify  mtemp dynamic/dof yes
thermo_modify   temp mtemp
thermo_modify   lost warn flush yes

velocity    mobile create ${T} 459087
fix         1 mobile nvt temp $T $T $(100*dt)
timestep    1
run         10000
unfix       1
reset_timestep 0 time 0.0

print       '=== ${T} K surface ==='
print       'Total atoms:  $(count(all))'
print       'Carbon atoms: $(count(carbon))'

write_data  110_300K.data nofix nocoeff
write_dump  all custom 110_300K.dump id type x y z vx vy vz modify sort id

print       'Done. Open 110_0K.dump or 110_300K.dump in OVITO.'
