ITEM: TIMESTEP
0
ITEM: NUMBER OF ATOMS
2160
ITEM: BOX BOUNDS pp pp mm
0.0000000000000000e+00 2.2689985001334318e+01
0.0000000000000000e+00 2.5084722249405871e+01
-3.3593896224878699e+00 4.3000187167844736e+01
ITEM: ATOMS id type x y z vx vy vz
1 1 3.78166 4.18079 -2.95626 0 0 0
2 1 1.26055 4.18079 -2.95626 0 0 0
3 1 1.26055 2.6605 -3.22501 0 0 0
4 1 1.26055 1.90036 -1.88126 0 0 0
5 1 0 25.0847 -2.95626 0 0 0
6 1 8.82388 4.18079 -2.95626 0 0 0
7 1 6.30277 4.18079 -2.95626 0 0 0
8 1 6.30277 2.6605 -3.22501 0 0 0
9 1 3.78166 2.6605 -3.22501 0 0 0
10 1 6.30277 1.90036 -1.88126 0 0 0
11 1 3.78166 1.90036 -1.88126 0 0 0
12 1 5.04222 25.0847 -2.95626 0 0 0
13 1 3.78166 0.380072 -2.15001 0 0 0
14 1 1.26055 0.380072 -2.15001 0 0 0
15 1 2.52111 25.0847 -2.95626 0 0 0
16 1 13.8661 4.18079 -2.95626 0 0 0
17 1 11.345 4.18079 -2.95626 0 0 0
18 1 11.345 2.6605 -3.22501 0 0 0
19 1 8.82388 2.6605 -3.22501 0 0 0
20 1 11.345 1.90036 -1.88126 0 0 0
21 1 8.82388 1.90036 -1.88126 0 0 0
22 1 10.0844 25.0847 -2.95626 0 0 0
23 1 8.82388 0.380072 -2.15001 0 0 0
24 1 6.30277 0.380072 -2.15001 0 0 0
25 1 7.56333 25.0847 -2.95626 0 0 0
26 1 18.9083 4.18079 -2.95626 0 0 0
27 1 16.3872 4.18079 -2.95626 0 0 0
28 1 16.3872 2.6605 -3.22501 0 0 0
29 1 13.8661 2.6605 -3.22501 0 0 0
30 1 16.3872 1.90036 -1.88126 0 0 0
31 1 13.8661 1.90036 -1.88126 0 0 0
32 1 15.1267 25.0847 -2.95626 0 0 0
33 1 13.8661 0.380072 -2.15001 0 0 0
34 1 11.345 0.380072 -2.15001 0 0 0
35 1 12.6055 25.0847 -2.95626 0 0 0
36 1 21.4294 4.18079 -2.95626 0 0 0
37 1 21.4294 2.6605 -3.22501 0 0 0
38 1 18.9083 2.6605 -3.22501 0 0 0
39 1 21.4294 1.90036 -1.88126 0 0 0
40 1 18.9083 1.90036 -1.88126 0 0 0
41 1 20.1689 25.0847 -2.95626 0 0 0
42 1 18.9083 0.380072 -2.15001 0 0 0
43 1 16.3872 0.380072 -2.15001 0 0 0
44 1 17.6478 25.0847 -2.95626 0 0 0
45 1 21.4294 0.380072 -2.15001 0 0 0
46 1 1.26055 12.5424 -2.95626 0 0 0
47 1 6.30277 12.5424 -2.95626 0 0 0
48 1 3.78166 12.5424 -2.95626 0 0 0
49 1 3.78166 11.0221 -3.22501 0 0 0
50 1 1.26055 11.0221 -3.22501 0 0 0
51 1 3.78166 10.2619 -1.88126 0 0 0
52 1 1.26055 10.2619 -1.88126 0 0 0
53 1 2.52111 8.36157 -2.95626 0 0 0
54 1 1.26055 8.74165 -2.15001 0 0 0
55 1 5.53507e-25 6.84129 -3.22501 0 0 0
56 1 0 8.36157 -2.95626 0 0 0
57 1 1.26055 7.9815 -0.806254 0 0 0
58 1 0 6.08114 -1.88126 0 0 0
59 1 11.345 12.5424 -2.95626 0 0 0
60 1 8.82388 12.5424 -2.95626 0 0 0
61 1 8.82388 11.0221 -3.22501 0 0 0
62 1 6.30277 11.0221 -3.22501 0 0 0
63 1 8.82388 10.2619 -1.88126 0 0 0
64 1 6.30277 10.2619 -1.88126 0 0 0
65 1 7.56333 8.36157 -2.95626 0 0 0
66 1 6.30277 8.74165 -2.15001 0 0 0
67 1 3.78166 8.74165 -2.15001 0 0 0
68 1 5.04222 6.84129 -3.22501 0 0 0
69 1 5.04222 8.36157 -2.95626 0 0 0
70 1 6.30277 7.9815 -0.806254 0 0 0
71 1 3.78166 7.9815 -0.806254 0 0 0
72 1 5.04222 6.08114 -1.88126 0 0 0
73 1 2.52111 6.84129 -3.22501 0 0 0
74 1 3.78166 6.46122 -1.075 0 0 0
75 1 1.26055 6.46122 -1.075 0 0 0
76 1 2.52111 4.56086 -2.15001 0 0 0
77 1 2.52111 6.08114 -1.88126 0 0 0
78 1 3.75123 5.70182 0.241055 -0.00638189 -0.000289568 0.00236789
79 1 1.21113 5.66459 0.261733 -0.00295177 0.000336637 0.00364743
80 1 2.52111 3.80072 -0.806254 0 0 0
81 1 0 4.56086 -2.15001 0 0 0
82 1 1.28266 4.1518 0.0460279 -0.00748742 -0.00237935 -0.00323577
83 1 0 2.28043 -1.075 0 0 0
84 1 0 3.80072 -0.806254 0 0 0
85 1 1.26633 3.42397 1.35646 -0.00417159 0.00227028 0.00207014
86 1 0.0185862 1.49752 0.262569 0.0010189 0.00344927 -0.00476593
87 1 16.3872 12.5424 -2.95626 0 0 0
88 1 13.8661 12.5424 -2.95626 0 0 0
89 1 13.8661 11.0221 -3.22501 0 0 0
90 1 11.345 11.0221 -3.22501 0 0 0
91 1 13.8661 10.2619 -1.88126 0 0 0
92 1 11.345 10.2619 -1.88126 0 0 0
93 1 12.6055 8.36157 -2.95626 0 0 0
94 1 11.345 8.74165 -2.15001 0 0 0
95 1 8.82388 8.74165 -2.15001 0 0 0
96 1 10.0844 6.84129 -3.22501 0 0 0
97 1 10.0844 8.36157 -2.95626 0 0 0
98 1 11.345 7.9815 -0.806254 0 0 0
99 1 8.82388 7.9815 -0.806254 0 0 0
100 1 10.0844 6.08114 -1.88126 0 0 0
101 1 7.56333 6.84129 -3.22501 0 0 0
102 1 8.82388 6.46122 -1.075 0 0 0
103 1 6.30277 6.46122 -1.075 0 0 0
104 1 7.56333 4.56086 -2.15001 0 0 0
105 1 7.56333 6.08114 -1.88126 0 0 0
106 1 8.78159 5.71481 0.310532 0.00440017 -0.00494662 0.00243671
107 1 6.29578 5.69906 0.272541 -0.00476385 0.00607254 -0.00668634
108 1 7.56333 3.80072 -0.806254 0 0 0
109 1 5.04222 4.56086 -2.15001 0 0 0
110 1 6.29046 4.22741 0.021498 0.00746333 -0.00688388 0.0033148
111 1 3.78463 4.16028 0.00196395 0.00231104 -0.00968212 -0.00543154
112 1 5.04222 2.28043 -1.075 0 0 0
113 1 5.04222 3.80072 -0.806254 0 0 0
114 1 6.27665 3.42661 1.4396 -0.000620796 0.00108275 0.00184389
115 1 3.77165 3.466 1.38679 0.00031008 0.00110898 0.00299227
116 1 5.01153 1.50064 0.248276 -0.0103338 0.01133 0.0101667
117 1 2.52111 2.28043 -1.075 0 0 0
118 1 3.79292 1.92316 1.12587 0.005489 -0.000283044 0.00246923
119 1 1.28398 1.86751 1.13554 -0.00166442 0.00700412 0.00652338
120 1 2.52736 0.00228528 0.0145112 -0.000112429 0.00531201 -0.00450571
121 1 2.55144 1.5441 0.292662 0.00712949 0.00306113 0.0114813
122 1 3.77524 1.12404 2.43064 0.00346789 -0.00105592 -0.00308747
123 1 1.24943 1.10891 2.49325 0.00141445 -0.00314219 -0.00329993
124 1 0.0338713 25.0675 -0.0103811 -0.00861742 -0.00850447 0.00403399
125 1 21.4294 12.5424 -2.95626 0 0 0
126 1 18.9083 12.5424 -2.95626 0 0 0
127 1 18.9083 11.0221 -3.22501 0 0 0
128 1 16.3872 11.0221 -3.22501 0 0 0
129 1 18.9083 10.2619 -1.88126 0 0 0
130 1 16.3872 10.2619 -1.88126 0 0 0
131 1 17.6478 8.36157 -2.95626 0 0 0
132 1 16.3872 8.74165 -2.15001 0 0 0
133 1 13.8661 8.74165 -2.15001 0 0 0
134 1 15.1267 6.84129 -3.22501 0 0 0
135 1 15.1267 8.36157 -2.95626 0 0 0
136 1 16.3872 7.9815 -0.806254 0 0 0
137 1 13.8661 7.9815 -0.806254 0 0 0
138 1 15.1267 6.08114 -1.88126 0 0 0
139 1 12.6055 6.84129 -3.22501 0 0 0
140 1 13.8661 6.46122 -1.075 0 0 0
141 1 11.345 6.46122 -1.075 0 0 0
142 1 12.6055 4.56086 -2.15001 0 0 0
143 1 12.6055 6.08114 -1.88126 0 0 0
144 1 13.7951 5.74689 0.303327 -0.00526441 0.00576959 -0.000625472
145 1 11.3262 5.69926 0.281131 0.00382152 -0.00260413 -0.00263638
146 1 12.6055 3.80072 -0.806254 0 0 0
147 1 10.0844 4.56086 -2.15001 0 0 0
148 1 11.3799 4.17254 0.0442709 -0.0111808 0.00492084 0.00395873
149 1 8.80244 4.16235 0.0106759 0.00326004 0.00221759 -0.0109831
150 1 10.0844 2.28043 -1.075 0 0 0
151 1 10.0844 3.80072 -0.806254 0 0 0
152 1 11.3613 3.46403 1.39607 -0.00261168 -0.00146727 -0.00714311
153 1 8.82577 3.4235 1.37233 0.00297124 0.00154423 0.00683575
154 1 10.1311 1.51578 0.261411 -0.00271692 -0.0053483 0.00589931
155 1 7.56333 2.28043 -1.075 0 0 0
156 1 8.86421 1.91543 1.09659 0.00205871 -0.00664353 0.00231891
157 1 6.2954 1.84776 1.07102 0.00639604 -0.00680789 0.00440658
158 1 7.59362 25.0607 0.0317501 -0.000449108 -0.00335543 -0.0082326
159 1 7.60197 1.54731 0.292233 0.00106209 -0.00688985 0.00263051
160 1 8.81655 1.14994 2.4225 -0.00445032 0.000493486 -0.0012113
161 1 6.27129 1.12002 2.3775 -0.00189104 -0.00642018 -0.000747818
162 1 5.07804 25.0285 -0.0113022 0.00310053 -0.00130439 -0.00145552
163 1 21.4294 11.0221 -3.22501 0 0 0
164 1 21.4294 10.2619 -1.88126 0 0 0
165 1 21.4294 8.74165 -2.15001 0 0 0
166 1 18.9083 8.74165 -2.15001 0 0 0
167 1 20.1689 6.84129 -3.22501 0 0 0
168 1 20.1689 8.36157 -2.95626 0 0 0
169 1 21.4294 7.9815 -0.806254 0 0 0
170 1 18.9083 7.9815 -0.806254 0 0 0
171 1 20.1689 6.08114 -1.88126 0 0 0
172 1 17.6478 6.84129 -3.22501 0 0 0
173 1 18.9083 6.46122 -1.075 0 0 0
174 1 16.3872 6.46122 -1.075 0 0 0
175 1 17.6478 4.56086 -2.15001 0 0 0
176 1 17.6478 6.08114 -1.88126 0 0 0
177 1 18.897 5.69867 0.30813 -0.00612358 -0.00064476 0.000121309
178 1 16.3584 5.72917 0.26174 -0.00638482 0.00402552 0.00269089
179 1 17.6478 3.80072 -0.806254 0 0 0
180 1 15.1267 4.56086 -2.15001 0 0 0
181 1 16.3363 4.20455 0.0179206 0.00144205 -0.00367831 -0.00679257
182 1 13.8485 4.21876 -0.0215544 -0.00290469 -0.00818585 -0.000798545
183 1 15.1267 2.28043 -1.075 0 0 0
184 1 15.1267 3.80072 -0.806254 0 0 0
185 1 16.3495 3.40907 1.35063 0.0037749 0.00409694 -0.00256409
186 1 13.876 3.42157 1.34144 0.00254186 -0.00770427 -0.00450704
187 1 15.0498 1.53801 0.264521 -0.00276217 -0.00155646 0.0059764
188 1 12.6055 2.28043 -1.075 0 0 0
189 1 13.8306 1.8894 1.08634 -0.00586023 0.00344482 -0.00198791
190 1 11.3028 1.93 1.1073 0.00477932 0.00275784 -0.00630374
191 1 12.5801 25.0693 -0.0197897 -0.00361088 -0.00412461 0.00251977
192 1 12.5689 1.50224 0.26423 0.00368039 0.00516779 -0.00104138
193 1 13.8234 1.18776 2.44369 -0.00770763 -0.00598991 -0.00810312
194 1 11.3403 1.08647 2.46535 -0.000239606 0.000792895 -0.00135173
195 1 10.1322 25.0344 0.0469109 0.00923599 -0.00138938 0.00245515
196 1 21.4294 6.46122 -1.075 0 0 0
197 1 21.3927 5.72783 0.270489 0.00505441 -0.00754867 -0.000979934
198 1 20.1689 4.56086 -2.15001 0 0 0
199 1 21.4392 4.16021 0.00273146 -0.00673317 -0.00655388 0.00201541
200 1 18.8905 4.18544 0.00107674 -0.00902504 -0.00849577 0.0050956
201 1 20.1689 2.28043 -1.075 0 0 0
202 1 20.1689 3.80072 -0.806254 0 0 0
203 1 21.4403 3.39033 1.34079 -0.0124609 -0.00902984 -0.00538618
204 1 18.8808 3.40142 1.3455 0.00898693 -0.00251459 0.0061239
205 1 20.1341 1.52373 0.231129 0.00304508 -0.00585834 -0.00651841
206 1 17.6478 2.28043 -1.075 0 0 0
207 1 18.9186 1.88966 1.0358 -0.00485322 -0.00405769 0.0109065
208 1 16.2981 1.86666 1.06612 -0.00179131 0.00256158 0.00824406
209 1 17.6205 25.0604 -0.00714607 -0.00701501 0.00483716 -0.00587064
210 1 17.6635 1.52278 0.252561 0.00438801 -0.00736381 -0.00069784
211 1 18.9001 1.18121 2.36775 0.000187708 0.0093062 0.00350726
212 1 16.3427 1.11755 2.38753 0.000187552 0.00619157 0.00339824
213 1 15.1636 25.0475 0.0290045 -0.00301521 0.00290825 -0.0020488
214 1 21.4462 1.89489 1.04653 -0.00269674 0.00388422 -0.00976998
215 1 21.3634 1.1412 2.43998 0.00467865 0.00831165 0.00807623
216 1 20.1892 25.0346 0.0022746 0.00641327 -0.00940681 0.00440929
217 1 3.78166 20.9039 -2.95626 0 0 0
218 1 1.26055 20.9039 -2.95626 0 0 0
219 1 1.26055 19.3836 -3.22501 0 0 0
220 1 1.26055 18.6235 -1.88126 0 0 0
221 1 0 16.7231 -2.95626 0 0 0
222 1 8.82388 20.9039 -2.95626 0 0 0
223 1 6.30277 20.9039 -2.95626 0 0 0
224 1 6.30277 19.3836 -3.22501 0 0 0
225 1 3.78166 19.3836 -3.22501 0 0 0
226 1 6.30277 18.6235 -1.88126 0 0 0
227 1 3.78166 18.6235 -1.88126 0 0 0
228 1 5.04222 16.7231 -2.95626 0 0 0
229 1 3.78166 17.1032 -2.15001 0 0 0
230 1 1.26055 17.1032 -2.15001 0 0 0
231 1 2.52111 15.2029 -3.22501 0 0 0
232 1 2.52111 16.7231 -2.95626 0 0 0
233 1 3.78166 16.3431 -0.806254 0 0 0
234 1 1.26055 16.3431 -0.806254 0 0 0
235 1 2.52111 14.4427 -1.88126 0 0 0
236 1 0 15.2029 -3.22501 0 0 0
237 1 1.26055 14.8228 -1.075 0 0 0
238 1 0 12.9224 -2.15001 0 0 0
239 1 0 14.4427 -1.88126 0 0 0
240 1 1.27365 14.0653 0.249672 0.00156814 -0.00513144 -0.00156861
241 1 0 12.1623 -0.806254 0 0 0
242 1 13.8661 20.9039 -2.95626 0 0 0
243 1 11.345 20.9039 -2.95626 0 0 0
244 1 11.345 19.3836 -3.22501 0 0 0
245 1 8.82388 19.3836 -3.22501 0 0 0
246 1 11.345 18.6235 -1.88126 0 0 0
247 1 8.82388 18.6235 -1.88126 0 0 0
248 1 10.0844 16.7231 -2.95626 0 0 0
249 1 8.82388 17.1032 -2.15001 0 0 0
250 1 6.30277 17.1032 -2.15001 0 0 0
251 1 7.56333 15.2029 -3.22501 0 0 0
252 1 7.56333 16.7231 -2.95626 0 0 0
253 1 8.82388 16.3431 -0.806254 0 0 0
254 1 6.30277 16.3431 -0.806254 0 0 0
255 1 7.56333 14.4427 -1.88126 0 0 0
256 1 5.04222 15.2029 -3.22501 0 0 0
257 1 6.30277 14.8228 -1.075 0 0 0
258 1 3.78166 14.8228 -1.075 0 0 0
259 1 5.04222 12.9224 -2.15001 0 0 0
260 1 5.04222 14.4427 -1.88126 0 0 0
261 1 6.26831 14.0903 0.323059 -0.000241219 0.00456429 0.000930343
262 1 3.80543 14.1622 0.275893 -0.00303132 0.00866115 -0.00108338
263 1 5.04222 12.1623 -0.806254 0 0 0
264 1 2.52111 12.9224 -2.15001 0 0 0
265 1 3.77685 12.5542 0.0142287 -0.00100391 -0.00469739 -0.00743612
266 1 1.25737 12.5452 0.00675417 -0.00479898 -0.000216441 0.0098646
267 1 2.52111 10.642 -1.075 0 0 0
268 1 2.52111 12.1623 -0.806254 0 0 0
269 1 3.72092 11.7509 1.35106 0.000628369 0.00216995 0.0022278
270 1 1.21888 11.7754 1.39934 9.73754e-05 -0.00285065 0.00201137
271 1 2.51338 9.84983 0.280053 -0.00429403 -0.000483899 0.00262327
272 1 0 10.642 -1.075 0 0 0
273 1 1.25259 10.3049 1.08781 -0.00204923 -0.00103042 -0.00211516
274 1 22.6508 8.3359 0.00344962 -0.000443643 0.00983649 0.00595739
275 1 22.667 9.90748 0.291739 -0.00748937 -0.00371817 0.00219816
276 1 1.25771 9.52598 2.46059 -0.00383719 -0.00953451 7.9971e-05
277 1 22.6796 7.60028 1.32252 -0.0103741 0.000636974 -0.00626251
278 1 18.9083 20.9039 -2.95626 0 0 0
279 1 16.3872 20.9039 -2.95626 0 0 0
280 1 16.3872 19.3836 -3.22501 0 0 0
281 1 13.8661 19.3836 -3.22501 0 0 0
282 1 16.3872 18.6235 -1.88126 0 0 0
283 1 13.8661 18.6235 -1.88126 0 0 0
284 1 15.1267 16.7231 -2.95626 0 0 0
285 1 13.8661 17.1032 -2.15001 0 0 0
286 1 11.345 17.1032 -2.15001 0 0 0
287 1 12.6055 15.2029 -3.22501 0 0 0
288 1 12.6055 16.7231 -2.95626 0 0 0
289 1 13.8661 16.3431 -0.806254 0 0 0
290 1 11.345 16.3431 -0.806254 0 0 0
291 1 12.6055 14.4427 -1.88126 0 0 0
292 1 10.0844 15.2029 -3.22501 0 0 0
293 1 11.345 14.8228 -1.075 0 0 0
294 1 8.82388 14.8228 -1.075 0 0 0
295 1 10.0844 12.9224 -2.15001 0 0 0
296 1 10.0844 14.4427 -1.88126 0 0 0
297 1 11.3929 14.0498 0.2219 0.00331178 0.00143646 -0.00164419
298 1 8.81823 14.0611 0.293268 -0.000479106 0.00226858 -0.000455765
299 1 10.0844 12.1623 -0.806254 0 0 0
300 1 7.56333 12.9224 -2.15001 0 0 0
301 1 8.83065 12.5354 -0.0124581 0.000477995 -0.00263183 0.00947362
302 1 6.25513 12.5868 -0.00550175 0.00707985 -0.00745133 -0.00118555
303 1 7.56333 10.642 -1.075 0 0 0
304 1 7.56333 12.1623 -0.806254 0 0 0
305 1 8.79285 11.7621 1.40418 0.0064839 0.00603547 -0.000516175
306 1 6.26892 11.7979 1.37018 0.00432162 -0.000102609 -0.00159633
307 1 7.51775 9.88562 0.278151 -0.000770406 -0.000897777 -0.000410562
308 1 5.04222 10.642 -1.075 0 0 0
309 1 6.26421 10.244 1.14593 0.00773196 -0.0019456 -0.00667369
310 1 3.78984 10.2222 1.05667 0.000241742 0.00842735 0.00360049
311 1 5.00622 8.32123 0.0202548 0.00175391 0.0101512 -0.00437172
312 1 5.07046 9.87737 0.312518 0.00181042 -0.00276751 -0.00464955
313 1 6.29906 9.54871 2.43571 -0.00195728 0.0051339 -0.000850956
314 1 3.75626 9.53723 2.44573 -0.00181711 0.0025903 0.00241864
315 1 5.02015 7.56499 1.33864 -0.00115265 0.00115828 -0.00341568
316 1 2.51289 8.34598 -0.0487998 -0.00106436 -0.000507357 0.000830545
317 1 3.72005 8.00958 2.16118 -0.00347509 0.00664343 0.000250642
318 1 1.24503 8.05161 2.12511 0.00896416 -0.00158073 0.00278162
319 1 2.4888 6.09315 1.11242 0.00396975 -0.00492145 -0.00119321
320 1 2.52413 7.65102 1.31856 0.009441 0.00166648 0.00941661
321 1 3.76462 7.20929 3.50343 0.000904385 0.00857708 0.00714364
322 1 1.27916 7.23533 3.52835 -0.00106668 0.00375696 0.0103724
323 1 2.50543 5.354 2.46007 -0.00226971 0.0108423 -0.0081704
324 1 22.682 6.08615 1.09473 0.00529718 0.0101595 -0.00339454
325 1 1.25439 5.76318 3.25784 -0.00707126 0.00569118 -0.00326132
326 1 0.0293225 3.77324 2.23329 0.00260244 -0.00420971 0.00153914
327 1 0.0182495 5.34199 2.48499 -0.0030375 0.000124665 -0.00119488
328 1 1.27238 4.93845 4.6483 -4.95887e-05 -0.00926796 0.00401602
329 1 0.0417892 3.03292 3.52972 -0.00276279 0.00430292 -0.0026202
330 1 21.4294 20.9039 -2.95626 0 0 0
331 1 21.4294 19.3836 -3.22501 0 0 0
332 1 18.9083 19.3836 -3.22501 0 0 0
333 1 21.4294 18.6235 -1.88126 0 0 0
334 1 18.9083 18.6235 -1.88126 0 0 0
335 1 20.1689 16.7231 -2.95626 0 0 0
336 1 18.9083 17.1032 -2.15001 0 0 0
337 1 16.3872 17.1032 -2.15001 0 0 0
338 1 17.6478 15.2029 -3.22501 0 0 0
339 1 17.6478 16.7231 -2.95626 0 0 0
340 1 18.9083 16.3431 -0.806254 0 0 0
341 1 16.3872 16.3431 -0.806254 0 0 0
342 1 17.6478 14.4427 -1.88126 0 0 0
343 1 15.1267 15.2029 -3.22501 0 0 0
344 1 16.3872 14.8228 -1.075 0 0 0
345 1 13.8661 14.8228 -1.075 0 0 0
346 1 15.1267 12.9224 -2.15001 0 0 0
347 1 15.1267 14.4427 -1.88126 0 0 0
348 1 16.3532 14.0573 0.295923 0.00518309 -0.00280015 0.000868565
349 1 13.8654 14.045 0.291649 -0.00369314 0.0105472 -0.00581904
350 1 15.1267 12.1623 -0.806254 0 0 0
351 1 12.6055 12.9224 -2.15001 0 0 0
352 1 13.8732 12.5592 -0.0203999 0.00253027 0.00146996 -0.00453532
353 1 11.3241 12.5313 -0.0205645 -0.00340004 0.00632414 -0.0088412
354 1 12.6055 10.642 -1.075 0 0 0
355 1 12.6055 12.1623 -0.806254 0 0 0
356 1 13.8768 11.7531 1.31625 0.00362079 0.0018556 0.000284159
357 1 11.3575 11.806 1.41718 -0.00217533 -0.00345382 0.00254005
358 1 12.5432 9.85326 0.283209 -0.00505587 0.000205231 -0.00623593
359 1 10.0844 10.642 -1.075 0 0 0
360 1 11.3333 10.2565 1.14775 0.00352674 -0.00239063 0.00409237
361 1 8.82154 10.2224 1.09532 -0.0110369 0.00383514 2.39751e-05
362 1 10.0528 8.32838 0.0390421 0.00857269 -0.00714207 -0.00560172
363 1 10.0755 9.88158 0.271916 0.000636597 -0.00276393 0.00498973
364 1 11.3167 9.48581 2.49385 -0.00213554 0.000606977 0.00540446
365 1 8.77842 9.54687 2.47489 -0.00234257 -0.000852904 0.00679499
366 1 10.0687 7.59591 1.41815 0.0152625 0.00258963 0.00585699
367 1 7.57328 8.37021 -0.026295 0.00020104 -0.00548676 -9.89749e-05
368 1 8.79304 7.99953 2.25133 0.0019812 -0.00499215 -0.002502
369 1 6.29063 7.9837 2.16362 -0.00133573 0.00140263 0.00545652
370 1 7.55657 6.13184 1.1283 -0.00335041 -0.00504605 -0.00511637
371 1 7.50048 7.62651 1.38392 0.00812858 0.000191591 0.00367793
372 1 8.81901 7.23841 3.56224 0.00170659 -0.00519911 0.000769554
373 1 6.29902 7.26441 3.54227 0.00503094 0.00454416 -0.00107279
374 1 7.57927 5.33304 2.48205 0.00584894 0.0120208 0.00188286
375 1 5.00823 6.08845 1.11925 0.00560126 0.00377073 -0.000186425
376 1 6.3144 5.72151 3.27708 0.00945393 -0.000254268 -0.00593308
377 1 3.73065 5.73784 3.3136 -0.00508488 0.0113196 -0.00670254
378 1 5.01647 3.79452 2.19943 -0.00170782 0.00680277 -0.00160174
379 1 5.05062 5.30997 2.50496 -0.000400026 0.00187178 -0.000218998
380 1 6.30905 4.97088 4.56282 0.00296487 0.00375509 -0.00236706
381 1 3.7729 4.95072 4.69891 0.00707988 0.00140575 0.0082734
382 1 5.05566 3.04537 3.49632 0.00238292 0.00859599 0.00750009
383 1 2.4872 3.86397 2.21717 -0.00189165 -0.0114353 -0.00522953
384 1 3.81096 3.46207 4.32166 0.00648941 -0.00611732 0.00271347
385 1 1.27793 3.45939 4.37684 0.00780511 0.000741227 -0.00562417
386 1 2.49683 1.49997 3.24062 0.0117106 -0.00251268 -0.00588748
387 1 2.54626 3.02213 3.57083 0.0114234 -0.00673477 -0.00193715
388 1 3.79099 2.62276 5.72516 -0.00743545 -0.00649123 -0.00345243
389 1 1.22612 2.63293 5.66185 0.00315569 -0.00833125 0.00633077
390 1 2.56111 0.77245 4.60988 0.00318416 0.00121292 0.00139411
391 1 0.00891651 1.50191 3.21998 -0.000488243 0.00299803 -0.00102431
392 1 1.27186 1.11941 5.40269 0.00219527 -0.00990884 -0.00682269
393 1 22.6783 0.7624 4.57629 0.00625667 -0.00314785 0.00792786
394 1 1.27146 0.389839 6.77835 -0.00717667 0.00198143 0.00631809
395 1 21.4294 17.1032 -2.15001 0 0 0
396 1 21.4294 16.3431 -0.806254 0 0 0
397 1 20.1689 15.2029 -3.22501 0 0 0
398 1 21.4294 14.8228 -1.075 0 0 0
399 1 18.9083 14.8228 -1.075 0 0 0
400 1 20.1689 12.9224 -2.15001 0 0 0
401 1 20.1689 14.4427 -1.88126 0 0 0
402 1 21.4005 14.0704 0.276809 0.00199805 0.00144382 0.00326089
403 1 18.8738 14.0489 0.269703 0.01237 0.00469962 0.0075475
404 1 20.1689 12.1623 -0.806254 0 0 0
405 1 17.6478 12.9224 -2.15001 0 0 0
406 1 18.8838 12.5417 0.0126978 -0.00194941 -0.00316795 -0.00400244
407 1 16.387 12.548 0.04024 0.000451529 0.00557961 -9.33056e-05
408 1 17.6478 10.642 -1.075 0 0 0
409 1 17.6478 12.1623 -0.806254 0 0 0
410 1 18.8368 11.8292 1.34951 0.0077544 -0.00242777 0.00925332
411 1 16.3263 11.758 1.38684 0.00138986 0.00324065 -0.0076422
412 1 17.6328 9.90008 0.282518 0.0117895 -0.00820512 -0.00431346
413 1 15.1267 10.642 -1.075 0 0 0
414 1 16.3501 10.2468 1.09505 0.00438753 0.00361559 0.00576291
415 1 13.8469 10.2289 1.11832 0.000394008 -0.00356227 -0.00567948
416 1 15.0805 8.35168 -0.0174371 0.00434226 -0.00728765 -0.0013886
417 1 15.0967 9.86543 0.29234 -0.00522134 0.0075519 0.00249351
418 1 16.3186 9.48858 2.44233 0.000239458 -0.000880692 0.0007225
419 1 13.7592 9.52557 2.43738 0.00880003 0.00340553 0.000574568
420 1 15.0884 7.61934 1.35852 -0.00101945 -0.00293157 0.0050936
421 1 12.5694 8.36412 0.00721529 -0.0044066 -0.00398287 0.00525709
422 1 13.8218 7.93667 2.15657 0.00300648 -0.00426385 -0.00870616
423 1 11.3214 8.00388 2.21292 -0.00242117 0.000206375 0.00176258
424 1 12.5369 6.07324 1.04593 -0.00451486 -0.00449156 -0.00538903
425 1 12.5582 7.59232 1.38451 -0.00337948 -0.00153254 -0.00730664
426 1 13.7951 7.24881 3.55655 0.00137864 0.0090587 0.00602017
427 1 11.2834 7.22215 3.60476 -0.00846442 -0.00294719 -0.00781146
428 1 12.6307 5.32729 2.45866 -0.00417844 0.000636164 -0.000389488
429 1 10.0322 6.10228 1.13954 -0.00251283 0.00304601 0.0046319
430 1 11.3228 5.72173 3.32035 -0.00192691 0.00049624 -0.00352154
431 1 8.81616 5.7101 3.23605 -0.00216357 -0.00447784 -0.00610398
432 1 10.1232 3.81869 2.20724 0.00321901 0.000842238 -0.000642652
433 1 10.1174 5.34481 2.43269 -0.0100194 -0.00394997 0.00566921
434 1 11.3268 4.90546 4.61314 0.0147675 -0.00671818 -0.00106018
435 1 8.84426 4.94726 4.61486 0.000598844 -0.0049221 -0.000848632
436 1 10.0956 3.01127 3.54466 -0.0089448 0.00658533 0.000934398
437 1 7.52528 3.76527 2.19861 -0.000483501 0.000680882 -0.00160284
438 1 8.87607 3.39746 4.3456 0.00481535 0.00370118 0.0039992
439 1 6.33282 3.38942 4.31198 -0.00186368 0.000610947 -0.00905119
440 1 7.51144 1.52162 3.24828 -0.00884422 -0.00442459 -0.00810901
441 1 7.56029 3.02566 3.53278 0.00231183 -0.0058287 -0.00318447
442 1 8.8413 2.66842 5.67153 0.00214351 0.00242412 0.00358881
443 1 6.24168 2.66113 5.70855 -0.0038468 0.00752541 -0.00593645
444 1 7.57994 0.741578 4.5479 0.00705281 0.00205729 -0.00180176
445 1 5.09478 1.5283 3.22567 -0.00323498 0.00201149 -0.00221482
446 1 6.31873 1.18417 5.42542 -0.00187787 0.000894667 -0.000469927
447 1 3.82063 1.12211 5.42945 0.00322858 -0.0064936 0.0095845
448 1 5.08953 0.790447 4.59729 -0.00452896 -0.00421027 0.0118311
449 1 6.3447 0.422343 6.77371 -0.0140868 -0.00206129 -0.00390468
450 1 3.82779 0.361573 6.78959 0.00319778 -0.00289367 0.011721
451 1 21.4147 12.5332 0.0219226 -0.00343643 0.00776158 0.00450085
452 1 21.3568 11.7405 1.34514 0.00454851 0.00194906 0.000504852
453 1 20.1689 10.642 -1.075 0 0 0
454 1 21.401 10.2562 1.06952 -0.000387696 0.00153726 -0.000972759
455 1 18.8683 10.283 1.07511 -0.00401675 0.00690962 -0.000872399
456 1 20.1375 8.34008 -0.0323024 0.00545092 -0.000283109 -0.00271804
457 1 20.1746 9.89626 0.272982 -8.61112e-05 -0.00276417 -0.00597511
458 1 21.3981 9.4673 2.44905 0.00680761 0.00353181 0.00734096
459 1 18.913 9.50159 2.41654 -0.00203038 0.00227841 -0.00267724
460 1 20.12 7.56864 1.28302 -0.00285655 0.00395265 -0.005057
461 1 17.6373 8.32704 0.0614843 -0.000125353 -0.00282463 -0.00553611
462 1 18.8931 8.00188 2.14188 -0.00219609 -0.00713743 -0.00219558
463 1 16.3248 7.9449 2.20035 0.00609972 -0.000317397 -0.00192802
464 1 17.6342 6.05894 1.10219 0.00503822 0.000475295 0.00177584
465 1 17.6427 7.59904 1.41732 0.00591658 -0.00837109 0.00271988
466 1 18.8956 7.2527 3.53762 -0.00107126 -0.00547899 -0.000534841
467 1 16.325 7.20639 3.52329 0.000833036 -0.00312328 -0.0100443
468 1 17.6511 5.31076 2.44307 -0.00194705 -0.00357234 0.00889062
469 1 15.0979 6.07968 1.1041 -0.00692207 -0.00262774 -0.00869437
470 1 16.3381 5.70597 3.29235 -0.00665603 2.28399e-05 -0.00380302
471 1 13.8238 5.70631 3.28941 -0.000481388 0.00479635 -0.00280179
472 1 15.1294 3.86405 2.15832 -0.0123166 -0.002113 0.00025111
473 1 15.1068 5.37094 2.41431 -0.00593753 -0.00633744 0.00147244
474 1 16.3967 4.91633 4.65144 -0.0066428 0.00160728 0.000612149
475 1 13.8852 4.95522 4.65303 -0.00110783 -0.000204058 -0.000120845
476 1 15.1152 3.09426 3.54395 -0.0116837 0.00265937 0.000566672
477 1 12.6709 3.80384 2.17944 -0.00250976 -0.00735092 -0.00187139
478 1 13.8734 3.47111 4.34554 0.00437245 -0.000690065 -0.00585995
479 1 11.405 3.40069 4.31667 -0.00111744 -0.00246809 0.000456044
480 1 12.618 1.4968 3.25009 -0.000473012 -0.00380884 -0.00142775
481 1 12.6554 3.01699 3.51711 0.00365848 0.000491003 -0.00111826
482 1 13.8627 2.64483 5.62775 0.00587751 0.00306643 -0.00101532
483 1 11.3802 2.71555 5.6562 0.000350662 -0.00396638 0.00620918
484 1 12.589 0.694412 4.6084 -0.00680918 0.00406329 0.00758662
485 1 10.0781 1.4809 3.2557 0.00222289 -0.000674568 0.0105221
486 1 11.3462 1.13158 5.48052 0.000423769 -0.00169139 0.00502398
487 1 8.87367 1.18347 5.44116 -0.0101767 -0.00128523 -0.000715541
488 1 10.0867 0.770631 4.63164 -0.0086328 0.00510583 0.000135831
489 1 11.3841 0.3924 6.7916 -0.00365876 0.00286927 0.00290736
490 1 8.85181 0.394585 6.77663 0.00421477 -0.000100124 0.00356468
491 1 21.3863 7.98483 2.12274 0.00195751 0.00952469 -0.00314734
492 1 21.4017 7.18425 3.47141 0.00757223 -0.0121914 -0.00103541
493 1 20.1836 6.06413 1.05518 0.00476648 -0.00287986 0.00450829
494 1 21.4246 5.68598 3.26711 0.000954653 0.00309619 0.00301063
495 1 18.8939 5.71859 3.20689 0.00024639 -0.00403357 -0.0119994
496 1 20.2 3.7825 2.10893 -0.00882725 0.00531999 0.000490724
497 1 20.2061 5.27273 2.48145 -0.00829591 0.00157593 5.35113e-05
498 1 21.4202 4.89828 4.60954 -0.00754103 0.00394183 0.00472407
499 1 18.8755 4.88408 4.57913 -0.00920864 -0.00239261 0.00398126
500 1 20.2091 3.0781 3.45869 -0.00778993 0.00304957 -0.00222707
501 1 17.5918 3.80083 2.17684 0.000798765 0.00183681 -0.00507708
502 1 18.9492 3.38284 4.26387 -0.00228262 0.00220047 0.00382636
503 1 16.4062 3.42861 4.3596 0.00579081 -0.00499514 -0.00454047
504 1 17.6169 1.53601 3.22299 0.000351259 -0.000957152 0.00108849
505 1 17.6501 3.0368 3.4867 0.00614367 -0.00385798 -0.00250178
506 1 18.942 2.69722 5.68905 -0.00370482 0.000209923 0.00705339
507 1 16.3875 2.62558 5.70174 0.000195546 -0.00408957 0.00485946
508 1 17.6264 0.756638 4.67135 0.00433893 -0.00108197 0.0010241
509 1 15.0822 1.51893 3.19695 -0.00436739 0.000697212 -0.00334553
510 1 16.3908 1.14498 5.38963 -0.00653987 -0.00286363 -0.00531226
511 1 13.8514 1.12397 5.38944 -0.0024854 0.0024861 -0.000415748
512 1 15.0957 0.759304 4.55642 -0.00153392 0.00508975 -0.00337369
513 1 16.4162 0.334782 6.75505 -0.00182439 -0.00519702 -0.00310711
514 1 13.933 0.364746 6.78439 0.00371487 0.00605896 -0.00317397
515 1 21.4277 3.44286 4.32446 -0.0042616 0.00293995 -0.00580568
516 1 21.4622 2.70125 5.65818 -0.00408448 0.00599186 0.00132928
517 1 20.1117 1.52026 3.18345 0.00708657 0.00389456 -0.00773844
518 1 21.4431 1.15513 5.45248 0.00784107 -0.00376567 0.00182967
519 1 18.9801 1.17886 5.44112 -0.00182456 0.00484299 -0.00481088
520 1 20.2067 0.803892 4.63648 -0.00671591 0.00206799 -0.00189764
521 1 21.4282 0.425463 6.77555 0.004188 -0.000636404 0.00273184
522 1 18.9252 0.389309 6.73359 0.00663829 -0.00711235 -0.0011168
523 1 8.28923e-25 23.5644 -3.22501 0 0 0
524 1 1.26055 24.7047 -0.806254 0 0 0
525 1 0 22.8043 -1.88126 0 0 0
526 1 5.04222 23.5644 -3.22501 0 0 0
527 1 6.30277 24.7047 -0.806254 0 0 0
528 1 3.78166 24.7047 -0.806254 0 0 0
529 1 5.04222 22.8043 -1.88126 0 0 0
530 1 2.52111 23.5644 -3.22501 0 0 0
531 1 3.78166 23.1844 -1.075 0 0 0
532 1 1.26055 23.1844 -1.075 0 0 0
533 1 2.52111 21.284 -2.15001 0 0 0
534 1 2.52111 22.8043 -1.88126 0 0 0
535 1 3.77146 22.4421 0.202357 0.00197532 0.00159015 -0.00168917
536 1 1.26422 22.452 0.24239 0.00559008 0.000291587 0.00339311
537 1 2.52111 20.5239 -0.806254 0 0 0
538 1 0 21.284 -2.15001 0 0 0
539 1 1.24163 20.9296 0.0450739 0.00744208 0.00453543 -0.00241235
540 1 0 19.0036 -1.075 0 0 0
541 1 0 20.5239 -0.806254 0 0 0
542 1 1.24697 20.1791 1.36443 -0.0038035 0.00255853 -0.000260832
543 1 0.00102779 18.2548 0.302496 0.000288565 -0.0058974 -0.00540652
544 1 10.0844 23.5644 -3.22501 0 0 0
545 1 11.345 24.7047 -0.806254 0 0 0
546 1 8.82388 24.7047 -0.806254 0 0 0
547 1 10.0844 22.8043 -1.88126 0 0 0
548 1 7.56333 23.5644 -3.22501 0 0 0
549 1 8.82388 23.1844 -1.075 0 0 0
550 1 6.30277 23.1844 -1.075 0 0 0
551 1 7.56333 21.284 -2.15001 0 0 0
552 1 7.56333 22.8043 -1.88126 0 0 0
553 1 8.84436 22.3845 0.285272 0.00179529 0.00428899 0.00508405
554 1 6.3862 22.4264 0.299243 0.00637688 0.00604011 -0.000947416
555 1 7.56333 20.5239 -0.806254 0 0 0
556 1 5.04222 21.284 -2.15001 0 0 0
557 1 6.34955 20.9121 -0.00449378 0.00753274 -0.00720344 0.00846346
558 1 3.8209 20.884 -0.00897097 -0.00504318 0.00518453 -0.00146542
559 1 5.04222 19.0036 -1.075 0 0 0
560 1 5.04222 20.5239 -0.806254 0 0 0
561 1 6.31645 20.1415 1.3176 0.0127785 0.00248914 0.00502236
562 1 3.78207 20.1701 1.32818 -0.00683859 0.00146639 0.00571664
563 1 5.04459 18.231 0.293298 -0.00234037 0.00592274 0.00666267
564 1 2.52111 19.0036 -1.075 0 0 0
565 1 3.8251 18.6254 1.08555 -0.0105919 -0.00105475 -0.00200104
566 1 1.30071 18.6561 1.07166 -0.00350581 -0.00450209 0.00384737
567 1 2.47244 16.6713 0.0473152 0.00281913 0.000727094 0.0044258
568 1 2.53978 18.2655 0.239926 0.00262969 -0.000369618 0.0103181
569 1 3.82434 17.8593 2.44288 0.00377986 -0.00161231 0.0115945
570 1 1.22155 17.9288 2.48926 0.00105915 0.00349439 -0.00329857
571 1 2.52153 15.9738 1.41204 0.000638162 -0.0097748 0.00515423
572 1 22.6643 16.7266 -0.0413839 0.00195608 -0.00121087 -0.000960825
573 1 1.2128 16.3732 2.18932 0.000227769 -0.00384856 -0.00604642
574 1 22.6788 14.3833 1.08545 0.00815969 0.00519802 0.00426312
575 1 0.0482899 15.9807 1.32942 0.00250785 0.00841414 -0.0112843
576 1 1.25883 15.561 3.55276 0.00191173 -0.00437922 0.0039358
577 1 22.6897 13.6553 2.39626 0.000998444 0.000946419 -0.00127886
578 1 15.1267 23.5644 -3.22501 0 0 0
579 1 16.3872 24.7047 -0.806254 0 0 0
580 1 13.8661 24.7047 -0.806254 0 0 0
581 1 15.1267 22.8043 -1.88126 0 0 0
582 1 12.6055 23.5644 -3.22501 0 0 0
583 1 13.8661 23.1844 -1.075 0 0 0
584 1 11.345 23.1844 -1.075 0 0 0
585 1 12.6055 21.284 -2.15001 0 0 0
586 1 12.6055 22.8043 -1.88126 0 0 0
587 1 13.872 22.4313 0.269268 0.0017555 -0.00180576 0.00227105
588 1 11.404 22.4202 0.275953 -0.00778528 0.00300175 -0.0107661
589 1 12.6055 20.5239 -0.806254 0 0 0
590 1 10.0844 21.284 -2.15001 0 0 0
591 1 11.3366 20.9136 -0.00391811 0.00646927 0.000273224 0.00523686
592 1 8.83866 20.9108 0.00163745 -0.00639455 -0.00524447 -0.00393205
593 1 10.0844 19.0036 -1.075 0 0 0
594 1 10.0844 20.5239 -0.806254 0 0 0
595 1 11.3864 20.1338 1.34221 0.00325958 0.00924542 0.00332477
596 1 8.84197 20.0762 1.3445 0.00210784 0.00198136 -0.000913295
597 1 10.1361 18.2483 0.277853 0.00281082 0.00252033 0.00382664
598 1 7.56333 19.0036 -1.075 0 0 0
599 1 8.81373 18.6181 1.07818 0.00427109 0.00100698 -0.000601685
600 1 6.29254 18.6269 1.06549 -0.000663098 0.00127147 0.00339534
601 1 7.58255 16.7183 -0.0100042 -0.00315248 0.00141481 0.000770633
602 1 7.57767 18.2497 0.26282 0.00657891 0.000976879 0.00371989
603 1 8.83295 17.8627 2.49775 -0.00372086 -0.00153232 -0.00260483
604 1 6.28091 17.8294 2.43716 -0.00792015 0.00182898 -0.00666029
605 1 7.51733 15.9679 1.36654 -0.00517883 0.000642809 0.00743011
606 1 5.00412 16.7241 -0.00384287 0.00419086 0.000213221 0.00455274
607 1 6.32241 16.3577 2.16456 -0.00191338 -0.0050736 0.00444228
608 1 3.7679 16.3657 2.19807 0.00601665 -0.0027467 -0.000508362
609 1 5.01756 14.4993 1.10796 -0.000909846 -0.00261543 0.00364629
610 1 5.05709 15.9421 1.40356 -0.00384055 -0.00683628 0.00749727
611 1 6.28438 15.5531 3.56172 -0.00413703 0.00153496 0.0035719
612 1 3.78059 15.5606 3.54738 -0.00908407 -0.00316414 0.00387535
613 1 4.95026 13.6991 2.40488 -0.00341715 -0.0067881 0.00883915
614 1 2.52703 14.4684 1.05047 -0.00432695 0.00149649 -0.00178956
615 1 3.71024 14.074 3.25504 -0.000785421 -0.00440614 -0.0013853
616 1 1.26783 14.0763 3.22968 0.00617179 -0.00206824 0.00517025
617 1 2.5334 12.1484 2.1629 -0.00836454 0.00347346 -4.32732e-05
618 1 2.50723 13.7176 2.42095 -0.00341605 -0.00855295 0.00608979
619 1 3.81341 13.3501 4.5498 0.00143501 -0.0128654 0.00196606
620 1 1.26864 13.3112 4.63936 0.00181579 -0.00376913 0.00488938
621 1 2.4778 11.4388 3.53069 -0.00450753 0.00167989 -0.00824127
622 1 22.6211 12.1323 2.19419 0.00187953 0.000847286 0.00641866
623 1 1.20763 11.7982 4.2903 0.00577739 0.00429017 -0.000846225
624 1 22.6303 9.85612 3.19761 -0.0161834 0.0025656 -0.000729159
625 1 22.6143 11.4099 3.54467 0.00199911 0.00185105 0.00403159
626 1 1.22369 11.0057 5.64817 0.00317278 -0.00297599 -0.00281502
627 1 22.6213 9.13234 4.56516 0.00184407 0.00303239 -0.000249544
628 1 20.1689 23.5644 -3.22501 0 0 0
629 1 21.4294 24.7047 -0.806254 0 0 0
630 1 18.9083 24.7047 -0.806254 0 0 0
631 1 20.1689 22.8043 -1.88126 0 0 0
632 1 17.6478 23.5644 -3.22501 0 0 0
633 1 18.9083 23.1844 -1.075 0 0 0
634 1 16.3872 23.1844 -1.075 0 0 0
635 1 17.6478 21.284 -2.15001 0 0 0
636 1 17.6478 22.8043 -1.88126 0 0 0
637 1 18.9065 22.414 0.276091 -0.00191842 -0.0135233 0.00576076
638 1 16.4038 22.42 0.301197 0.00344751 0.00210427 -0.00694852
639 1 17.6478 20.5239 -0.806254 0 0 0
640 1 15.1267 21.284 -2.15001 0 0 0
641 1 16.4037 20.8646 -0.0120356 -0.0103852 0.00343047 0.00593966
642 1 13.8512 20.9358 -0.0292875 -0.00298549 0.00287096 -0.00159129
643 1 15.1267 19.0036 -1.075 0 0 0
644 1 15.1267 20.5239 -0.806254 0 0 0
645 1 16.4465 20.1024 1.34697 0.000838922 -0.00538917 -0.00394387
646 1 13.9222 20.1386 1.33537 -0.00844717 -0.0032326 0.00352945
647 1 15.1637 18.1965 0.256824 0.00227821 0.00600573 -0.00235405
648 1 12.6055 19.0036 -1.075 0 0 0
649 1 13.8867 18.6109 1.10164 -0.00205728 -0.0013524 -0.00343828
650 1 11.327 18.6368 1.12109 0.00264287 0.00295743 0.000256902
651 1 12.6145 16.731 0.0439035 -0.00338228 -0.00924771 0.000579088
652 1 12.6268 18.2869 0.279867 0.00133127 -0.00144541 -0.0121323
653 1 13.9169 17.8814 2.45844 0.00519701 0.00700614 0.00295027
654 1 11.3219 17.9231 2.48795 -0.0148878 0.00176336 -0.000165028
655 1 12.6104 15.986 1.35941 -0.00430659 -0.00145638 -0.00240413
656 1 10.1044 16.6915 0.00332352 0.00726046 -0.0102372 -1.53194e-05
657 1 11.357 16.3545 2.15713 -0.00512623 -0.000302739 0.00309248
658 1 8.83895 16.3511 2.15264 -0.0108257 0.00260312 0.00195105
659 1 10.0682 14.4428 1.0561 -0.000352234 0.00441186 -0.00742556
660 1 10.1202 16.0114 1.36338 -0.00394266 0.00296303 -0.00575235
661 1 11.368 15.6124 3.56152 0.00440539 0.00561944 0.000857431
662 1 8.88729 15.5579 3.54277 -0.000877887 0.00178787 0.0053815
663 1 10.0813 13.7328 2.42227 -0.00831668 3.21284e-05 -0.00770029
664 1 7.53083 14.437 1.12464 0.000520675 0.000384912 -0.000610028
665 1 8.86673 14.0861 3.25028 0.0126936 -0.00209758 0.00429164
666 1 6.30971 14.0693 3.27302 -0.00316686 0.000744067 0.00611864
667 1 7.53503 12.1549 2.1761 -0.00481468 -0.00401423 0.00371457
668 1 7.51714 13.6399 2.4095 -0.00254111 -0.00391843 0.00191333
669 1 8.8031 13.3227 4.63401 -0.000594891 0.00546583 0.0129595
670 1 6.32094 13.326 4.60967 0.00188954 0.00638391 0.00345904
671 1 7.59636 11.4136 3.49492 -0.00344557 0.00315582 0.00529229
672 1 5.01563 12.215 2.22646 0.00519618 0.000707338 -0.000794246
673 1 6.31561 11.7552 4.34278 -0.00123828 -0.000239018 0.00319411
674 1 3.76527 11.782 4.37918 -0.00649404 -0.00225457 0.00781684
675 1 5.0062 9.88646 3.27671 -0.000536763 -0.00941053 -0.00257829
676 1 4.98708 11.4168 3.59056 0.00155417 -0.0119944 -0.00200047
677 1 6.26297 11.0106 5.68019 0.00555187 0.00133057 -0.00139631
678 1 3.73314 11.0269 5.70804 -0.000893123 -0.0019638 0.00374412
679 1 5.0435 9.14023 4.55573 0.000821108 0.00023945 0.00771901
680 1 2.46798 9.90118 3.28446 0.0078009 5.7219e-05 0.00155229
681 1 3.76206 9.47917 5.4042 0.00427537 0.00766952 0.00393142
682 1 1.20294 9.47086 5.39335 0.000434264 0.000492128 -0.00183718
683 1 2.56203 7.59292 4.30475 -0.00706089 -0.00322937 -0.00433557
684 1 2.50053 9.14168 4.60599 -0.00151724 -0.00554031 -0.0120864
685 1 3.73591 8.72495 6.75255 -0.00876181 -0.00379606 0.00145044
686 1 1.19715 8.75348 6.7568 0.00136706 -0.00203098 0.00101834
687 1 2.53915 6.90689 5.71468 0.00197502 0.00239068 0.00649583
688 1 22.646 7.58019 4.29302 -0.00701197 0.00577149 -0.00466314
689 1 1.25498 7.22665 6.48249 -0.00540569 0.00508722 -0.00497708
690 1 22.6156 5.30868 5.44098 -0.00302637 -0.000676486 0.00436195
691 1 22.6427 6.83375 5.65431 -0.000491451 0.00334334 -0.00574427
692 1 1.26848 6.50437 7.89379 6.63779e-06 -0.00117059 0.00291101
693 1 0.0222 4.59869 6.7799 -0.00198254 0.00742995 -0.000219188
694 1 21.4294 23.1844 -1.075 0 0 0
695 1 21.4355 22.4264 0.268702 -0.00240143 -0.00540589 0.00459565
696 1 20.1689 21.284 -2.15001 0 0 0
697 1 21.4184 20.9387 0.0150879 -0.00638493 0.00396896 0.00160486
698 1 18.8831 20.8955 -0.0557143 0.00246662 8.8536e-05 0.00428359
699 1 20.1689 19.0036 -1.075 0 0 0
700 1 20.1689 20.5239 -0.806254 0 0 0
701 1 21.39 20.1633 1.36727 0.00886429 -0.00429661 -0.00252361
702 1 18.9131 20.1627 1.34009 -0.00682526 0.0077842 0.00315012
703 1 20.1589 18.2691 0.234865 -0.00322805 -0.00367841 -0.00405394
704 1 17.6478 19.0036 -1.075 0 0 0
705 1 18.9205 18.6061 1.08067 0.000542844 0.00254009 -0.00151925
706 1 16.4145 18.5983 1.04822 -0.00202601 -0.000715029 -0.00363474
707 1 17.6816 16.6772 0.0100677 -0.00586301 -0.000525468 0.000485676
708 1 17.671 18.2393 0.260225 0.00147787 -0.000310569 -0.00350684
709 1 18.8742 17.8527 2.43616 -0.00137817 -0.00973473 0.00113266
710 1 16.4058 17.8582 2.42486 0.00304388 0.000610732 0.0070503
711 1 17.6907 15.9242 1.36799 0.00372289 0.000271549 -0.00995358
712 1 15.1571 16.7301 0.00235351 -0.00496204 0.0011974 0.00310361
713 1 16.3921 16.3098 2.15948 0.000913599 0.00588115 0.00435982
714 1 13.8986 16.3902 2.17951 -0.00121812 0.00173042 -0.00326563
715 1 15.0871 14.4337 1.11036 -0.0012711 0.00274789 -0.00531212
716 1 15.1182 15.9543 1.35162 0.000719953 -0.00689266 0.00296594
717 1 16.4387 15.5974 3.5342 -0.00579498 -0.00666629 0.0056836
718 1 13.8899 15.5883 3.49114 -0.011606 -0.00481269 0.00788083
719 1 15.1095 13.6787 2.37229 -0.00446954 0.00915895 -0.00397373
720 1 12.6178 14.4335 1.08017 0.00527231 -0.00416662 0.00300337
721 1 13.8565 14.0838 3.22073 0.00749581 0.000794827 -0.00129867
722 1 11.3234 14.1091 3.28925 0.0003035 -0.00770113 0.00187408
723 1 12.5989 12.1624 2.12683 0.00626971 0.00671674 0.00197845
724 1 12.5843 13.6903 2.46163 -0.00449718 -0.003933 -0.000834498
725 1 13.847 13.3244 4.61502 0.00124142 -0.00415073 0.00123793
726 1 11.3392 13.3204 4.61884 0.00999513 -0.00284893 0.0132641
727 1 12.582 11.4939 3.56689 -0.000266898 0.00526712 -0.00245059
728 1 10.0767 12.1602 2.21378 0.00743469 -0.000973819 0.000630045
729 1 11.2942 11.8037 4.36871 0.00584903 -0.00011991 -0.00467767
730 1 8.82457 11.7728 4.36008 0.00263797 -0.00221188 -0.000174038
731 1 10.077 9.92739 3.28275 0.0014191 -0.0026362 0.00558475
732 1 10.081 11.3752 3.53727 -0.00472548 -0.00302243 -0.00155252
733 1 11.3379 10.9984 5.75969 -0.00570163 -0.00489601 0.00210534
734 1 8.76534 11.0612 5.71797 -0.00141177 -0.00382798 0.00800946
735 1 10.0953 9.16705 4.63579 -0.00565329 0.00385601 -0.0013656
736 1 7.6021 9.89955 3.27382 -0.000869038 -0.00237278 -0.00772324
737 1 8.81861 9.50379 5.4348 -0.00173982 -0.00811388 -0.00200413
738 1 6.29556 9.49588 5.36724 0.00664943 -0.00115822 0.00594104
739 1 7.58026 7.65443 4.33957 -0.00747029 0.00467092 0.00126989
740 1 7.53788 9.13624 4.5791 -0.00730543 -0.0112688 -0.004753
741 1 8.80918 8.76953 6.79483 -0.00376154 0.00415068 -0.00760679
742 1 6.27506 8.72866 6.77933 -0.00581626 -0.00493062 -0.00567497
743 1 7.55278 6.8406 5.69632 0.00391852 0.000447097 -0.00065818
744 1 5.00624 7.6292 4.2955 -0.00145835 0.00351744 0.000503125
745 1 6.31003 7.22391 6.50724 0.00689944 0.00318592 0.000866992
746 1 3.77449 7.21543 6.48944 -0.0025719 -0.00266507 -0.00326438
747 1 5.06787 5.30714 5.45035 0.00482479 -0.00569261 0.00256686
748 1 5.05368 6.88414 5.69657 -0.00203195 -0.00174103 -3.58901e-06
749 1 6.28314 6.47395 7.86681 -0.00440627 -0.00163475 -0.000855187
750 1 3.72459 6.40991 7.89781 -0.00530903 -0.0042401 0.000814991
751 1 5.03329 4.56961 6.7768 0.00541122 -0.00248484 -0.00269437
752 1 2.4918 5.30714 5.46616 -0.00487241 -0.00257654 0.00302451
753 1 3.76802 4.93099 7.66604 0.00211514 0.00726727 -0.0100091
754 1 1.27238 4.96432 7.64399 -0.00259525 -0.00732643 -0.00433278
755 1 2.48118 3.06329 6.49297 -0.00533091 -0.00674956 -0.00837543
756 1 2.48903 4.57212 6.84574 -0.00323873 0.000287903 0.00483893
757 1 3.75165 4.17644 8.99344 8.87405e-05 -8.85636e-05 0.00501666
758 1 1.27166 4.14324 8.93543 0.00273274 -0.00178741 -0.00258874
759 1 2.49967 2.30027 7.8403 3.33748e-05 -0.0104997 -0.000218392
760 1 22.6849 3.07903 6.43319 0.00318181 -0.00635842 -0.0037576
761 1 1.21709 2.65736 8.68406 -0.00345587 -0.00818278 0.00719832
762 1 22.6262 0.74905 7.58334 -0.00491163 -0.00873778 0.00555456
763 1 22.664 2.31553 7.81664 0.00369938 -0.00818572 0.00552642
764 1 1.2414 1.88957 9.99504 0.00828886 0.00738396 -0.000542966
765 1 0.00678963 0.0160565 8.91199 0.00498282 4.04453e-05 0.00664834
766 1 21.441 18.5974 1.06359 0.00274906 0.00212339 -0.00252141
767 1 21.4067 17.8927 2.47574 -0.00421878 0.00316788 -0.00291488
768 1 20.19 16.7039 -0.019424 0.0057233 0.00734015 0.00330867
769 1 21.4685 16.3646 2.12407 0.0167033 -0.00418322 0.00457329
770 1 18.9087 16.3339 2.19451 -0.00282693 0.00345836 -0.00189348
771 1 20.1455 14.4429 1.07743 0.00294464 -0.00226531 0.00945498
772 1 20.1918 15.9731 1.31983 -0.00344949 -0.00983453 -0.00152648
773 1 21.4638 15.6243 3.41623 -0.00420767 0.000766475 0.00590841
774 1 18.8813 15.6191 3.52818 -0.00463326 -0.00339014 0.000538912
775 1 20.1446 13.6991 2.42919 0.00139292 0.000903736 -0.00187107
776 1 17.6576 14.4862 1.0275 0.0082601 -0.00153757 -0.00113757
777 1 18.9144 14.0439 3.25763 0.00243797 -0.00635928 0.00372691
778 1 16.4166 14.0846 3.23507 0.0068979 0.00145606 0.00416877
779 1 17.5865 12.139 2.19383 0.00268959 -4.32423e-05 0.00134875
780 1 17.621 13.6737 2.44105 0.00175047 0.00209978 -0.00139558
781 1 18.8692 13.3824 4.60127 0.00090704 -0.00690888 -0.000891971
782 1 16.3959 13.3607 4.58431 0.00629236 -0.0069155 -0.00813594
783 1 17.6264 11.3888 3.56395 -0.00192336 -0.00300464 0.000100968
784 1 15.0502 12.1382 2.15102 -0.000928845 -0.00193072 -0.000389004
785 1 16.3538 11.7987 4.33809 -0.00633251 0.00231108 0.00691406
786 1 13.8412 11.8007 4.3524 -0.00178387 -0.00299082 0.00435298
787 1 15.0844 9.89163 3.27118 -0.00176811 -0.00375432 -0.00178504
788 1 15.1211 11.4165 3.51173 -0.00478254 0.0117711 0.00327218
789 1 16.3576 11.0103 5.67996 -0.00819361 0.000853122 -0.0103312
790 1 13.812 11.0179 5.70233 -0.00214655 -0.000718078 -0.00577266
791 1 15.0948 9.12201 4.61057 -0.00298046 -0.0005223 -0.0108649
792 1 12.5322 9.93428 3.32432 -0.000176911 -0.00604251 0.00226604
793 1 13.8596 9.5057 5.45134 -0.00230629 -0.00353546 -0.00381307
794 1 11.3615 9.50606 5.44692 0.00423161 -0.00630937 0.000845314
795 1 12.5832 7.62206 4.39387 -0.00739028 -0.00952357 0.00433806
796 1 12.6417 9.12278 4.71605 0.00754367 -0.00608545 0.00243224
797 1 13.8425 8.68636 6.79227 -0.00378432 0.0114783 -0.00345397
798 1 11.331 8.79707 6.76843 -0.000487031 -0.00264834 -0.00785674
799 1 12.5788 6.82375 5.71002 -0.00547084 -0.00388235 -0.00274781
800 1 10.0269 7.62151 4.38329 0.00407792 -0.00834982 -0.00158257
801 1 11.2932 7.19252 6.50458 0.00383335 -0.00358505 -0.00976221
802 1 8.77116 7.23327 6.51428 -0.00365579 -0.00129936 -0.00106259
803 1 10.0601 5.32711 5.46925 -0.0125617 -0.00763312 -0.00286539
804 1 10.0459 6.7948 5.77174 0.00414112 -0.00226261 -0.00744732
805 1 11.3218 6.47964 7.83024 0.00305603 0.00389329 0.000481112
806 1 8.80322 6.4706 7.89985 0.00305703 -0.000555032 0.00642027
807 1 10.0749 4.54646 6.81998 -0.000981608 0.00421634 0.00323587
808 1 7.57817 5.29887 5.37479 0.00511173 0.000395741 -0.00535058
809 1 8.85093 4.93006 7.58747 -0.00213774 -0.00360293 0.00199442
810 1 6.34861 4.93554 7.52004 0.0048266 0.00438372 -0.00284141
811 1 7.55894 3.01735 6.54777 -0.00617284 0.00391832 -0.00592897
812 1 7.60025 4.53888 6.76915 0.00219423 -0.00355971 -0.00323463
813 1 8.83593 4.15901 8.9182 0.0050484 0.00210162 0.000735988
814 1 6.26677 4.16734 8.86816 0.000991489 -0.00454796 0.00504283
815 1 7.55233 2.31379 7.87346 0.0069838 -0.0119699 0.000776544
816 1 5.03382 3.05496 6.51991 0.00436996 -0.00461164 0.000147046
817 1 6.30442 2.66145 8.67705 0.00762261 0.0107455 0.0138866
818 1 3.76491 2.66854 8.62403 0.00716928 -0.00117229 0.000818083
819 1 5.03602 0.774175 7.57517 0.00607152 -0.000310878 0.00567284
820 1 5.00062 2.2698 7.81701 -0.00270759 -0.00756331 0.00350618
821 1 6.2752 1.91515 9.98724 0.00279875 -0.00269941 0.00323292
822 1 3.75498 1.93471 10.0331 -0.00697873 -0.00781553 -0.000287401
823 1 5.07393 0.0407098 8.90563 -0.00312902 -0.0054866 -0.00149969
824 1 2.5491 0.774017 7.60747 0.000209605 -0.000620142 -0.00108479
825 1 3.74831 0.437605 9.81676 -0.00414721 0.00587961 -0.0109414
826 1 1.21461 0.406538 9.74082 0.00225637 0.00523655 -0.00461567
827 1 2.48426 0.0168132 8.95663 0.00372848 0.00567687 0.00281328
828 1 21.4152 14.0757 3.21065 -0.000396428 -0.00194214 -0.00917918
829 1 21.4618 13.3627 4.56545 0.0056853 -0.00241835 -0.000599654
830 1 20.0929 12.1635 2.17557 -0.00156193 0.000657473 -0.00192858
831 1 21.3927 11.8247 4.36139 0.000311742 0.00470682 0.00384056
832 1 18.8978 11.8092 4.36486 -0.0040809 0.00949909 0.0040846
833 1 20.1092 9.89763 3.29117 -0.00105314 0.00707896 -0.00327895
834 1 20.1043 11.4414 3.54739 -0.00113891 0.00163356 -0.00545063
835 1 21.4207 11.1277 5.71519 0.00140778 -0.0085576 -0.00229247
836 1 18.8584 11.0315 5.67107 -0.0009494 -0.00648935 -0.00189485
837 1 20.1608 9.14751 4.59086 0.0123123 0.00220272 0.00250611
838 1 17.6302 9.87094 3.28407 0.00193736 -0.0074303 0.00391671
839 1 18.9242 9.53275 5.40079 0.00701911 -0.0114796 -0.00802266
840 1 16.3418 9.45782 5.39912 -0.004225 0.00345271 0.0031735
841 1 17.5839 7.60268 4.37916 -0.0072307 0.00298551 0.00140756
842 1 17.6146 9.12718 4.61366 0.00117783 -0.00106404 -0.00280169
843 1 18.9129 8.72314 6.72798 -0.0046012 0.00535219 -0.000124363
844 1 16.362 8.70845 6.76619 -0.0138952 0.00117626 -0.00694947
845 1 17.6133 6.83851 5.67794 -0.000242812 -0.00914406 0.00955584
846 1 15.0718 7.58837 4.36266 0.00741759 0.00166908 0.0069155
847 1 16.324 7.19444 6.49537 0.00266623 -0.0022013 -0.00242413
848 1 13.8212 7.13585 6.54722 0.00169013 -0.00853589 0.00217288
849 1 15.1296 5.29808 5.47498 0.00343554 -0.00152568 0.0129173
850 1 15.0727 6.80548 5.75313 -0.00410049 0.0051866 0.0151797
851 1 16.3025 6.44178 7.91454 0.000982654 -0.00491552 -0.00423382
852 1 13.8502 6.45588 7.86212 -0.00510472 0.00558197 -0.00394271
853 1 15.0404 4.52657 6.80511 -0.00148059 -0.00877183 -0.001487
854 1 12.5961 5.33424 5.39252 -0.000784999 0.00449133 0.000966616
855 1 13.8475 4.95024 7.63893 0.0097491 0.00166822 0.00256303
856 1 11.3811 4.90771 7.59739 -0.00136249 0.00333382 0.0024781
857 1 12.6407 3.05747 6.47439 -0.00410263 0.00881626 -0.000428788
858 1 12.6362 4.5134 6.79851 -0.0046959 -0.00580469 -0.00189122
859 1 13.8675 4.15765 8.96187 0.00651345 0.00676723 0.00595489
860 1 11.419 4.17448 8.95132 0.00203173 0.00519553 0.000277857
861 1 12.6297 2.28246 7.81181 0.00487258 -0.00298041 0.00839882
862 1 10.1127 3.05232 6.5097 0.0040211 -0.0103855 0.000360271
863 1 11.3492 2.69835 8.61895 0.00019828 0.00091882 0.00850147
864 1 8.85453 2.66761 8.69822 -0.00337272 0.000239787 0.00673641
865 1 10.1222 0.724853 7.56724 0.000612829 -0.00362972 -0.00287485
866 1 10.0842 2.31028 7.85958 -9.07064e-05 0.00625355 -0.00388442
867 1 11.3533 1.90342 9.94065 -0.00101019 -0.00472715 0.000622279
868 1 8.82426 1.95439 9.96537 -0.000751866 0.000676566 0.000956629
869 1 10.1339 0.0429052 8.85393 0.000658173 -0.00580259 0.00377367
870 1 7.64788 0.800384 7.56377 -0.00359287 -0.0013604 -0.00224442
871 1 8.81247 0.393635 9.69319 -0.00966406 0.00360302 0.000462806
872 1 6.25568 0.396246 9.71806 -0.00699104 0.00011254 -0.00402112
873 1 7.56656 0.0145858 8.89978 -0.00168704 0.00328838 -0.00768593
874 1 21.4208 9.46776 5.41793 -0.000740924 0.00247625 -0.00275234
875 1 21.4354 8.71962 6.76882 -0.00393744 -0.00485446 -0.00225819
876 1 20.1233 7.55416 4.31853 -0.00129552 0.00231113 0.000849747
877 1 21.3905 7.22917 6.3876 0.0117272 -0.00119521 -0.00314245
878 1 18.8551 7.2225 6.50275 -0.00642504 -0.00543836 0.00176861
879 1 20.1407 5.30321 5.38802 -0.00264276 -0.00603253 -0.00241849
880 1 20.1149 6.86426 5.65636 -0.00817973 0.000209688 -0.00162181
881 1 21.3946 6.49659 7.83208 -0.00547569 0.00453764 -0.00576258
882 1 18.8782 6.4627 7.86312 0.00539199 -0.00224921 0.00555919
883 1 20.163 4.57927 6.78868 0.000276034 -0.00166424 0.0044658
884 1 17.6119 5.27505 5.34948 -0.00212082 0.00144325 -0.00207402
885 1 18.9082 5.0039 7.59999 -0.00489957 -0.000860019 0.00102721
886 1 16.3161 4.94245 7.60258 -0.000342363 0.00309754 0.00174616
887 1 17.6348 3.07679 6.51896 0.00223806 -0.00527879 0.00449657
888 1 17.5974 4.59952 6.7936 -0.00190306 -0.000133534 0.00792196
889 1 18.8666 4.2104 8.86319 -0.00189787 -0.0112725 -0.00316095
890 1 16.3332 4.1283 8.92414 0.00224165 0.00417229 0.0101472
891 1 17.6805 2.30425 7.81446 -0.00298326 -0.0024402 -0.00217368
892 1 15.1315 2.98347 6.47222 -0.00105377 -0.00281728 0.00249379
893 1 16.4284 2.66299 8.70811 0.00307917 0.00110494 0.00312536
894 1 13.8639 2.68865 8.63433 0.00555133 -0.00280918 -0.00228783
895 1 15.1707 0.764306 7.58129 -0.00909189 0.00301062 0.00388799
896 1 15.171 2.32599 7.85279 0.00281878 -0.00410406 0.0114819
897 1 16.4125 1.91823 9.99332 -0.007182 0.0023178 0.000718295
898 1 13.8355 1.98706 10.0382 -0.000180572 0.0014321 0.00690903
899 1 15.1322 0.00965313 8.95149 0.00179026 -0.00667994 0.00300551
900 1 12.6389 0.772706 7.58615 0.00738544 -0.00201699 -0.00376383
901 1 13.897 0.371111 9.71848 0.00621199 0.00509182 -0.00506836
902 1 11.2975 0.382669 9.72529 0.00426083 0.00737512 0.00566762
903 1 12.6201 0.0319236 8.93452 0.000732887 0.00552462 0.00357261
904 1 21.4368 4.95866 7.54531 0.0050914 0.000745739 0.000462482
905 1 21.3922 4.20783 8.97776 0.00340702 0.00427716 -0.00590068
906 1 20.1547 3.05766 6.49812 0.000836608 0.00580314 0.003361
907 1 21.4763 2.72039 8.71904 -0.00399617 0.00713674 0.00339355
908 1 18.9511 2.70736 8.64669 0.00316519 0.00628976 -0.00161411
909 1 20.1387 0.784005 7.57925 -0.00620328 -0.000424797 0.00743519
910 1 20.1772 2.32389 7.86762 0.00200103 -0.00340226 0.000950869
911 1 21.4168 1.90309 10.0529 0.00481914 0.00183332 -0.00696061
912 1 18.8905 1.9092 9.96952 1.23278e-05 -0.0048935 -0.00546177
913 1 20.1452 0.0349395 8.91324 0.00406794 -0.000780173 -0.000651693
914 1 17.6765 0.699755 7.55315 0.0019943 -0.000144739 -0.00486438
915 1 18.9185 0.415679 9.71571 -0.000314626 0.00999281 0.000192765
916 1 16.3807 0.439555 9.67807 -0.0101833 0.00640075 0.00113218
917 1 17.6579 25.0673 8.90644 -0.00621038 -0.000139354 -0.00397308
918 1 21.4242 0.394581 9.75121 0.00382537 -0.00724943 0.00362556
919 1 0.0487434 24.3276 1.37497 0.00370864 0.00533133 0.000970764
920 1 5.01161 24.3595 1.35202 0.00830869 0.000202273 0.00320445
921 1 3.73797 24.6813 2.16465 0.000871958 -0.00517806 -0.00356736
922 1 1.28796 24.7384 2.16302 -0.00217064 -0.00650797 0.00570399
923 1 2.49268 22.8066 1.10669 0.00883143 -0.00513392 0.00243298
924 1 2.52793 24.3243 1.33415 -0.0106045 0.00369164 0.00878995
925 1 3.79117 23.9566 3.55524 -0.00654857 -0.00725785 -0.000564864
926 1 1.208 23.9599 3.46307 -0.00621873 -0.00963496 -0.00454924
927 1 2.49565 22.08 2.48139 -0.00109952 0.00278894 -0.00275476
928 1 0.0301276 22.8604 1.12941 -0.00143843 0.000593032 -0.000575173
929 1 1.24105 22.4494 3.21052 -0.000870764 0.00931309 -0.00513261
930 1 22.6612 20.5469 2.22109 -0.00614341 -0.000550328 -0.00581652
931 1 22.6821 22.0844 2.40813 0.00102504 0.00148101 2.66652e-05
932 1 1.23509 21.6736 4.56943 0.00946476 -0.00192752 0.00631473
933 1 22.6692 19.7928 3.51824 -0.00201169 -0.00236759 -0.00612249
934 1 10.0865 24.2948 1.36193 -0.00583417 -0.00296756 0.0014788
935 1 8.79047 24.7235 2.17543 0.000851394 -0.00170969 0.00256268
936 1 6.30229 24.7025 2.12988 0.00187859 -0.00014319 0.0137377
937 1 7.59718 22.8277 1.12125 -0.00354559 0.00509826 0.00250035
938 1 7.58526 24.3288 1.31822 0.00279401 -0.00123625 0.00179468
939 1 8.82556 23.9401 3.49049 -0.00593196 0.00394016 -0.00165838
940 1 6.25809 23.9626 3.43224 -0.00446286 0.00129357 -0.0052191
941 1 7.56607 22.0252 2.39965 -0.00886109 0.00587971 0.00314063
942 1 5.07631 22.8138 1.04339 0.00556644 0.00081751 -0.00335409
943 1 6.3155 22.4082 3.2232 0.00881333 -0.00683056 -0.00260955
944 1 3.81841 22.418 3.27207 0.00266336 0.010453 -0.00167532
945 1 5.06213 20.5283 2.14075 0.00536106 0.0156456 -0.00406898
946 1 5.01829 22.0476 2.41751 0.00433503 0.0090511 0.00175237
947 1 6.32257 21.7095 4.58283 0.00337857 0.00148756 -0.00300053
948 1 3.78532 21.6576 4.60603 -0.00283903 -0.0037995 0.00366095
949 1 5.01702 19.7522 3.46683 -0.00394229 0.00658727 -0.00254886
950 1 2.51488 20.568 2.14568 -0.00390144 -0.00627106 0.000135146
951 1 3.79969 20.1349 4.32175 -0.000596815 -0.00283223 0.00204381
952 1 1.20179 20.1734 4.34599 -0.00334599 0.00533879 -0.00398077
953 1 2.50688 18.295 3.19019 -0.00184208 -0.000420801 0.000111804
954 1 2.54901 19.8014 3.49119 0.00494402 2.31213e-05 0.00797302
955 1 3.73629 19.3913 5.72504 -0.00140796 0.00404173 0.00892798
956 1 1.16346 19.4297 5.69794 -0.000949849 0.00511473 0.00881045
957 1 2.52391 17.4826 4.57883 0.00311547 -0.00423327 0.00304403
958 1 22.6626 18.251 3.32676 0.00117986 -0.00346469 -0.00231504
959 1 1.27852 17.8229 5.40657 0.00139101 -0.00155242 0.000775832
960 1 22.6554 15.9287 4.27275 -0.00479074 -0.00632762 -0.000505757
961 1 0.000707383 17.4785 4.6051 -0.00319152 -0.00163227 -0.00711263
962 1 1.22278 17.1244 6.77066 -0.0148193 -0.00166647 -0.00069609
963 1 22.6882 15.2534 5.66045 0.000257198 0.00242885 -0.00137515
964 1 15.1567 24.2664 1.42021 0.00209099 -0.0019406 0.00203866
965 1 13.8794 24.7165 2.14049 0.000615053 0.00265928 0.000314662
966 1 11.3384 24.6927 2.18969 0.00709002 -0.00516143 0.00443143
967 1 12.6862 22.786 1.09859 -0.000527488 -0.00141125 -0.00497951
968 1 12.5969 24.3523 1.36468 0.0100494 -0.00112144 -0.00477566
969 1 13.8903 23.925 3.4853 0.00849058 -0.000390101 0.00902567
970 1 11.3293 23.891 3.51636 0.00496197 0.00524964 -0.00449594
971 1 12.6485 22.0184 2.44573 0.00640497 -0.00303549 0.000724501
972 1 10.1365 22.8072 1.14864 -0.00612878 0.00404396 -0.00344539
973 1 11.3127 22.4176 3.25937 -0.00317034 -0.00195414 -0.00634085
974 1 8.81373 22.4559 3.26043 -0.00121641 0.00470679 0.00215519
975 1 10.0669 20.5181 2.15573 -0.00470564 0.00416858 -0.00148067
976 1 10.0642 22.0391 2.42647 -0.00913103 0.00355478 0.00775794
977 1 11.3777 21.6411 4.67015 -0.000451693 0.0125403 0.00220469
978 1 8.83793 21.6135 4.59762 0.00486828 -0.00463533 0.00249052
979 1 10.0775 19.731 3.5524 0.00240343 0.00837385 0.00256623
980 1 7.57567 20.4895 2.1094 -0.00286564 0.00723255 0.00275707
981 1 8.81156 20.049 4.34275 0.00313472 0.00483538 0.0060212
982 1 6.32777 20.1447 4.27216 -0.00631236 -0.00248239 0.00461595
983 1 7.51089 18.2264 3.26087 -0.00642015 -0.00152871 -0.00377144
984 1 7.58777 19.7754 3.50617 -0.00433281 -0.00284455 -0.0032367
985 1 8.83396 19.363 5.7135 0.00570845 -0.000362298 0.00797572
986 1 6.31912 19.3835 5.634 0.00441522 0.00429595 0.00419305
987 1 7.57764 17.4715 4.59777 -0.00379436 0.00747402 -0.00165832
988 1 5.0323 18.1633 3.26111 0.000719057 -0.0077029 -0.00143693
989 1 6.37365 17.8904 5.43943 -0.00972646 0.00448616 -0.00345803
990 1 3.7795 17.8346 5.43951 0.000573367 -0.00122532 0.00373342
991 1 5.10677 15.9752 4.38061 -0.00707059 -0.00940881 -0.000218744
992 1 5.03941 17.4798 4.66842 -0.00556101 0.00735705 -0.00197059
993 1 6.314 17.1403 6.79551 0.00188373 -0.00702782 0.0042143
994 1 3.74988 17.0772 6.75044 0.00590585 -0.0088068 -0.00232225
995 1 5.05792 15.2408 5.71881 -0.0024374 -0.00454411 0.000582212
996 1 2.53544 15.9452 4.30905 0.00865526 0.00216803 -0.00396073
997 1 3.7679 15.5448 6.56598 -0.00101523 -0.00165262 -0.00202115
998 1 1.27174 15.5913 6.48068 0.00897288 -0.00499564 0.00377735
999 1 2.54955 13.6888 5.37989 0.00559002 -0.00792823 0.00525922
1000 1 2.57214 15.2065 5.7315 -0.00611792 -0.00260002 -0.00673064
1001 1 3.786 14.791 7.91307 0.00382669 -0.00311527 -0.00148807
1002 1 1.284 14.8447 7.86587 -0.000219308 -0.010186 0.0051588
1003 1 2.53361 12.9203 6.75507 -0.001527 0.00288048 -0.00711492
1004 1 0.0427285 13.6891 5.40401 -0.00363248 -0.00197465 -0.000182893
1005 1 1.28993 13.3607 7.52279 -0.00706368 0.00705672 -0.00334408
1006 1 22.6818 11.4485 6.47752 -0.00258453 -0.00633023 0.000977903
1007 1 0.0348436 13.0018 6.80503 -0.00121603 0.00200844 0.00420583
1008 1 1.23099 12.5652 8.93429 0.00423147 0.00205862 0.00115445
1009 1 22.6684 10.6989 7.79543 -0.00582527 0.00530709 -0.000469944
1010 1 20.1192 24.2939 1.35721 -0.00675809 0.000578117 0.00730729
1011 1 18.8872 24.7193 2.12352 -0.000437079 -0.000874691 -0.011306
1012 1 16.377 24.6952 2.20745 0.00435888 -0.00462172 -0.00142942
1013 1 17.6605 22.7634 1.11255 0.00574806 0.00602209 0.00179929
1014 1 17.5939 24.298 1.36831 0.0112462 0.00446787 0.00400971
1015 1 18.9228 24.033 3.49881 0.000215331 -0.00231344 0.0045855
1016 1 16.4187 23.9131 3.49008 0.00459676 0.0105762 -0.00424607
1017 1 17.6521 21.9707 2.45625 -0.00339842 -0.000854565 -0.00317357
1018 1 15.1206 22.8057 1.06335 -0.00530061 0.00508017 -0.00510672
1019 1 16.3889 22.3938 3.18591 0.000169086 -0.00794248 -0.0028969
1020 1 13.8688 22.3901 3.23959 0.00652379 -0.0070705 0.00107304
1021 1 15.1209 20.5075 2.13246 0.00217067 -0.000696685 -0.00235631
1022 1 15.1341 22.0471 2.42095 0.00146218 -0.0138797 -0.00389002
1023 1 16.3893 21.654 4.59374 0.00211898 0.00230991 -0.00106217
1024 1 13.8956 21.6109 4.58555 -0.0087036 0.00315336 -0.00472949
1025 1 15.0706 19.7681 3.50779 0.000809018 0.00898971 0.00139993
1026 1 12.6415 20.5436 2.13593 -0.00363506 -0.00309255 0.0019774
1027 1 13.8364 20.1664 4.29361 -0.00294561 -0.0075126 0.0015479
1028 1 11.3929 20.1123 4.35697 -0.0061718 0.00482764 0.00126592
1029 1 12.6439 18.2612 3.30797 -0.00219366 7.42915e-05 0.00538674
1030 1 12.6196 19.7837 3.50859 -0.000756375 0.00042822 -0.0025107
1031 1 13.8246 19.4108 5.71054 0.000942775 0.00317361 0.00314205
1032 1 11.3495 19.3747 5.68766 -0.0020276 -0.000683462 -0.00782261
1033 1 12.6047 17.4982 4.65886 0.00792036 0.00151384 0.00651064
1034 1 10.0407 18.2105 3.31928 0.00630503 -0.00477822 0.00408385
1035 1 11.3476 17.857 5.45098 0.00454746 0.00328105 -0.00644513
1036 1 8.82352 17.9041 5.42545 0.00226798 0.00184349 0.00443793
1037 1 10.0751 15.9902 4.36042 0.00102791 -0.00325577 0.00373417
1038 1 10.0771 17.4902 4.65316 0.00159653 -0.0034858 -0.00316152
1039 1 11.382 17.07 6.8023 -0.0071957 -0.000721435 0.00464564
1040 1 8.81382 17.1424 6.76337 -0.000634608 -0.0132857 0.00451111
1041 1 10.0332 15.2246 5.76852 0.00732522 0.00311248 0.00883756
1042 1 7.60596 15.8772 4.34777 -0.00906797 0.00716809 0.00234111
1043 1 8.83464 15.5815 6.57395 -0.00155775 0.00441646 0.00507451
1044 1 6.29152 15.5901 6.52731 -0.000145198 -0.00749357 -0.00464434
1045 1 7.5753 13.7204 5.45246 -0.00621618 0.000397845 -0.00816955
1046 1 7.5893 15.2706 5.70972 0.00102498 0.0059941 3.88105e-05
1047 1 8.84117 14.7832 7.91707 0.00082079 0.00214231 0.0085909
1048 1 6.27086 14.8452 7.83988 -0.0125012 0.000692266 0.00031015
1049 1 7.50499 12.9385 6.79248 0.00586618 0.00197301 0.00351003
1050 1 5.10469 13.7361 5.41473 -0.00590082 -0.00465713 -0.00243873
1051 1 6.29499 13.3065 7.65035 0.0123904 -0.00476098 0.00829695
1052 1 3.75913 13.2847 7.58416 0.00233818 0.000169131 0.00524266
1053 1 4.94359 11.3929 6.51752 0.00288851 -0.00100876 0.00104979
1054 1 5.00042 12.9253 6.79192 0.00381751 -0.00521415 -0.00358731
1055 1 6.24891 12.5259 9.02293 -0.00393323 -0.0050786 0.00268067
1056 1 3.72316 12.5313 8.90431 0.010532 0.00733611 -0.00104708
1057 1 4.99855 10.6331 7.89298 0.000669201 -0.00572072 0.00658741
1058 1 2.51129 11.4532 6.49918 0.00880545 -0.00437892 -0.0025458
1059 1 3.744 10.9993 8.69514 0.00424262 -0.00685574 0.00784219
1060 1 1.25538 11.0409 8.61211 0.00275051 -0.00195896 0.00541659
1061 1 2.52023 9.13877 7.57325 -0.000765747 -0.00150357 -0.00158499
1062 1 2.5296 10.6759 7.84761 -0.00157244 0.000258365 0.00104901
1063 1 3.71148 10.2477 9.99583 0.00243501 0.000371973 -0.00375068
1064 1 1.20741 10.2863 9.98319 0.00371092 -0.00269417 0.0025594
1065 1 2.50971 8.36684 8.8974 0.00323049 -0.00550571 -0.00429209
1066 1 0.00915254 9.12322 7.57577 -0.000837833 0.00260244 -0.0119198
1067 1 1.21264 8.73169 9.75173 -0.00712055 -0.0120458 -0.000677758
1068 1 22.6405 6.86326 8.69356 0.00262759 -0.00605252 -0.00151806
1069 1 22.6686 8.36949 8.95465 -0.00153187 0.00388622 0.0113151
1070 1 1.23672 8.03099 11.1164 0.00483946 -0.00881042 0.0115021
1071 1 0.00777965 6.05411 10.0267 -0.00228745 -0.00160053 0.00178698
1072 1 21.4364 24.6848 2.17123 -0.00157142 -0.0046228 0.000111145
1073 1 21.4412 23.9981 3.49267 -0.00154658 -0.0077842 0.00330548
1074 1 20.165 22.794 1.09444 0.0083607 -0.00582681 0.00148938
1075 1 21.4309 22.4251 3.19329 0.00462675 0.00174786 -0.00952223
1076 1 18.9607 22.418 3.26149 -0.00446284 -0.00407904 -0.00132413
1077 1 20.1049 20.5137 2.16544 0.00648207 -0.00287512 0.00260552
1078 1 20.1644 22.0562 2.42672 -0.00349401 -0.00881244 -0.00783282
1079 1 21.4536 21.7211 4.62476 -0.00355705 0.00233334 -0.00431593
1080 1 18.9731 21.7281 4.5886 -0.000865918 -0.0107639 0.0080962
1081 1 20.1772 19.7915 3.50558 -0.00322218 -6.1033e-05 0.0142065
1082 1 17.683 20.5345 2.10716 0.00645178 -0.0046378 -0.000363454
1083 1 18.9189 20.1635 4.27045 -0.00534264 -0.00307822 0.0080994
1084 1 16.4111 20.1165 4.29417 0.00710493 0.00290229 0.00855941
1085 1 17.6729 18.2047 3.25876 0.000166659 -0.00317204 0.00118871
1086 1 17.644 19.7449 3.45911 0.00196716 -0.00869734 0.00635202
1087 1 18.8624 19.4633 5.64398 0.00258323 0.00242867 0.003298
1088 1 16.3512 19.3867 5.67442 -0.00248771 -0.00995064 -0.00169151
1089 1 17.6291 17.4989 4.65518 -0.00151489 0.00051258 0.00141896
1090 1 15.1346 18.2461 3.24921 -0.000148757 -0.0112062 0.00494609
1091 1 16.4109 17.8878 5.49027 -0.00247669 0.00455815 -0.00464717
1092 1 13.8354 17.8557 5.4455 -0.00035152 -0.00238816 -0.000958486
1093 1 15.1236 15.9464 4.34488 -7.78399e-05 -0.00471425 0.00339839
1094 1 15.0941 17.4535 4.61094 0.00422603 -0.00382704 0.00148669
1095 1 16.4109 17.1544 6.8203 0.00554111 0.00405351 0.00690203
1096 1 13.8735 17.0941 6.73717 -0.00493581 -0.00251672 -0.00592664
1097 1 15.2002 15.203 5.68414 0.00441703 0.0048283 0.00375267
1098 1 12.6473 15.9707 4.34266 0.0116723 0.000419255 -0.000956847
1099 1 13.8371 15.5418 6.52797 -0.00505068 0.00199946 -0.00172575
1100 1 11.3901 15.615 6.50221 0.000709858 -0.000750723 0.00177037
1101 1 12.5649 13.6492 5.41305 -0.00838792 -0.000542171 0.00418978
1102 1 12.6185 15.2353 5.71869 0.000581032 -0.00587078 0.00115287
1103 1 13.8545 14.7881 7.87695 -0.00132174 -0.00156826 -0.000499113
1104 1 11.3415 14.845 7.83368 -0.00485264 -9.39602e-05 0.0104201
1105 1 12.5612 12.9138 6.79528 -0.00276814 0.00288427 0.00154894
1106 1 10.0773 13.7058 5.44408 0.00255218 -0.00328949 -0.00105547
1107 1 11.2926 13.3268 7.5801 0.00617123 -0.000845909 0.00410438
1108 1 8.78174 13.2747 7.59413 0.0112384 0.00295705 0.00760138
1109 1 10.0811 11.3973 6.46753 -0.00608052 -6.06096e-05 0.00207935
1110 1 10.0173 12.9342 6.77194 0.00208561 -0.00806674 0.000370819
1111 1 11.3258 12.6045 8.89981 0.00465935 -0.000600857 -0.00296398
1112 1 8.81181 12.5195 8.93484 0.00972296 0.00925626 -0.00739858
1113 1 10.1158 10.671 7.87572 0.00385317 0.00481242 -0.000626619
1114 1 7.47172 11.4079 6.54136 0.000271477 -0.00417319 0.00360866
1115 1 8.80401 11.0606 8.68236 0.00117738 0.000410809 0.00389617
1116 1 6.28918 11.0208 8.66286 0.0040823 0.00584954 -0.00347146
1117 1 7.53603 9.17551 7.60119 -0.00232231 -0.00957579 0.00146722
1118 1 7.5211 10.6697 7.86261 0.00452854 -0.00636779 0.00755482
1119 1 8.77446 10.2672 10.0318 -0.00183553 -0.00529454 0.00660945
1120 1 6.23992 10.2369 10.0434 -1.06309e-05 -0.00393819 0.00121652
1121 1 7.50342 8.36464 8.96485 -0.00159814 0.00135432 -0.00133131
1122 1 4.96499 9.15248 7.56818 0.00828202 -0.00166919 -0.00595488
1123 1 6.23873 8.75001 9.74393 0.00161087 0.00518844 0.00350007
1124 1 3.78444 8.73085 9.73775 -0.00604111 0.00344654 -0.000894129
1125 1 5.04643 6.82936 8.63525 -0.00688595 0.00252253 -0.0041835
1126 1 4.9633 8.36794 8.90771 0.00586483 0.00191249 0.00463755
1127 1 6.23261 7.97138 11.1128 0.00728214 -0.00703225 -0.0025039
1128 1 3.74138 7.98388 11.0992 -0.0013213 -0.00583422 -0.00408831
1129 1 5.02586 6.12963 10.002 -0.00476807 0.0070445 0.00258349
1130 1 2.50349 6.88056 8.60718 -0.00349052 0.00425173 0.00341771
1131 1 3.76746 6.47292 10.8415 0.0013122 0.0118001 0.0101021
1132 1 1.26385 6.47588 10.8367 0.00393538 -0.00789363 0.000524785
1133 1 2.50876 4.56179 9.78456 -0.00450076 -0.00601328 0.00804354
1134 1 2.51849 6.1573 9.9844 0.00192409 -0.00257354 0.00705596
1135 1 3.77929 5.72157 12.2289 -0.00531539 -0.0163536 0.00475535
1136 1 1.24266 5.7386 12.1796 -0.00616255 -0.00358922 0.000168681
1137 1 2.49208 3.84786 11.1202 -0.000717589 -0.00184403 -0.000274724
1138 1 22.6616 4.55901 9.7764 0.00814111 -0.00141331 -0.00325266
1139 1 1.20978 4.17811 11.9293 0.00333386 -0.00468861 0.00646603
1140 1 22.6785 2.25021 10.8799 0.00791558 -0.00499743 0.00192201
1141 1 22.6811 3.79657 11.1612 -0.00604925 0.00192165 0.00785928
1142 1 1.34176 3.42539 13.2107 -0.0136819 0.0055219 0.00288292
1143 1 0.00544162 1.54236 12.2293 0.00316206 -0.00211771 0.00267392
1144 1 21.401 20.2037 4.33079 0.00400059 0.00516243 -0.00806573
1145 1 21.4276 19.3915 5.69737 -0.000867049 0.000602111 0.00946173
1146 1 20.182 18.3205 3.2635 -0.000218127 0.00205882 -0.00652849
1147 1 21.48 17.9044 5.4609 -3.35184e-05 -0.0139604 -0.0016782
1148 1 18.9299 17.9482 5.38186 -0.00148389 0.00521917 0.00559375
1149 1 20.1721 16.0223 4.30606 -0.0076386 0.0061307 0.00330093
1150 1 20.218 17.5518 4.61456 0.00927041 3.24858e-05 0.00177467
1151 1 21.4324 17.0717 6.81235 0.00723138 0.00957914 0.000304304
1152 1 18.9576 17.1238 6.7496 0.00577133 -0.00215006 -0.00268531
1153 1 20.2063 15.2525 5.60654 -0.00340998 -0.00764425 0.00248621
1154 1 17.6641 15.9846 4.31966 0.00521087 -0.00215191 -0.00291335
1155 1 18.9134 15.6169 6.49354 0.00241901 0.000291968 0.0112084
1156 1 16.395 15.6479 6.53849 -0.00303003 0.00752044 0.00265319
1157 1 17.6599 13.7435 5.3919 0.00798053 0.00817963 -0.00460558
1158 1 17.6913 15.2529 5.71252 -0.00279151 -0.000190633 0.0066815
1159 1 18.8765 14.8745 7.83162 0.00530874 0.00703874 0.00324202
1160 1 16.3968 14.7993 7.8485 -0.00418139 -0.000946299 -0.00776727
1161 1 17.6523 12.9928 6.76518 -0.00111631 -0.00276974 0.00753613
1162 1 15.1556 13.7093 5.37352 0.00626352 0.0069931 -0.0102743
1163 1 16.3874 13.3385 7.54468 -0.000202001 -0.00805491 -0.00353497
1164 1 13.8082 13.2899 7.5896 -0.00574156 -0.0124503 0.00428775
1165 1 15.1134 11.4267 6.45535 -0.00245712 -0.00244441 0.00382519
1166 1 15.0985 12.9908 6.68373 0.00361806 -0.00305876 0.00761608
1167 1 16.4065 12.4983 8.82111 -7.00508e-05 -0.00374131 0.00252256
1168 1 13.8801 12.5048 8.87158 0.0124391 -0.00175531 0.00229632
1169 1 15.1042 10.6055 7.83492 -0.00280387 0.00250702 0.00200719
1170 1 12.5351 11.3503 6.53016 -0.00762363 -0.00743496 0.00144227
1171 1 13.8341 11.0238 8.66959 -0.00282813 -0.00121441 -0.000994079
1172 1 11.3563 11.0674 8.67545 0.000783387 0.00639574 0.00303755
1173 1 12.6027 9.12143 7.62283 0.00337958 0.00845875 -0.00259349
1174 1 12.5854 10.627 7.88159 0.0104867 -0.00631361 0.00480336
1175 1 13.8327 10.2669 10.048 -0.00891094 0.0136068 0.00638646
1176 1 11.2962 10.2631 10.0016 -0.00218061 -0.00590722 0.00352994
1177 1 12.542 8.38838 8.93283 -0.000369835 -0.00246752 0.00380028
1178 1 10.0454 9.17476 7.60566 0.00660756 0.00288284 0.0101817
1179 1 11.2557 8.75304 9.74591 -0.00569699 -0.0055087 0.00164551
1180 1 8.77636 8.70679 9.78008 0.00157458 0.00660803 0.000518609
1181 1 10.0518 6.87569 8.67544 -0.00712886 -0.00484386 -0.00185037
1182 1 10.0283 8.38837 8.91175 0.00507908 0.00307867 0.00597464
1183 1 11.3275 8.01407 11.0871 0.000488745 0.00381121 -0.00528013
1184 1 8.83906 7.94055 11.0517 0.00701736 -0.000746173 -0.00421144
1185 1 10.0858 6.13344 10.0248 -0.00300516 -0.00181407 0.00354782
1186 1 7.53873 6.87046 8.63292 -0.00555202 -0.00278069 -0.000760468
1187 1 8.77983 6.4234 10.7858 -7.36583e-05 -0.00471078 0.00356359
1188 1 6.29212 6.46658 10.814 0.00173747 -0.00094331 -0.00626465
1189 1 7.5689 4.58979 9.71615 -0.00339844 0.00343725 0.00603727
1190 1 7.55064 6.0149 9.98938 0.0048292 0.00286309 -0.00316098
1191 1 8.78639 5.76542 12.1226 -0.00406397 -0.000425968 -0.00170312
1192 1 6.29816 5.71345 12.1663 0.000547818 0.00599506 0.00657884
1193 1 7.53085 3.80316 11.1026 -0.00407566 0.0106298 0.00295954
1194 1 5.04392 4.56102 9.75478 0.000765821 -0.00357877 -0.00364532
1195 1 6.27654 4.22368 11.854 -0.0125205 -0.0026783 -0.00327996
1196 1 3.75952 4.2188 11.9683 -0.00518846 -0.00280962 0.00354234
1197 1 5.0318 2.31398 10.8321 0.00418458 0.00515803 -0.00709639
1198 1 5.03955 3.78607 11.1138 -0.00340696 0.00876361 0.000246517
1199 1 6.33023 3.4635 13.2417 -0.0084017 0.0029535 0.00538882
1200 1 3.82127 3.42178 13.2638 -0.00200499 -0.00369423 0.00382725
1201 1 5.04323 1.54273 12.1428 -0.00708506 -0.00287707 0.000313321
1202 1 2.4962 2.32437 10.8094 -0.00400948 0.0027699 0.00864355
1203 1 3.77801 1.92881 12.983 -0.00185492 -0.000521747 0.000894226
1204 1 1.29284 1.90034 13.0193 0.000663495 -0.00505742 0.00496185
1205 1 2.50519 0.0111863 11.889 -0.00157452 0.0100398 0.00294732
1206 1 2.51948 1.51428 12.1557 -0.00228591 -0.000233027 0.00743421
1207 1 3.78996 1.15592 14.3569 0.00270796 0.00173134 -0.0036175
1208 1 1.29802 1.13683 14.3599 -0.000331992 0.00456361 -0.00223339
1209 1 0.00876363 25.0534 11.9023 0.00770774 0.000408933 0.00606337
1210 1 21.4446 15.5742 6.53064 -0.00826859 -0.000968893 -0.0004654
1211 1 21.4414 14.7833 7.8394 1.51322e-05 0.00583797 0.00755424
1212 1 20.159 13.7447 5.40516 -0.0078898 -0.00143924 0.00319467
1213 1 21.4257 13.2878 7.58952 -0.00367879 0.00295108 0.00067386
1214 1 18.9475 13.3185 7.56102 -0.00446913 0.0115361 -0.00358574
1215 1 20.1444 11.4235 6.4408 0.00441609 0.00226151 0.00470653
1216 1 20.1858 12.9707 6.70048 -0.00334177 0.00368254 -0.000427411
1217 1 21.4411 12.528 8.89635 0.00173554 0.00348317 0.00439548
1218 1 18.9035 12.5593 8.87928 0.00690104 -0.00940407 0.0021491
1219 1 20.1688 10.6793 7.85083 0.00324388 -0.00957108 -0.00580493
1220 1 17.6232 11.4228 6.44137 -0.00962319 -0.00249573 0.00574338
1221 1 18.9039 11.0434 8.6236 0.0112335 0.00639815 0.00967623
1222 1 16.3379 10.9978 8.64646 -0.000501414 -0.00192552 0.000112424
1223 1 17.5981 9.08007 7.54008 -0.0112862 0.00150452 0.00408386
1224 1 17.6032 10.623 7.75096 0.00370117 0.00474726 0.00671355
1225 1 18.8879 10.3367 10.0034 0.000326897 -0.00166051 0.00475299
1226 1 16.3682 10.2124 10.026 -0.00173621 -0.00237024 0.00174558
1227 1 17.682 8.34338 8.97075 -0.00282146 -0.00503684 0.00983315
1228 1 15.1575 9.02712 7.57555 -0.00157105 -0.00264626 0.0102987
1229 1 16.4139 8.71348 9.76991 -0.00495397 0.00473151 0.00356934
1230 1 13.8463 8.75547 9.76649 -0.00359865 0.00252685 -0.00295694
1231 1 15.0963 6.82255 8.73033 -0.00246702 -0.000748657 0.00553276
1232 1 15.1317 8.36411 8.98902 0.0077482 -0.00260542 -0.00658095
1233 1 16.3647 7.99135 11.1472 -0.00653852 -0.00332007 -9.57448e-05
1234 1 13.901 8.01339 11.127 0.00552118 0.00845812 0.00120891
1235 1 15.1177 6.05727 10.0111 -0.00413029 0.00801496 -0.00529121
1236 1 12.5625 6.8636 8.68358 0.00771762 0.000259734 0.00680132
1237 1 13.8329 6.48536 10.8399 0.00345826 0.00765131 0.00659229
1238 1 11.2622 6.51943 10.8413 0.00391623 -0.000478249 0.0113706
1239 1 12.6355 4.62147 9.69941 0.00318605 -0.00223465 0.00537198
1240 1 12.6017 6.11867 9.99962 0.00280062 -0.00169324 -0.00206847
1241 1 13.8949 5.73176 12.1632 -0.00254991 -0.00468329 0.00469678
1242 1 11.3335 5.70231 12.2008 -0.00172556 0.00329246 -0.00376626
1243 1 12.6218 3.84992 11.1093 0.00243988 -0.00283842 0.0108605
1244 1 10.0907 4.55567 9.72452 -0.0015676 -0.00512262 0.00830234
1245 1 11.3797 4.25679 11.8423 -0.00273847 0.00352783 0.00150786
1246 1 8.79151 4.24863 11.8704 0.00204405 0.000721473 0.000931967
1247 1 10.0852 2.30618 10.7603 0.00233573 -0.00272408 0.00670723
1248 1 10.0387 3.84221 11.0425 0.00134835 0.00263038 -0.006566
1249 1 11.3387 3.3888 13.1824 -0.00241437 -0.000107358 0.00963526
1250 1 8.84712 3.42584 13.2136 0.00841439 0.00117092 -0.0092122
1251 1 10.1061 1.48333 12.1605 -0.00415362 -0.00450013 0.0024464
1252 1 7.56355 2.24713 10.8109 0.00427184 -0.00842593 -0.000884598
1253 1 8.81277 1.91157 12.9406 0.00507152 -0.00551934 0.00462134
1254 1 6.3234 1.90057 12.9724 -0.00743304 0.00717109 -0.00497729
1255 1 7.56212 0.0119294 11.8668 -0.00527391 -0.00765957 0.00347588
1256 1 7.55821 1.53706 12.1659 0.00286728 0.0101151 -0.00601979
1257 1 8.85299 1.21034 14.2923 -0.000974539 0.0013006 -0.00834029
1258 1 6.2559 1.1936 14.3118 0.00316736 0.00262129 0.00723133
1259 1 5.07361 0.00447036 11.9308 -0.00179899 0.000496081 -0.0120468
1260 1 21.4063 11.0458 8.61434 0.00234201 0.00660226 0.00691336
1261 1 21.4239 10.2543 9.97645 -0.00393386 0.000287348 0.00563487
1262 1 20.1873 9.10034 7.60517 0.00501041 -0.00592528 0.00837992
1263 1 21.3874 8.74354 9.75919 -0.0049401 -0.00408968 -0.00334742
1264 1 18.9249 8.73815 9.7462 0.00103588 -0.00368277 -0.0147647
1265 1 20.1589 6.85975 8.59292 -0.00463769 -0.00834928 0.00916376
1266 1 20.1363 8.35329 8.91807 -0.00677091 -0.00425548 0.00240896
1267 1 21.4165 7.96645 11.1319 -0.000390088 -0.00526642 0.00287873
1268 1 18.95 7.97037 11.0782 -0.00617053 -0.000482892 -0.00741354
1269 1 20.1704 6.09257 9.93887 0.000336026 0.00385745 0.00201177
1270 1 17.5918 6.83528 8.71886 0.00638582 -0.0105528 0.00289065
1271 1 18.8921 6.46112 10.828 -0.00630328 -0.00343142 -0.000714141
1272 1 16.3938 6.45193 10.8817 0.00199071 -0.00076971 -0.00547214
1273 1 17.6201 4.5748 9.75695 -0.00322619 -0.00834946 0.00596559
1274 1 17.616 6.0867 9.99505 -0.00256821 0.00101677 0.00329226
1275 1 18.8845 5.73642 12.165 -0.00373814 -0.000615779 -0.00573381
1276 1 16.3838 5.71683 12.1975 0.00862503 -0.00206489 0.0068874
1277 1 17.6708 3.82135 11.0917 0.00177592 -0.0153792 0.00549533
1278 1 15.0939 4.61972 9.73855 0.00189233 -0.00313469 0.0158829
1279 1 16.3563 4.16102 11.9065 0.00485977 -0.00677395 -0.00228956
1280 1 13.8688 4.19922 11.9227 -0.0082641 -0.00318318 -0.00608116
1281 1 15.0936 2.32907 10.7914 -0.00350273 0.00551777 0.00259816
1282 1 15.1566 3.83532 11.0745 0.00332632 0.00207729 0.00523321
1283 1 16.4253 3.40812 13.2788 0.00689274 0.00466061 -0.00820554
1284 1 13.8872 3.40816 13.2677 -0.00709615 0.00815834 0.00428562
1285 1 15.1298 1.54979 12.1616 0.00253364 0.00499709 0.0011331
1286 1 12.5928 2.30455 10.7654 0.00673502 9.68763e-05 0.00407381
1287 1 13.9277 1.90342 12.991 0.00400014 0.00847415 -0.00259223
1288 1 11.3732 1.88408 12.9223 -0.00552029 0.00760874 -0.000168347
1289 1 12.644 0.0269752 11.8742 0.00495759 0.00477623 0.00168162
1290 1 12.6358 1.55743 12.1278 0.00758067 0.00150944 -0.00497618
1291 1 13.8883 1.10464 14.3609 0.00468714 0.00267375 -0.000410806
1292 1 11.38 1.15302 14.2938 0.00722285 -0.00348506 -0.00246189
1293 1 10.0811 0.00487964 11.8421 -0.000342133 0.0026469 -0.00354592
1294 1 21.4298 6.46152 10.8644 -0.00074226 0.00144105 0.000552318
1295 1 21.3864 5.74774 12.2156 0.00351604 -0.000555886 0.00152587
1296 1 20.1391 4.55645 9.73382 0.00197564 0.00189533 0.00392893
1297 1 21.4174 4.17835 11.9306 -0.00165412 0.00129279 0.000291223
1298 1 18.9126 4.19181 11.9036 -0.00508613 0.0153335 0.00706081
1299 1 20.1843 2.25219 10.8172 -0.000112389 -0.000504237 -0.000498903
1300 1 20.1293 3.81745 11.0738 -0.00207162 -0.00277006 -0.00914166
1301 1 21.4548 3.41441 13.2833 -0.00737886 -0.000160878 0.00721212
1302 1 18.9437 3.44739 13.3254 0.00583906 -0.00149685 -0.00228885
1303 1 20.2074 1.53744 12.236 0.00260439 0.0135441 -0.00629432
1304 1 17.6758 2.28589 10.8185 0.000172693 -0.00938926 0.00406335
1305 1 18.9287 1.90708 13.0574 -0.002004 0.00308773 -0.000678435
1306 1 16.4311 1.91443 13.0254 -0.00642171 -0.00418059 -0.0058943
1307 1 17.6644 25.0728 11.9137 0.00298942 0.00749978 0.00202844
1308 1 17.6566 1.54975 12.1932 -5.14288e-05 0.00326365 0.00383672
1309 1 18.8839 1.08501 14.4013 0.00196249 0.00978436 -0.00399971
1310 1 16.4016 1.16051 14.3473 -0.00169279 -0.00272142 0.00227006
1311 1 15.1616 25.0295 11.8737 -0.00636391 0.00101613 0.00725738
1312 1 21.488 1.95016 13.0661 0.00499842 0.00361837 0.0132368
1313 1 21.4989 1.10309 14.4467 0.00804634 -0.00784344 0.00762731
1314 1 20.2016 0.0648082 11.916 -0.00535535 -0.00245819 0.00565648
1315 1 2.54106 24.2944 4.3348 0.000485114 -0.00472044 -0.00150966
1316 1 2.47648 23.5861 5.65686 0.00630619 -0.00398572 -0.00445904
1317 1 0.00510317 24.3401 4.34714 0.000536865 0.00157087 0.0101092
1318 1 1.30805 23.9589 6.47178 -0.00137511 -0.00775927 -0.00169745
1319 1 0.00865516 22.0129 5.4071 -0.00465691 0.00213607 -0.00698183
1320 1 22.6798 23.5868 5.67436 -0.00385844 -0.00456342 -0.00322368
1321 1 1.26809 23.2296 7.86569 -0.00116813 0.00213581 0.00525512
1322 1 0.032971 21.3052 6.76692 -0.00227018 0.00534994 0.00835573
1323 1 7.58877 24.3743 4.28837 0.00798738 0.00327425 -0.003856
1324 1 7.53327 23.5924 5.67151 0.00464064 0.00820344 0.0013125
1325 1 5.05667 24.3514 4.30609 -0.000962548 -0.00420547 0.00431865
1326 1 6.28697 23.9931 6.49315 -0.00919694 -0.00239081 -0.00171397
1327 1 3.78633 23.9268 6.49962 0.000920129 0.000118964 0.00428449
1328 1 5.06091 22.0305 5.42832 0.00187049 0.00108686 0.00151933
1329 1 5.05966 23.5739 5.67815 -0.000619494 -0.00136621 0.00628565
1330 1 6.30672 23.2045 7.8492 0.00203711 -0.00474059 -0.00237289
1331 1 3.7945 23.2166 7.83117 0.000194923 -0.00433687 -0.00382449
1332 1 5.04741 21.3117 6.75003 0.00587661 0.00161891 0.000897831
1333 1 2.53424 22.0537 5.38286 -0.00119176 -0.00364669 -0.00808896
1334 1 3.76999 21.7178 7.62012 -0.00168788 0.00634667 0.00720946
1335 1 1.26281 21.6729 7.51875 -0.00322127 -0.00217171 0.00214092
1336 1 2.49429 19.7918 6.50364 0.00278256 0.00259071 0.00355275
1337 1 2.47255 21.3302 6.74154 -0.00156858 -0.00938222 0.00663336
1338 1 3.80411 20.9224 8.95954 -0.00513048 -0.00537215 0.00700704
1339 1 1.28685 20.9445 8.92623 -0.00423579 0.00113996 0.000333504
1340 1 2.53488 19.0454 7.85964 -0.00132733 -0.00638298 -0.00238558
1341 1 22.6426 19.7819 6.5206 -0.00163472 0.00148512 0.00535179
1342 1 1.28456 19.4413 8.63207 0.00327772 -0.00311165 -0.00681585
1343 1 22.6617 17.4947 7.65239 -0.00186924 -0.00290082 -0.000212254
1344 1 0.000568555 19.0412 7.85407 -0.00237009 0.00314563 -0.00567056
1345 1 1.28539 18.6868 10.0455 -0.016543 0.00162453 -0.00456732
1346 1 0.0241822 16.7114 8.97878 0.0053813 -0.000313221 0.00270261
1347 1 12.6109 24.2427 4.29392 0.00845487 -0.00593099 -0.00711997
1348 1 12.6821 23.4882 5.67473 -0.000149038 -0.000617484 -0.00569953
1349 1 10.0107 24.2881 4.41281 -0.000534338 -0.00027482 -0.00337829
1350 1 11.4274 23.9356 6.49322 -0.00577886 0.00514914 0.0084092
1351 1 8.79965 23.9082 6.52948 0.00521831 0.00243046 0.00888406
1352 1 10.1132 21.9997 5.42528 -0.00791542 -0.000396737 0.00641485
1353 1 10.0768 23.5348 5.71273 0.00577688 -0.000522195 0.00498581
1354 1 11.3691 23.1794 7.83822 0.00426521 0.00430109 -0.00586785
1355 1 8.87223 23.1465 7.87054 0.00325133 0.00287788 -0.00339474
1356 1 10.0793 21.2783 6.76257 -0.00136709 -0.000370886 -0.00182715
1357 1 7.52563 22.0927 5.39155 6.47145e-05 0.00186765 -0.0015674
1358 1 8.85392 21.6188 7.57753 -0.00105863 0.00511726 -0.00112571
1359 1 6.34213 21.6714 7.52961 -0.00246859 0.00639384 -0.000775635
1360 1 7.56228 19.8007 6.4927 0.00439263 -0.00125403 -0.00031131
1361 1 7.53485 21.2853 6.70858 0.000763998 0.00301551 0.00628006
1362 1 8.84899 20.8872 8.91656 0.00342139 0.00506773 -0.00895422
1363 1 6.38921 20.9125 8.94393 -0.000448162 -0.00505922 -0.0133929
1364 1 7.57637 19.0057 7.82139 0.00522401 -0.00106492 0.00215305
1365 1 5.08223 19.7683 6.4974 -0.000397945 0.000424527 -0.00160398
1366 1 6.32846 19.4326 8.67854 0.00315006 0.00308335 0.0018518
1367 1 3.77534 19.4108 8.62362 0.00450332 -0.00123363 -0.00203466
1368 1 5.07204 17.4548 7.59419 0.00505236 -0.00144306 -0.00147439
1369 1 5.07488 19.0621 7.8069 0.0055934 0.00513805 0.00440164
1370 1 6.2652 18.5975 9.99442 -0.0016167 0.00919734 -0.00173239
1371 1 3.7626 18.6325 10.0361 -0.00603642 -0.00492368 -0.00387128
1372 1 5.07013 16.7084 8.95398 -0.00372946 -0.000647685 -0.00515291
1373 1 2.53232 17.5011 7.55076 0.00320227 5.91784e-05 -0.00104347
1374 1 3.77146 17.1184 9.74422 -0.00177731 -0.00446314 -0.00472271
1375 1 1.3364 17.1436 9.74069 0.00108574 0.00940293 0.00551359
1376 1 2.52695 15.2289 8.65348 -0.00373235 0.00397114 -0.0123777
1377 1 2.52757 16.7656 8.89304 -0.000367677 0.00131851 0.00183909
1378 1 3.81078 16.3933 11.1338 0.00111395 -0.00172672 0.00637166
1379 1 1.2779 16.3561 11.0799 0.00293883 0.000240631 -0.00218092
1380 1 2.47373 14.4637 10.0357 0.00201572 0.00061074 -0.00620868
1381 1 22.6445 15.156 8.68102 0.00569127 0.000694489 -0.00279533
1382 1 1.19178 14.8528 10.8187 0.00057191 -0.00528109 0.0114654
1383 1 0.00375417 12.9086 9.70667 -0.00136739 -0.00377394 -0.00153239
1384 1 22.6254 14.4175 10.0169 -0.00197434 0.00626332 -0.00133102
1385 1 1.25885 14.0852 12.1126 0.000796757 0.00953843 0.00670031
1386 1 22.6553 12.1711 11.0984 0.00749466 0.00421878 -0.00188751
1387 1 17.6395 24.3946 4.36404 -0.00511315 -0.00123141 -0.000300883
1388 1 17.6131 23.5684 5.68711 0.00714093 -0.00051177 0.0032192
1389 1 15.103 24.3081 4.28742 -0.0057196 0.00334538 -0.00106146
1390 1 16.3798 23.9483 6.44192 0.015292 0.000385987 0.00193469
1391 1 13.8922 23.9421 6.48579 0.00184633 -0.0022962 0.000709057
1392 1 15.1775 22.0504 5.42607 -0.000251485 0.00124706 0.0037078
1393 1 15.1307 23.5485 5.65434 -0.0011921 -0.00266562 0.00591827
1394 1 16.3744 23.2218 7.78822 0.00479618 9.60819e-05 -0.00225004
1395 1 13.8641 23.2133 7.83041 -0.00531967 0.00363658 -0.00276239
1396 1 15.1654 21.2679 6.75632 -0.00416557 0.0112744 0.0017025
1397 1 12.6442 22.0173 5.43876 -0.00451495 -0.00148336 -0.00242325
1398 1 13.8826 21.6865 7.58207 -0.00154691 0.0110269 -0.00306661
1399 1 11.3529 21.6604 7.5805 -0.0011134 0.00825701 -0.00133555
1400 1 12.5619 19.7744 6.49933 0.00294581 -0.00472098 -9.66569e-05
1401 1 12.5908 21.2679 6.79668 0.00228037 -0.00248791 0.00736053
1402 1 13.9351 20.938 8.95482 -0.00740087 0.000358814 -0.00513568
1403 1 11.3686 20.9708 8.96105 -0.00037797 -0.00473839 0.0122464
1404 1 12.6103 19.0822 7.90743 -0.00638092 -0.00853625 0.0147805
1405 1 10.0426 19.7268 6.49608 -0.00103383 0.00133869 -0.00346937
1406 1 11.3279 19.3764 8.66454 0.00285609 -0.00657942 -0.00546402
1407 1 8.85643 19.4002 8.63232 -0.00659324 0.000632203 0.00659625
1408 1 10.1013 17.5136 7.62717 0.00227507 -0.00357233 0.00548616
1409 1 10.0637 18.9895 7.84086 -0.00414665 0.00445602 0.000493261
1410 1 11.3271 18.5841 10.1157 -0.00869754 -0.000881983 0.00759725
1411 1 8.80363 18.6255 9.98454 -0.00483399 0.00319849 0.00503725
1412 1 10.0656 16.749 8.93746 0.00395788 -0.00200569 0.00141121
1413 1 7.56216 17.4866 7.63261 -0.00359655 0.00184875 0.00386157
1414 1 8.82063 17.1297 9.76727 0.0072902 0.0046184 0.00431937
1415 1 6.32816 17.0355 9.70892 0.00236403 -0.000533962 0.00365666
1416 1 7.55875 15.172 8.65408 0.00773579 0.00192991 0.00521327
1417 1 7.62959 16.7332 8.93583 0.000898199 0.00509411 7.91748e-05
1418 1 8.7978 16.3536 11.0819 -0.00409963 0.00661568 0.00911218
1419 1 6.32654 16.3379 11.0617 0.00515707 -0.000158582 0.00984991
1420 1 7.5558 14.4497 9.95985 -0.00194163 -0.00011669 0.000561581
1421 1 5.05338 15.1882 8.72965 -0.00184156 0.00385556 -0.00100526
1422 1 6.25042 14.8078 10.8824 0.0054092 -0.00507536 -0.00337528
1423 1 3.7212 14.8668 10.8409 -0.000173981 -0.00758902 0.000832236
1424 1 4.99165 12.9338 9.74643 -0.0121104 -0.00635312 -0.00708345
1425 1 4.9894 14.4583 10.0789 -0.00299598 0.00219089 0.000831404
1426 1 6.29529 14.0412 12.184 -0.00152139 0.0120565 0.00613704
1427 1 3.75239 14.0633 12.1352 0.00232624 -0.00227764 -0.00429698
1428 1 4.96134 12.1384 11.0988 0.00755169 0.00451385 0.00246106
1429 1 2.46895 12.9228 9.69895 -0.00885433 0.00359745 -0.0057933
1430 1 3.71888 12.528 11.8489 0.00530297 -0.000718615 -0.00116003
1431 1 1.23564 12.5757 11.8676 0.00115774 0.00226295 -0.00201668
1432 1 2.50402 10.6402 10.8042 0.00360288 -0.00141442 -0.000606323
1433 1 2.4731 12.1866 11.0923 -0.00908604 0.00237348 0.00587845
1434 1 3.65597 11.7536 13.2934 0.0025805 -0.00476943 -0.00223867
1435 1 1.24505 11.8414 13.2012 0.00786688 0.011987 0.00473997
1436 1 2.50328 9.87662 12.1874 0.00245974 0.00109474 0.00466661
1437 1 22.6568 10.6968 10.8018 -0.00463869 0.00128352 0.00289101
1438 1 1.22026 10.2867 13.0099 -0.00848169 -0.0027973 -0.00398767
1439 1 22.6441 8.40714 11.926 0.00120014 0.00719012 0.00706082
1440 1 22.6555 9.89656 12.2398 0.00250404 -0.00998938 -0.00323564
1441 1 1.26943 9.53226 14.3873 0.00247318 0.00696675 0.00714944
1442 1 0.0271087 7.55356 13.2687 -0.000241993 0.00176472 0.00482875
1443 1 20.1308 24.3508 4.29513 0.00442437 0.00154616 -0.000297107
1444 1 21.474 23.9649 6.46568 -0.00704929 -0.000832888 -0.000267146
1445 1 18.8429 23.9123 6.47874 -0.000238009 0.00336514 0.00179704
1446 1 20.1907 22.0687 5.36877 -0.00842496 0.000341654 0.00294873
1447 1 20.1883 23.598 5.66806 0.00384614 -0.00554387 1.12469e-05
1448 1 21.4252 23.2097 7.84303 -0.00132511 0.00423433 -0.0143206
1449 1 18.927 23.1853 7.8175 0.000739389 0.00354237 -0.00353374
1450 1 20.1443 21.2982 6.73531 0.00355754 -0.000927016 -0.00116972
1451 1 17.6622 22.0669 5.34955 0.00605493 -0.00479522 -0.00886936
1452 1 18.9336 21.6754 7.55326 0.00849851 0.0120859 0.00014099
1453 1 16.4191 21.6569 7.61098 -0.0034781 0.00292564 -0.00389595
1454 1 17.6945 19.7629 6.47402 0.00251189 -0.00336003 -0.00195618
1455 1 17.6664 21.3394 6.81876 -0.000414847 0.000274014 -0.0134743
1456 1 18.9649 20.944 8.86597 0.00109747 0.000187685 0.00824463
1457 1 16.4263 20.8837 8.93086 -0.00117622 -0.00417962 0.00536178
1458 1 17.6741 19.0491 7.83799 -0.0085271 0.00653816 0.00395854
1459 1 15.086 19.7805 6.5164 -0.0104957 -0.00715629 -0.00693128
1460 1 16.3648 19.3935 8.6544 0.00163974 -0.00576402 -0.00778852
1461 1 13.8308 19.421 8.68851 -0.000351709 0.00237402 -0.00578255
1462 1 15.127 17.5018 7.60264 -0.00504447 0.00282307 0.00399312
1463 1 15.1043 18.9969 7.87954 0.00543441 -0.00658492 0.0067908
1464 1 16.3522 18.6275 10.0098 -0.00119049 -0.00256291 0.00208362
1465 1 13.7541 18.6084 10.0681 0.000449355 0.00302196 0.00516427
1466 1 15.1281 16.7237 8.9631 -0.00105963 -0.00519809 -0.00175143
1467 1 12.6413 17.4918 7.58419 0.000257739 0.00584394 0.00279868
1468 1 13.8753 17.1437 9.7411 -0.00308157 0.00567861 -0.000149163
1469 1 11.3387 17.0832 9.79778 0.00332436 -0.00529663 0.00377641
1470 1 12.6311 15.2116 8.65413 0.00214514 0.00627947 0.0028969
1471 1 12.6705 16.7179 8.88755 -0.00141313 -0.00131915 2.7659e-05
1472 1 13.8318 16.3573 11.0508 0.00405147 0.00306385 0.00263603
1473 1 11.3667 16.3076 11.1133 -0.00830337 0.00451337 -0.00191233
1474 1 12.5685 14.4115 10.0229 -0.00721572 0.00568186 0.00516444
1475 1 10.1265 15.2141 8.67761 0.00109749 -0.00356819 0.0114487
1476 1 11.3185 14.837 10.8491 0.00258407 0.00319026 0.00242167
1477 1 8.79679 14.8474 10.8177 -0.00380302 -0.00561008 -0.00332817
1478 1 10.0754 12.8947 9.7099 0.00562525 -0.0086268 -0.000288504
1479 1 10.0885 14.46 10.0556 -0.00253218 -0.00199487 -0.00173147
1480 1 11.3827 14.0471 12.1734 0.00175533 0.00014702 -0.00584728
1481 1 8.82093 14.079 12.1675 -0.00211111 -0.00232952 0.00613217
1482 1 10.078 12.1535 11.0574 -0.0113659 0.00210317 -0.000187907
1483 1 7.56344 12.9445 9.81548 3.48245e-05 0.00264967 -0.00408242
1484 1 8.77339 12.5013 11.8612 -0.00357525 0.00636409 0.014433
1485 1 6.25747 12.5271 11.9147 -0.00404347 -0.00284637 0.00205124
1486 1 7.49425 10.5827 10.8049 -0.000996199 -0.000545378 0.00275473
1487 1 7.56918 12.0948 11.076 0.0007295 -0.00858982 0.00417552
1488 1 8.7442 11.775 13.2321 -0.00246173 0.00289213 0.00829155
1489 1 6.13743 11.7381 13.2565 -0.0149197 -0.00120829 0.00668346
1490 1 7.43637 9.86374 12.1162 0.00464045 0.0145085 0.00420078
1491 1 4.94535 10.6021 10.8561 -0.00163074 0.00462261 -0.00249389
1492 1 6.16793 10.256 12.9901 0.0037645 0.00216391 0.00982963
1493 1 3.70774 10.2045 13.0333 0.00334793 0.00426516 -0.00299677
1494 1 4.99266 8.37762 11.9458 -0.00754887 0.00207897 0.00608673
1495 1 4.89882 9.87785 12.204 -0.00120359 0.00409536 0.00139903
1496 1 6.2495 9.45342 14.3258 0.000341974 0.00560103 0.00197323
1497 1 3.78097 9.53037 14.3996 -0.00163246 0.00183792 0.00809431
1498 1 5.01465 7.62514 13.2909 -0.00106408 -0.00280135 0.000510085
1499 1 2.46497 8.41842 11.921 -0.00428785 0.00115637 0.0012207
1500 1 3.81068 8.03754 14.0574 -0.00208171 -0.00614305 -0.00146857
1501 1 1.30721 7.97106 14.1168 0.00710004 -0.00100091 0.00559795
1502 1 2.53355 6.10347 13.0667 0.00241444 0.00462513 -0.00154331
1503 1 2.54092 7.62365 13.2829 -0.00365117 -0.00968123 -0.00245322
1504 1 3.74806 7.21578 15.4029 -0.00114665 0.00530689 -0.00234553
1505 1 1.27131 7.2465 15.4514 0.00860405 -0.00264351 0.00857867
1506 1 2.56843 5.34092 14.3898 0.00318084 0.00347361 -0.000460749
1507 1 0.0263777 6.10035 13.0815 -0.00877948 0.00258511 -0.00342301
1508 1 1.3335 5.73783 15.219 -0.000920791 -0.00354918 0.00345408
1509 1 22.6881 3.7694 14.064 -0.00628388 -0.000935328 0.0105898
1510 1 0.00665154 5.31269 14.454 -0.00667798 0.00220981 0.00416943
1511 1 1.29553 4.93915 16.6461 0.00387349 0.00257694 0.00455973
1512 1 22.6776 2.9869 15.3953 3.40741e-05 0.00419688 -0.000888261
1513 1 21.4723 21.664 7.56208 0.000497097 0.00218779 -0.000325909
1514 1 21.4721 20.8601 8.89128 0.000872555 -0.00195482 -0.000759361
1515 1 20.1623 19.7672 6.48839 -0.000218676 -0.00737093 -0.00729365
1516 1 21.4348 19.3645 8.67049 -0.00383495 0.0046562 -0.00515382
1517 1 18.9076 19.4334 8.64248 0.00325874 -0.000212613 0.000730761
1518 1 20.1662 17.455 7.55464 0.00814259 -0.00373586 0.00853788
1519 1 20.1805 19.0365 7.82368 -0.00049899 -0.00087763 -0.00694608
1520 1 21.4523 18.6033 10.0183 -0.000780675 0.00424071 0.00823705
1521 1 18.8797 18.6191 9.97847 -0.00541134 -0.00554282 0.000319283
1522 1 20.1552 16.7336 8.91124 0.00161627 -0.000580635 0.00106591
1523 1 17.7022 17.5152 7.57144 0.00326624 -0.00268933 -0.000753445
1524 1 18.8787 17.1462 9.77109 -0.0042553 0.00163746 0.00373516
1525 1 16.4047 17.0984 9.73815 -0.00071038 0.0106123 -0.012675
1526 1 17.6332 15.2287 8.62641 0.00340515 -0.00241572 -0.00222742
1527 1 17.6794 16.7663 8.92424 -0.000534387 -0.00343103 0.00620986
1528 1 18.9408 16.3486 11.1163 -0.00828943 0.000813993 -0.00345295
1529 1 16.3531 16.3031 11.1006 -0.00149111 0.00275471 0.0033402
1530 1 17.6415 14.4224 10.0028 -0.00264748 0.000493344 0.00562049
1531 1 15.1301 15.1962 8.6717 0.0025759 -0.00198995 0.0049148
1532 1 16.3989 14.734 10.8443 0.012399 -0.00456356 -0.00412517
1533 1 13.8866 14.83 10.8133 0.00290979 -0.00503313 -0.00473738
1534 1 15.1605 12.8632 9.72986 0.0005237 -0.00246516 0.00349765
1535 1 15.0999 14.3741 9.99941 0.00253659 0.00410463 0.00210553
1536 1 16.4061 14.0292 12.1392 -0.0069699 0.00368032 -0.000828762
1537 1 13.8493 14.0511 12.1505 0.00674512 -0.000735487 0.00445457
1538 1 15.1029 12.1618 11.0791 0.00315936 -0.00112331 0.000324721
1539 1 12.6199 12.9783 9.72025 -0.00262375 -0.0110449 -0.0012454
1540 1 13.9109 12.5199 11.969 0.00228753 0.00840618 0.00228237
1541 1 11.3801 12.5456 11.8794 -0.00296202 -0.000407384 0.0014485
1542 1 12.5637 10.6577 10.8289 -0.00229224 -0.00818073 -0.00701708
1543 1 12.5951 12.1757 11.1209 0.00802878 0.00110337 -0.00199237
1544 1 13.926 11.7717 13.2742 0.00515524 -0.003794 -0.00500263
1545 1 11.3345 11.8169 13.1998 -0.000817353 -0.00264952 -0.00283575
1546 1 12.5679 9.91738 12.1322 0.00492833 -0.001221 -0.00959345
1547 1 10.0357 10.6536 10.8285 -0.000451202 0.00117499 -0.00958725
1548 1 11.3305 10.3163 12.9857 -0.00263388 -0.000498857 0.00295906
1549 1 8.71895 10.2277 12.9302 -0.00123143 -0.00411777 -0.00228774
1550 1 10.0819 8.32178 11.8871 -0.00293254 -0.00294508 0.00572406
1551 1 10.0378 9.89307 12.1431 0.00492268 -0.00611046 0.00261956
1552 1 11.3063 9.47399 14.3328 0.00620586 0.00570392 -0.000822582
1553 1 8.80607 9.55436 14.3021 0.000126525 0.00673685 -0.0056951
1554 1 10.0701 7.58979 13.2716 -0.00532543 0.00142084 0.00219606
1555 1 7.51828 8.39219 11.9504 0.00343468 0.00133328 0.00239133
1556 1 8.80815 8.03498 14.0769 0.00381447 -0.00527084 -0.000312439
1557 1 6.28311 7.94971 14.0867 -0.00198997 0.00173801 -0.00123453
1558 1 7.52673 6.05393 12.9602 0.00679081 0.00379451 0.00640196
1559 1 7.56215 7.60225 13.2116 -0.00158551 0.00590213 -0.00607254
1560 1 8.78924 7.21595 15.3784 -0.00304215 -0.0100647 -0.00411069
1561 1 6.33105 7.23922 15.4324 -0.0109333 -0.00554235 0.010351
1562 1 7.58584 5.30886 14.3142 -0.00505405 0.00468805 0.0013052
1563 1 5.04406 6.10365 13.0278 -0.000688472 -0.00392121 -0.012422
1564 1 6.36033 5.68612 15.1338 -0.0065356 0.00447519 0.0020028
1565 1 3.76699 5.69452 15.2035 -0.00869274 -0.00371482 0.00498821
1566 1 5.07669 3.81733 14.1238 -0.00120802 0.0090063 -0.00179959
1567 1 5.10566 5.36473 14.4385 0.00940207 -0.00205555 -0.00604122
1568 1 6.36084 4.90434 16.5342 0.00252047 -0.00341791 -0.00202695
1569 1 3.85824 4.91995 16.6146 0.0119297 -0.00624936 0.0048008
1570 1 5.0514 3.03764 15.373 -0.0108343 0.00162516 -0.00686754
1571 1 2.55921 3.81086 14.1087 0.00108467 -0.000825128 0.000615683
1572 1 3.75712 3.46986 16.2913 -0.00123936 0.00776434 -0.00682256
1573 1 1.26599 3.40816 16.3109 -0.00235822 -0.0123425 -0.0042965
1574 1 2.53256 1.57187 15.1543 0.0038202 -0.00516463 0.00231999
1575 1 2.53509 3.07906 15.4186 0.00797417 0.00711272 0.0042016
1576 1 3.75435 2.63074 17.4102 0.000682825 0.000830088 0.000265881
1577 1 1.2994 2.57862 17.4962 0.0043095 0.0101279 0.000362097
1578 1 2.54718 0.774133 16.5706 0.000949681 -0.000417847 0.00528654
1579 1 0.026896 1.50875 15.1749 0.00346554 0.00227218 0.00602072
1580 1 1.30018 1.27274 17.2904 -0.00279106 0.00300415 -0.00566481
1581 1 0.0629201 0.819166 16.5845 -0.0065497 5.13572e-05 0.00165797
1582 1 21.4078 17.105 9.75967 0.00163193 0.00282103 0.00152572
1583 1 21.3916 16.3087 11.0813 0.00288593 0.00600414 0.00192714
1584 1 20.1754 15.2436 8.6807 -0.0015472 -0.00960022 -0.00134566
1585 1 21.4106 14.8048 10.8657 0.0119179 -0.000844983 -0.0026497
1586 1 18.9205 14.7923 10.8191 -0.00500745 0.00220011 -0.0035248
1587 1 20.1962 12.9191 9.70657 -0.00248803 -0.012923 0.00694426
1588 1 20.1532 14.4319 10.0263 -3.96721e-05 -0.00194823 0.00263961
1589 1 21.3687 14.0595 12.2534 -0.0040693 0.0010745 0.0043085
1590 1 18.9201 14.0775 12.1931 -0.000325415 -0.00125058 0.0098017
1591 1 20.1038 12.1958 11.0808 -0.00221766 -0.00569131 0.00141167
1592 1 17.6098 12.9445 9.65591 -0.00208131 -0.00341338 -0.00209959
1593 1 18.8531 12.5868 11.8661 0.00319563 0.00554678 -0.00225256
1594 1 16.3831 12.578 11.8186 0.00238336 -0.00269509 -0.00206915
1595 1 17.6002 10.6531 10.8394 0.00364916 0.00772147 -0.00522506
1596 1 17.6171 12.1784 11.0388 0.00385508 -0.00456366 -0.000562733
1597 1 18.8233 11.8168 13.2143 -0.00674273 -0.00995881 -0.00256765
1598 1 16.3936 11.8584 13.2135 -0.00273179 0.00458734 -0.00392186
1599 1 17.6119 9.93047 12.2167 -0.00159347 0.00183311 -5.75013e-06
1600 1 15.1011 10.6115 10.8573 0.00683722 0.00132931 0.00268713
1601 1 16.3641 10.2979 13.0014 -0.0048521 0.00237846 0.00210656
1602 1 13.859 10.2787 12.9855 0.00352997 -0.00188441 -0.00122148
1603 1 15.1373 8.30982 11.9731 -0.000537935 0.00390339 -0.00155829
1604 1 15.1598 9.86763 12.2074 0.00280375 -0.0036156 0.0055897
1605 1 16.4546 9.50853 14.3097 0.00242611 -0.00631922 -0.0059687
1606 1 13.7935 9.4865 14.3175 0.00215092 -0.0059336 0.0132773
1607 1 15.0957 7.5939 13.3112 -0.00184992 -0.000213327 0.00508739
1608 1 12.5916 8.42206 11.8816 0.0093856 -0.00230109 0.00835793
1609 1 13.8097 7.98299 14.0911 -0.00469929 -0.00198971 0.00848875
1610 1 11.33 8.03901 14.0499 -0.00853695 -0.0047207 0.00196707
1611 1 12.6114 6.0837 12.9511 0.00459955 -0.00201528 0.00773667
1612 1 12.6059 7.63004 13.2358 -0.00555037 -0.00382351 -0.0141301
1613 1 13.8407 7.21563 15.3897 0.00207703 -0.00275352 0.0056241
1614 1 11.3556 7.25093 15.4076 0.00156769 0.00019283 0.000552376
1615 1 12.6004 5.35763 14.3326 0.00195661 -0.00521857 -0.00309308
1616 1 10.0878 6.06893 12.9539 -0.00252074 -0.00356432 -5.12043e-05
1617 1 11.364 5.64999 15.0973 -0.00366762 0.00442536 0.000182422
1618 1 8.85803 5.72788 15.09 -0.000115347 -0.00523864 0.00962811
1619 1 10.1063 3.78152 13.9884 0.00891771 -0.00448189 0.00630162
1620 1 10.1129 5.28204 14.2914 -0.0089291 0.00717176 0.000802716
1621 1 11.3835 4.94057 16.5173 -0.00183554 0.00238698 -0.0011992
1622 1 8.86273 4.94356 16.5391 -0.00280859 0.00299131 -0.0105386
1623 1 10.1137 3.06772 15.3589 -0.00499438 0.00121112 0.00884248
1624 1 7.57694 3.79975 14.0873 -0.0089826 0.00908131 -0.0033357
1625 1 8.87323 3.42729 16.3085 -0.00901455 0.000308401 0.00349315
1626 1 6.28015 3.45347 16.211 -0.00576773 0.00478551 -0.00385903
1627 1 7.57111 1.5751 15.0994 2.87072e-05 -0.00904925 0.00456477
1628 1 7.61726 3.08135 15.4546 -0.00382113 -0.00406805 -0.00439823
1629 1 8.95434 2.59469 17.5153 0.0090605 -0.00210807 -0.00239864
1630 1 6.2722 2.80907 17.5003 -0.00583198 -0.00235802 0.000588346
1631 1 7.61622 0.822539 16.5605 0.0075242 -0.00270854 0.000619559
1632 1 5.00718 1.52705 15.0912 -0.0113655 0.00570544 0.0132659
1633 1 6.34938 1.43672 17.2911 -0.0109729 -0.00682266 0.00268543
1634 1 3.89279 1.30442 17.2157 -0.0139075 6.94592e-05 0.00376646
1635 1 5.14717 0.79769 16.5697 0.00795537 -0.00568136 -0.0059951
1636 1 21.4128 12.5257 11.93 -0.0010734 -0.00297922 -0.000163409
1637 1 21.3987 11.7673 13.2485 -0.00658329 -0.00400255 -0.00148049
1638 1 20.1253 10.6815 10.7891 -0.0042888 -0.0011227 0.000178209
1639 1 21.3887 10.2585 13.0008 0.000412215 0.012006 7.81617e-05
1640 1 18.8795 10.2859 13.0027 -0.00374338 -0.00186492 0.014595
1641 1 20.1451 8.37837 11.908 0.000459348 0.000468908 0.0014776
1642 1 20.1237 9.93531 12.1626 -0.00776443 0.00784576 0.00286587
1643 1 21.4752 9.44897 14.32 -0.00130674 0.00308929 0.00045683
1644 1 18.9032 9.51438 14.3462 0.000487924 -0.00151869 -0.00263737
1645 1 20.093 7.59672 13.2653 0.000781108 0.00208024 -0.00342618
1646 1 17.6616 8.38954 11.9079 -0.000235895 -0.00190074 0.00330403
1647 1 18.8726 8.02532 14.0329 0.00514642 0.000643832 -0.00031002
1648 1 16.4006 7.98651 14.1095 0.00210799 -0.00304157 0.00262862
1649 1 17.6084 6.0839 13.0395 -0.00334241 -0.00339976 -0.00285669
1650 1 17.6121 7.6063 13.2675 0.00499843 0.00338562 0.00248365
1651 1 18.9045 7.23058 15.3915 -0.00515853 -0.00805999 0.00495981
1652 1 16.3818 7.22533 15.4386 -0.0105518 0.00804734 0.00191018
1653 1 17.5861 5.31815 14.3942 -0.00628229 -0.00764894 0.00161989
1654 1 15.1527 6.07856 13.0012 -0.00328409 -0.00876644 0.00720884
1655 1 16.3765 5.71679 15.1658 -0.00355692 -0.00530244 0.000838514
1656 1 13.8728 5.74785 15.106 0.00278464 -0.00661893 0.00606357
1657 1 15.15 3.7821 14.0764 -0.00757495 0.00789991 0.00685069
1658 1 15.1191 5.31925 14.4205 0.00270366 -0.00246405 -0.00390169
1659 1 16.4119 5.0327 16.5683 0.00210564 -0.0015448 0.00739036
1660 1 13.8747 4.94402 16.5406 0.00420371 -0.0133247 -0.00233662
1661 1 15.1123 3.07596 15.3895 0.00367697 -0.00189225 0.00825695
1662 1 12.5767 3.82993 13.9718 0.00636924 -0.00228817 0.00864374
1663 1 13.8177 3.42821 16.2221 0.00208098 -0.00554989 0.000626936
1664 1 11.4005 3.43289 16.2014 0.000824562 -0.00262633 0.0106344
1665 1 12.6701 1.52696 15.1148 0.00522313 -0.00506992 -0.00384247
1666 1 12.6061 3.09133 15.3795 0.000692963 0.0065188 7.26499e-05
1667 1 13.9366 2.56007 17.4414 0.00237577 -0.0111266 -0.000340747
1668 1 11.3845 2.61753 17.3815 -0.00111678 -0.0104315 0.00790901
1669 1 12.6849 0.772154 16.483 0.000912846 -0.000774848 -0.00218885
1670 1 10.1103 1.54159 15.0928 0.00147413 0.00567869 0.000212641
1671 1 11.3862 1.26009 17.1975 0.0107877 -0.00197093 0.000855052
1672 1 8.90548 1.29078 17.1617 0.00657801 -0.000586561 0.00257941
1673 1 10.123 0.788363 16.5035 -0.00200874 -0.00126245 0.00953774
1674 1 21.3612 7.93106 14.0601 0.0153333 0.00770341 0.00356835
1675 1 21.4011 7.14621 15.4182 0.00228611 0.00299586 -0.00559448
1676 1 20.1216 6.11514 12.9648 0.00334163 0.000692179 1.97945e-05
1677 1 21.4583 5.67737 15.1853 -0.00071478 -0.00233851 0.000898523
1678 1 18.8834 5.68415 15.142 -0.00243884 -0.00252504 -0.00616616
1679 1 20.198 3.78444 14.0632 0.00374096 -0.00876879 0.000160059
1680 1 20.1809 5.28797 14.3736 -0.00109626 0.0119967 -0.000981032
1681 1 21.4547 4.95829 16.5762 0.00644402 -0.00164725 0.0040978
1682 1 18.881 4.97095 16.63 0.00446675 -0.00254237 0.000424413
1683 1 20.1555 3.0044 15.4116 0.000612126 0.00528801 0.00171217
1684 1 17.6752 3.78819 14.099 -0.00244657 -0.00816066 0.00235212
1685 1 18.9129 3.42577 16.3548 0.00393969 0.00125167 -0.00282785
1686 1 16.3733 3.51447 16.3228 0.00127671 -0.000417327 0.00153249
1687 1 17.6811 1.55129 15.178 -0.00534079 -0.00740073 -0.00299447
1688 1 17.634 3.0537 15.4376 -0.00907365 -0.00635617 0.00282761
1689 1 18.8668 2.60332 17.5128 0.000123266 -0.00944492 0.00616903
1690 1 16.3857 2.64882 17.4413 -0.000469245 -0.00949898 -0.00745887
1691 1 17.6674 0.823834 16.6085 0.00616229 0.00655735 0.00109678
1692 1 15.1946 1.51866 15.2002 0.0017928 0.00143248 0.00414741
1693 1 16.4454 1.28963 17.3724 0.0052744 0.00532848 0.00366113
1694 1 13.9504 1.18149 17.2236 -0.00692425 -0.000415174 0.000457944
1695 1 15.2201 0.763218 16.5833 -0.00876388 0.00494823 0.000725402
1696 1 21.3719 3.40078 16.3256 0.00368534 -0.00303791 0.00352502
1697 1 21.4644 2.57685 17.4514 -0.0103595 0.000714273 -0.000125958
1698 1 20.1895 1.52583 15.1464 0.00795503 -0.00336161 0.009709
1699 1 21.4742 1.25687 17.2765 0.00480288 0.00262326 -0.00183172
1700 1 18.9587 1.27297 17.3621 0.0035548 -0.00140844 -0.00434866
1701 1 20.1998 0.734642 16.6557 -0.00225465 -0.00200319 0.0047459
1702 1 22.6706 23.5978 8.65214 -0.00158561 0.00384903 0.00277393
1703 1 1.24176 24.7297 11.0862 0.00992097 -0.0100867 0.00302043
1704 1 22.6853 22.8243 10.0224 -0.00031164 0.00341095 -0.0012145
1705 1 5.09849 23.5213 8.69373 0.00175014 -0.00504011 -0.00385365
1706 1 6.28627 24.7234 11.0561 0.000463411 -0.00238237 0.00386406
1707 1 3.812 24.7155 11.0705 0.00301716 0.00827327 -0.000747917
1708 1 5.08038 22.8156 10.0034 -0.00344025 0.00934546 0.00615362
1709 1 2.55501 23.608 8.65912 -0.00124281 -0.000620862 0.00135366
1710 1 3.7523 23.236 10.8356 0.00449987 0.00110478 -0.00654078
1711 1 1.24857 23.1922 10.804 -0.00269228 -0.0070106 -0.00624282
1712 1 2.5392 21.2887 9.77063 0.00496933 0.000258978 0.0030437
1713 1 2.54064 22.7768 10.0138 -0.00861561 -0.00357431 0.00604802
1714 1 3.83104 22.4811 12.1842 -0.0112039 0.00533632 0.0037624
1715 1 1.26525 22.416 12.1392 0.00324176 0.0110369 -0.00104277
1716 1 2.5209 20.5718 11.1353 -0.00229814 0.00526486 -0.00389468
1717 1 22.6645 21.2907 9.72196 -0.00519125 -0.00762593 0.00058955
1718 1 1.26903 20.9509 11.9369 -0.00730499 -0.0111439 0.00102455
1719 1 0.0252415 18.9924 10.7825 -0.00331134 -0.000126718 0.000321838
1720 1 0.0460836 20.5445 11.0859 0.00200947 0.00154299 0.00207102
1721 1 1.23085 20.1517 13.2838 0.00647855 -0.000941412 -0.00773789
1722 1 22.6752 18.2361 12.1475 -0.0132971 -0.00241519 -0.00126669
1723 1 10.1352 23.6328 8.63653 0.00362089 0.0047327 0.00546196
1724 1 11.3767 24.7429 11.0532 0.000553366 0.00124751 -0.000658138
1725 1 8.84095 24.7496 11.048 -0.00169178 0.00679241 0.00383626
1726 1 10.0993 22.8261 10.0182 -1.80932e-05 0.00782726 0.000174106
1727 1 7.58564 23.5792 8.68985 0.00122833 -0.00230835 0.00319668
1728 1 8.86994 23.2182 10.8359 -0.00213779 -0.00357007 0.00432421
1729 1 6.34273 23.1776 10.8092 -0.0097169 0.00284382 -0.00151692
1730 1 7.63291 21.3048 9.7751 0.00152403 -0.000751433 -0.00515352
1731 1 7.56115 22.8609 10.0074 -0.00231552 -0.00379523 0.00924455
1732 1 8.81267 22.437 12.1884 0.00388088 0.00264207 0.0050272
1733 1 6.32388 22.442 12.1999 0.00768582 -0.0101951 0.00929359
1734 1 7.58545 20.5209 11.1311 0.00153454 0.00449887 -0.00901634
1735 1 5.04552 21.2559 9.76723 -0.00118244 0.0075386 3.28977e-05
1736 1 6.29886 20.9031 11.9247 -0.00307143 0.0013579 0.00251607
1737 1 3.86716 20.9495 11.9246 -0.00532051 -0.012323 -0.00106152
1738 1 5.01959 18.9754 10.7785 0.00210365 0.000369775 0.00347898
1739 1 5.08104 20.4727 11.0931 0.00366889 0.003544 0.00380005
1740 1 6.32856 20.1573 13.3058 0.0125538 -0.00165605 -0.00989427
1741 1 3.83496 20.1798 13.2606 0.0065631 0.00456712 -0.00578398
1742 1 5.01853 18.2512 12.1815 0.00263204 0.00696504 0.00912056
1743 1 2.51809 19.0645 10.8716 -0.00715681 -0.00806669 0.000626638
1744 1 3.80642 18.6246 12.9893 0.00635151 -0.00451303 -0.00414557
1745 1 1.23677 18.6798 12.9491 -0.0063049 -0.00209721 -0.00125508
1746 1 2.50734 16.7538 11.9119 -0.00402643 -0.00609502 -0.00302604
1747 1 2.52652 18.2811 12.1823 0.00254847 -0.00960342 0.00376659
1748 1 3.77835 17.822 14.368 0.00459673 0.00107142 0.00276714
1749 1 1.23429 17.8691 14.3311 -0.00664787 -0.00564377 3.67263e-05
1750 1 2.45718 15.9364 13.2216 -0.0031507 -0.00227304 0.00705807
1751 1 22.6664 16.7047 11.885 0.00487143 -0.00288472 0.0025967
1752 1 1.23677 16.3514 14.0349 -0.0061234 0.00370433 0.013699
1753 1 22.6637 14.4623 12.9792 0.00722887 -0.00172106 0.00842145
1754 1 22.6868 15.9754 13.2249 1.93397e-05 -0.00182078 0.00200946
1755 1 1.23225 15.6212 15.4155 -0.00395326 0.010858 0.00395371
1756 1 22.6657 13.6755 14.3957 -0.00982079 -0.00813213 -0.00768215
1757 1 15.0899 23.5541 8.67037 -0.000451608 -0.00620464 -0.00195286
1758 1 16.3686 24.7006 11.0515 0.000674232 -0.0018374 0.00191315
1759 1 13.9365 24.6735 11.0892 -0.00254748 -0.00301826 -0.00330586
1760 1 15.0701 22.7723 9.99928 0.00316808 0.00231395 0.00273487
1761 1 12.5832 23.5587 8.66669 -0.00351766 -0.0032952 -0.00184405
1762 1 13.8893 23.2162 10.8389 0.00030155 0.00460971 -0.00500056
1763 1 11.3237 23.2042 10.8454 0.0119401 -0.000733815 -0.00753304
1764 1 12.6641 21.222 9.7126 0.00111559 0.00347018 -0.00270888
1765 1 12.6151 22.7945 10.0098 0.00178529 -0.00677853 0.00198144
1766 1 13.8904 22.4502 12.1654 -0.000934485 -0.00308618 -0.00467849
1767 1 11.3899 22.4924 12.1875 0.00557802 -0.00436477 0.00258197
1768 1 12.5649 20.5575 11.126 0.00968944 0.00802639 0.004847
1769 1 10.0995 21.2779 9.73427 -0.0021928 0.00718384 0.0052788
1770 1 11.3319 20.9351 11.9321 -0.00406946 0.0108058 0.00436229
1771 1 8.82459 20.9601 11.9541 0.00494444 0.00410661 0.00471966
1772 1 10.0589 19.0237 10.8329 0.00507797 0.00805933 -0.000870916
1773 1 10.0695 20.5681 11.1471 0.00278102 0.00340246 0.000863241
1774 1 11.3894 20.1573 13.2412 0.00671266 0.000318829 -0.00733941
1775 1 8.83777 20.1463 13.2327 0.00156422 -0.00148772 0.00573537
1776 1 10.0612 18.2137 12.1333 -0.00119085 -0.0010399 0.00174914
1777 1 7.51305 19.0046 10.8172 0.000390552 -0.00561851 -0.00329652
1778 1 8.79834 18.6725 12.9232 0.00625971 0.00586205 -0.0058698
1779 1 6.32024 18.6408 13.0049 -0.000366218 0.00140756 0.00649352
1780 1 7.58429 16.6995 11.8696 -0.00226782 -0.00517413 0.00418027
1781 1 7.52519 18.218 12.1533 0.0068975 0.000234601 0.0031114
1782 1 8.79561 17.8638 14.301 0.00556763 0.00155462 0.00835911
1783 1 6.2891 17.865 14.3412 -0.000811507 -0.00846766 -0.00199946
1784 1 7.51275 16.0026 13.2279 -0.011557 -0.00134859 -0.00340434
1785 1 5.03871 16.7455 11.917 0.000420995 0.00438733 0.00134688
1786 1 6.28799 16.3735 14.0578 -0.000158736 0.00313704 0.0015696
1787 1 3.73448 16.3424 14.0858 -0.00770362 -0.00947233 0.00701521
1788 1 5.03717 14.4111 12.9718 -0.0018984 -0.0106148 0.00397571
1789 1 4.94039 15.9414 13.2406 0.00189403 -0.00108785 0.00356922
1790 1 6.30384 15.6241 15.3873 0.00358769 -0.00662791 0.000566133
1791 1 3.77685 15.6414 15.4441 -0.000126104 0.00369146 0.0046134
1792 1 5.05925 13.7272 14.3262 0.002431 -0.00327028 0.00185966
1793 1 2.48658 14.4141 12.9451 0.00287216 -0.00354964 -0.00349744
1794 1 3.72283 14.111 15.1506 -0.00189619 0.00520857 -0.00231254
1795 1 1.20101 14.1092 15.1649 0.00344115 -0.00557709 0.0022815
1796 1 2.47149 12.157 14.1012 0.0003098 -0.00401146 0.00372934
1797 1 2.47685 13.7022 14.3298 -0.00135806 0.00087807 -0.00522889
1798 1 3.80699 13.3949 16.6246 -0.00107129 -0.00161631 0.00512237
1799 1 1.27571 13.3659 16.5963 -0.0033215 0.00260072 0.00386737
1800 1 2.51715 11.4269 15.4547 -0.00467231 0.00283293 -0.000456033
1801 1 22.6631 12.172 14.0529 -0.000320714 0.00758206 -0.008615
1802 1 1.23649 11.774 16.2462 0.00128947 -0.00301561 0.0026652
1803 1 0.011899 9.86409 15.1145 0.0021185 -0.000702361 0.00313849
1804 1 22.6245 11.3639 15.3793 -0.0044019 -0.00173228 -0.000814954
1805 1 1.31106 10.9505 17.4526 0.00548843 -0.0032549 -0.00154273
1806 1 0.020723 9.10893 16.5751 -0.00242342 -0.00417256 -0.00462704
1807 1 20.1571 23.6127 8.64527 -0.00544613 0.00639632 0.00133542
1808 1 21.4154 24.7144 11.0913 -0.010053 0.00155149 -5.51959e-05
1809 1 18.947 24.7706 11.1045 0.000244738 -0.00216581 0.00711828
1810 1 20.1588 22.8539 9.997 -0.00204575 -0.00189878 -0.00326163
1811 1 17.6785 23.5572 8.67379 -0.00825486 -0.00403888 0.0012999
1812 1 18.9449 23.2603 10.845 7.2003e-05 -0.00119141 0.0052268
1813 1 16.351 23.1447 10.7522 0.00254449 0.0070459 0.00337177
1814 1 17.7079 21.3005 9.73104 0.010094 -0.00365415 0.00393788
1815 1 17.6315 22.8348 10.0148 -0.00277502 0.00567463 -0.0089925
1816 1 18.9141 22.4653 12.1408 0.00248279 -0.00974758 0.00526351
1817 1 16.3983 22.4732 12.1618 -0.00732633 -0.00240985 0.00221057
1818 1 17.6762 20.5419 11.0408 -0.00573384 -0.00119135 0.00193894
1819 1 15.1615 21.2716 9.72572 -3.54662e-05 0.000466837 0.000903093
1820 1 16.4251 20.9951 11.8913 -0.00215687 -4.31917e-05 0.00330444
1821 1 13.8339 20.9186 11.8985 0.00646124 -4.73973e-05 0.0172478
1822 1 15.1017 18.9819 10.8627 -0.00126697 -0.00230151 -0.00405702
1823 1 15.1593 20.5237 11.0725 -0.0102044 0.000821474 -0.00785415
1824 1 16.4381 20.1587 13.2364 0.00503119 0.00350564 0.00800887
1825 1 13.8559 20.1223 13.2315 -0.00747804 -0.00487395 -0.00251069
1826 1 15.114 18.2402 12.2018 -0.000738761 0.00231095 0.00295892
1827 1 12.5605 19.0152 10.8435 0.00190987 -3.97846e-05 -0.00490716
1828 1 13.8278 18.581 13.0214 0.00326571 -0.00282087 0.0075716
1829 1 11.3145 18.62 12.9961 0.00178643 0.00431142 0.0131652
1830 1 12.5839 16.6903 11.9047 -0.00203089 0.00759279 0.000617733
1831 1 12.5682 18.2381 12.1973 -0.00390143 -0.0048195 -0.00057814
1832 1 13.863 17.8545 14.3366 -0.00360348 -0.00432481 -0.0114235
1833 1 11.3661 17.834 14.3438 0.00769552 0.00231801 0.00110981
1834 1 12.6311 15.9209 13.2533 0.00399626 0.00308694 -0.00892952
1835 1 10.0547 16.6912 11.9142 -0.000146742 -0.0049658 0.00550692
1836 1 11.3194 16.3454 14.0415 0.00701751 -0.00404873 0.00464527
1837 1 8.85372 16.323 14.0001 -0.000472006 0.00415207 0.00158848
1838 1 10.1081 14.4173 12.9792 0.00229561 0.001374 0.00426364
1839 1 10.1123 15.9253 13.2698 0.00448284 -0.00452289 0.00116792
1840 1 11.3469 15.5777 15.3297 0.00141054 0.00164911 -0.00342275
1841 1 8.84141 15.6215 15.3318 -0.00164167 -0.00155323 -0.00107081
1842 1 10.0694 13.7292 14.3202 0.00387029 0.00914734 -0.000302106
1843 1 7.55467 14.4579 13.0445 0.00269706 0.000922674 -0.00162979
1844 1 8.78825 14.1397 15.1199 -0.00641384 -0.00279236 0.000482635
1845 1 6.25353 14.0659 15.1967 0.00792441 -0.00803947 -0.00905915
1846 1 7.5102 12.1845 14.0501 -1.30606e-05 0.00484589 0.0114352
1847 1 7.4983 13.6871 14.3834 -0.00917441 0.00228733 0.00387128
1848 1 8.7981 13.3056 16.5528 -0.000294933 -0.00509945 -0.00185375
1849 1 6.23195 13.3782 16.6243 0.0055033 0.0013306 0.00402124
1850 1 7.51416 11.3821 15.3727 0.00317751 0.000266844 0.00271522
1851 1 4.95076 12.1776 14.0618 -0.00498812 -0.00488648 -1.64138e-05
1852 1 6.28575 11.8403 16.2455 0.0018082 -0.00533542 0.00477478
1853 1 3.78192 11.8963 16.3148 -0.0128863 -0.00698839 -0.00187021
1854 1 5.01081 9.93976 15.187 0.000273314 0.000151553 7.28442e-05
1855 1 4.99005 11.4988 15.4179 -0.000802705 -0.0100855 0.0085935
1856 1 6.27544 10.9385 17.3803 -7.03341e-05 0.000846042 -0.00383093
1857 1 3.82143 10.9842 17.4101 -0.00249142 -0.00366454 -0.000165278
1858 1 5.0465 9.09443 16.5426 0.00391078 -0.0048595 0.00299495
1859 1 2.52571 9.92233 15.1975 0.00349821 -0.00545933 0.00270582
1860 1 3.82562 9.62979 17.2448 0.00363121 0.000419272 0.000373745
1861 1 1.27931 9.60763 17.1723 0.00667858 -0.00400091 -0.00593238
1862 1 2.53544 7.65239 16.2969 -0.00394093 0.0013414 0.00107288
1863 1 2.57652 9.16429 16.5905 0.00132575 -0.00654255 0.000893131
1864 1 2.57698 6.76973 17.4677 -0.00415837 -0.000999377 0.00674052
1865 1 0.0431059 7.54319 16.3766 0.00152134 -0.000755996 -0.00894678
1866 1 0.0219949 5.42656 17.2432 0.0100198 -0.00372292 0.00168891
1867 1 0.0268868 6.74638 17.5435 0.00038248 0.00504995 -0.00741608
1868 1 21.4232 23.1972 10.7646 -0.000425733 0.000382828 -0.0054483
1869 1 21.4147 22.417 12.1694 0.0110923 0.00391025 -0.00406802
1870 1 20.2242 21.2766 9.71477 0.00368228 -0.00132688 -0.00775477
1871 1 21.4176 20.9522 11.8318 0.00578856 0.00617789 -0.00438869
1872 1 18.9025 20.9436 11.8551 -0.00831671 -0.0127521 0.00148417
1873 1 20.124 18.9683 10.8166 0.0058813 -0.00575677 0.00561889
1874 1 20.1473 20.5206 11.0076 0.00184992 -0.00108616 -0.00236248
1875 1 21.3807 20.1429 13.2275 0.00690621 0.00870422 -0.00130015
1876 1 18.8879 20.17 13.2192 -0.000441507 -0.001565 0.00370389
1877 1 20.1728 18.2762 12.164 0.00168159 0.00921614 0.00692707
1878 1 17.5528 18.9692 10.8361 0.00323595 -0.00345873 0.0087688
1879 1 18.919 18.6407 12.9645 0.00306357 0.00858218 -0.0095392
1880 1 16.4069 18.6249 13.0425 0.00385641 0.00273963 0.000266451
1881 1 17.5512 16.7067 11.9457 0.00629713 0.00489145 -0.00254841
1882 1 17.6155 18.2515 12.1509 -0.00802952 0.00503371 -0.000748901
1883 1 18.9362 17.9005 14.3696 -0.000520989 0.00185658 -0.00545321
1884 1 16.4328 17.8805 14.408 0.000630824 -0.00121454 0.000374717
1885 1 17.5982 15.9776 13.2298 0.00498352 0.0015243 0.0022978
1886 1 15.1233 16.7061 11.8872 -0.0038389 0.00565717 0.00523035
1887 1 16.426 16.3681 14.1013 0.00320844 0.00737874 -0.00344908
1888 1 13.9054 16.326 14.0993 0.00589457 -0.00347798 0.00256166
1889 1 15.1357 14.3902 12.9288 0.00133331 -0.000729028 -0.00428129
1890 1 15.1876 15.9433 13.2097 0.00315827 -0.00225089 0.00559505
1891 1 16.4192 15.6014 15.4509 -0.00454104 1.10138e-05 -0.00635884
1892 1 13.8934 15.5475 15.466 0.00100008 0.00760028 0.00102389
1893 1 15.105 13.6879 14.3208 -0.00025863 0.0035898 0.00554893
1894 1 12.5934 14.4128 12.994 0.00415793 0.00511344 0.0010098
1895 1 13.8921 14.0643 15.1408 0.00158992 -0.000158671 0.00127004
1896 1 11.3213 14.0386 15.1362 -0.00652858 -0.00469384 -0.00112024
1897 1 12.6201 12.1982 14.0029 -0.00389877 0.00343347 0.00485987
1898 1 12.6072 13.7255 14.3255 0.00303145 -0.00276807 0.00512126
1899 1 13.8864 13.2966 16.6173 0.0067236 0.00177845 0.00173432
1900 1 11.3114 13.2371 16.5383 0.00159063 -0.00505235 -0.00164838
1901 1 12.5475 11.4377 15.3731 -0.00347172 0.00656239 -0.00144134
1902 1 10.0024 12.1985 14.0359 -0.00390738 -0.0029639 0.00674632
1903 1 11.281 11.7719 16.2089 -0.000693249 -4.13842e-05 0.00294598
1904 1 8.74702 11.8157 16.2494 0.00326369 -0.00160189 -0.00382152
1905 1 10.1094 9.91675 15.1216 -0.000657836 -0.00103349 -0.00962835
1906 1 9.9777 11.4168 15.3642 -0.00152226 0.000376285 0.00862338
1907 1 11.325 10.9343 17.3904 -0.00397888 0.00476762 0.00127275
1908 1 8.85953 10.9947 17.4444 0.00313519 -0.00591922 -0.00795349
1909 1 10.0536 9.11504 16.541 0.00378331 -0.010406 -0.00071343
1910 1 7.56162 9.92944 15.0899 0.00808707 0.00248317 0.00334873
1911 1 8.84767 9.64883 17.3596 0.00407847 0.0043134 0.00454746
1912 1 6.29218 9.66818 17.2217 0.00928408 0.00412855 0.0043782
1913 1 7.57802 7.62356 16.2472 -0.00853768 0.00857801 -0.0059183
1914 1 7.57931 9.18445 16.5844 -0.000507071 -0.00389235 -0.00830953
1915 1 7.63935 6.78762 17.4666 -0.000840275 0.00924674 0.0111672
1916 1 4.98535 7.58592 16.2833 -0.000850277 -0.00477343 -0.00734957
1917 1 5.13161 5.36507 17.2557 -5.29644e-05 -0.00572959 0.00154311
1918 1 5.09988 6.70346 17.4075 -0.00342849 0.00269492 0.00256056
1919 1 2.5689 5.46448 17.273 -0.00137943 0.00685963 -0.00390124
1920 1 21.3956 18.6706 12.957 0.00223453 0.000393688 0.0106346
1921 1 21.4123 17.8941 14.3055 0.00244422 0.000918249 -0.000179208
1922 1 20.1438 16.7797 11.9621 -0.00219165 -0.00188514 -0.000929785
1923 1 21.3998 16.3696 14.0299 -0.00132352 -0.0022682 0.00391332
1924 1 18.9295 16.3416 14.0112 0.00239821 0.00327621 0.00569194
1925 1 20.1368 14.3903 12.9979 0.0120058 0.00972746 0.00236982
1926 1 20.1488 15.9858 13.2428 -0.00664074 0.0016116 0.00312162
1927 1 21.4113 15.5946 15.3767 -0.00276359 0.00540669 -0.00248565
1928 1 18.9073 15.5846 15.3267 0.00777943 0.000718935 -0.00272672
1929 1 20.1869 13.7008 14.3817 -0.00464829 0.00839198 0.005248
1930 1 17.5914 14.4746 12.9867 0.00937247 0.00501151 -0.00295137
1931 1 18.9079 14.0869 15.1641 -0.0021572 0.00301204 0.00398275
1932 1 16.4099 14.1059 15.1597 -0.00254085 0.00186318 0.00397154
1933 1 17.6088 12.2441 14.0236 -0.00528375 0.00118956 -0.00584719
1934 1 17.6584 13.7154 14.3406 0.00971284 -0.00169048 0.00613063
1935 1 18.8709 13.276 16.5905 0.00158854 0.00451711 0.00141229
1936 1 16.4319 13.3494 16.513 -0.000177856 -0.00145348 0.00152265
1937 1 17.6919 11.4849 15.3442 -0.00206644 0.00438066 0.000740454
1938 1 15.1732 12.1598 14.0768 0.00215232 -0.00584218 0.0103639
1939 1 16.3855 11.788 16.2601 5.59933e-05 0.00102627 0.000728375
1940 1 13.7986 11.738 16.2564 -0.00497134 0.000835762 -0.00116633
1941 1 15.1572 9.8871 15.1261 0.00232244 0.00245909 -0.00125031
1942 1 15.1503 11.4271 15.424 -0.000437166 0.000588147 0.0064403
1943 1 16.4126 10.9756 17.3758 -0.00756039 0.00257852 -0.00223077
1944 1 13.7833 10.8737 17.4248 -0.00530988 0.00139049 0.000574361
1945 1 15.1785 9.12491 16.5297 0.00249412 0.00525407 0.00507153
1946 1 12.5537 9.87986 15.1072 0.00661202 0.00544229 -0.00235521
1947 1 13.836 9.53831 17.1944 -0.00331279 -0.0117479 -0.00265618
1948 1 11.2685 9.49663 17.2597 -0.00311162 0.00195811 0.00627583
1949 1 12.5613 7.61992 16.2354 0.000529717 -0.00415478 -0.00168204
1950 1 12.5152 9.14855 16.5115 0.00311554 -0.00713555 -0.00100548
1951 1 12.6036 6.79605 17.3899 0.00648078 0.00559912 -0.0010416
1952 1 10.0871 7.6053 16.2637 -0.00468343 -0.0122372 -0.0014956
1953 1 10.0768 5.35245 17.1709 0.0014849 -0.00659561 -0.000223756
1954 1 10.1278 6.68246 17.3238 0.00457795 -0.00252561 0.00158943
1955 1 7.61298 5.41922 17.1799 -0.00324664 -0.00184881 -0.00048818
1956 1 21.4581 14.0858 15.1417 0.0103376 0.000534821 -0.00308906
1957 1 21.4694 13.2819 16.6018 -6.41858e-05 0.00758939 0.00313139
1958 1 20.1233 12.2253 14.0222 -0.000548207 0.000103041 0.00329097
1959 1 21.4524 11.7257 16.247 0.000260507 0.00117863 -0.00658101
1960 1 18.9737 11.8125 16.2454 -0.00405757 -0.00496044 -0.000447637
1961 1 20.1989 9.86732 15.1538 -0.0016403 -0.0138075 -0.00263629
1962 1 20.1993 11.391 15.354 -7.06719e-05 0.000903626 -0.00324098
1963 1 21.4138 10.9653 17.4506 -0.00160507 -0.00350122 0.0105215
1964 1 18.9102 10.9734 17.4062 -0.000724755 0.00341907 -0.00476503
1965 1 20.1586 9.11262 16.5574 0.00617503 -0.00517055 0.00768053
1966 1 17.7172 9.95796 15.1373 0.000714621 -0.0047609 0.00512163
1967 1 18.9262 9.62937 17.1571 -0.00687794 -0.00693885 0.00825856
1968 1 16.4414 9.64106 17.241 0.00320999 -0.00111216 -0.00122723
1969 1 17.6203 7.66721 16.2379 0.00185409 0.00647898 -0.00706991
1970 1 17.6376 9.14157 16.5175 1.13149e-05 -0.0172447 -0.00199321
1971 1 17.6352 6.83568 17.4037 0.000673936 0.00636544 -0.0084806
1972 1 15.1445 7.5953 16.3032 -0.00140397 0.0049499 -0.00597016
1973 1 15.1215 5.46621 17.2406 0.00384237 0.000469197 -0.00345828
1974 1 15.0488 6.79622 17.492 0.000971871 -0.00123942 0.00040866
1975 1 12.6206 5.4327 17.2384 -0.0022161 0.00604493 -0.00583306
1976 1 21.4506 9.60789 17.2983 0.0106311 0.01528 -0.00037936
1977 1 20.1297 7.54513 16.1572 -0.00523514 0.00115587 0.0052742
1978 1 20.1138 5.40249 17.2571 0.00460334 0.00602621 -0.000946801
1979 1 20.1339 6.75623 17.3698 -8.08493e-05 0.00508606 0.0158851
1980 1 17.6597 5.48607 17.3122 -0.0027483 0.000179096 0.00324942
1981 1 0.0287489 24.2976 13.2125 0.00412415 0.000249946 0.00891902
1982 1 5.05702 24.3257 13.2009 0.00830558 -0.00373598 0.00117687
1983 1 3.76178 24.686 14.1245 0.00306979 -0.00550471 0.00112355
1984 1 1.28798 24.7434 14.1089 -0.00192476 -0.00453777 -0.00603392
1985 1 2.51346 22.7841 12.9961 0.00413428 -0.00259874 0.0027666
1986 1 2.46328 24.3109 13.2928 -0.00379117 0.00639494 0.00631261
1987 1 3.7676 23.9347 15.4297 0.000624231 -0.00277712 -0.00149056
1988 1 1.24515 23.9636 15.4488 0.000198853 -0.00341477 -0.00473071
1989 1 2.49527 22.0402 14.3373 -0.000888913 -0.00115531 0.00314248
1990 1 22.6504 22.8144 12.9371 0.00150597 0.00156683 -0.00328819
1991 1 1.27048 22.4343 15.1398 -0.00489756 0.000655396 0.00234368
1992 1 22.6457 20.5824 14.0107 0.000141465 0.00123126 -0.000299085
1993 1 22.6753 22.0375 14.2884 -0.00534071 0.00876626 0.00671324
1994 1 1.23304 21.6897 16.5687 -0.00307688 -0.0103933 -0.00607698
1995 1 22.6355 19.8083 15.4441 -0.00704583 0.00200177 -0.000937649
1996 1 10.1006 24.3775 13.212 0.00600917 -0.00614935 0.00457371
1997 1 8.84358 24.7732 14.0327 -0.00877395 -0.00214799 0.00629027
1998 1 6.3267 24.7216 14.0847 -0.00673535 -0.000231811 0.00245854
1999 1 7.56265 22.817 12.9652 -0.000340969 0.00326617 -0.000536156
2000 1 7.57582 24.3519 13.2472 0.00131782 0.00317396 0.00508386
2001 1 8.8611 23.9951 15.3448 -0.00829791 0.00136169 0.00568405
2002 1 6.33185 23.9577 15.4225 -0.00835503 -0.0100819 0.00160809
2003 1 7.58832 22.1013 14.4047 -0.00833408 -0.0021886 0.00408306
2004 1 4.99985 22.8327 12.9915 -0.0133466 -0.0117272 0.000562552
2005 1 6.27824 22.4121 15.1779 0.000209065 0.00318226 -0.00716335
2006 1 3.81169 22.4708 15.1297 0.0112583 -0.00389757 -0.00734732
2007 1 5.02138 20.5019 14.0993 0.00165024 -0.00501387 0.0160849
2008 1 5.07023 22.0901 14.3666 -0.00502937 -0.00200924 -0.00110552
2009 1 6.38221 21.5701 16.5912 0.0025101 -0.000424274 0.00731358
2010 1 3.81542 21.6942 16.5193 -0.000765154 -5.68988e-05 0.00744727
2011 1 5.05137 19.7042 15.4821 -0.00440371 0.00256618 0.00223023
2012 1 2.53254 20.5079 14.0686 -0.00116503 -0.00856781 -0.00349204
2013 1 3.75784 20.1051 16.2978 0.00172628 0.005407 0.000126954
2014 1 1.25875 20.1124 16.2765 0.00403831 -0.00679153 -0.00264344
2015 1 2.48317 18.2082 15.1609 -0.00192036 -0.00219627 -0.00506465
2016 1 2.49154 19.7479 15.425 0.00169284 -0.00929966 0.00507455
2017 1 3.71339 19.3294 17.4793 0.00125389 -0.00141523 0.00129897
2018 1 1.24992 19.3586 17.5298 0.00750816 0.00268838 0.00547346
2019 1 2.47462 17.5053 16.5796 -5.71496e-05 0.00838543 0.00130862
2020 1 22.6878 18.2789 15.1574 0.00449733 0.00810553 -0.00388106
2021 1 1.23272 18.0024 17.2877 0.00216904 0.00620324 -0.00320419
2022 1 22.6658 15.9849 16.3362 0.00122188 -0.00443487 0.00145288
2023 1 22.6865 17.5431 16.5758 0.00166747 0.00439192 0.00502017
2024 1 22.6638 15.0905 17.423 0.00193464 -0.00495908 0.00366756
2025 1 15.1513 24.2672 13.2351 -0.00586889 0.00576396 0.00282116
2026 1 13.9056 24.6982 14.1354 -0.00270165 0.00189168 -0.00177486
2027 1 11.3532 24.7516 14.0198 -0.00115676 0.00168523 -0.00595785
2028 1 12.5998 22.8758 12.9548 -0.00491528 0.000120479 -0.000848555
2029 1 12.6435 24.3441 13.2156 -0.00134308 0.00210787 0.00235623
2030 1 13.8868 23.9423 15.4494 0.00177826 -0.00314838 -0.011198
2031 1 11.3205 23.9916 15.3871 -0.00276475 -0.00337641 0.00540019
2032 1 12.6081 22.1336 14.3403 -0.00683061 0.00308028 0.00399869
2033 1 10.1049 22.8276 13.0868 -0.000378032 -0.00167268 0.00271876
2034 1 11.358 22.4399 15.1609 -0.00110261 -0.0051388 0.00961897
2035 1 8.82493 22.4863 15.1368 0.000604643 -0.0077469 -0.00169972
2036 1 10.0992 20.5012 14.0899 -0.0123314 0.0091657 -0.00097852
2037 1 10.0839 22.0331 14.3518 -0.0113046 0.00779761 -0.00557542
2038 1 11.3378 21.6687 16.6035 0.00267219 0.000817238 0.00136267
2039 1 8.87093 21.6484 16.6536 -0.00301568 -0.00190392 0.00592389
2040 1 10.0798 19.7186 15.4266 -0.00189597 -0.0125624 0.00198038
2041 1 7.55319 20.524 14.0928 0.00480238 0.000719242 0.00409775
2042 1 8.89068 20.16 16.2619 -0.00347169 -0.000740916 0.00328507
2043 1 6.31097 20.0871 16.2672 0.00703783 -0.00429255 -0.00272683
2044 1 7.58088 18.2531 15.0886 0.00208826 0.00904715 -0.00228566
2045 1 7.56145 19.7546 15.3979 -0.00239541 -0.000171755 0.000175328
2046 1 8.79165 19.3085 17.4015 0.00651702 0.000231353 0.00757242
2047 1 6.41106 19.2766 17.4371 -0.000203961 0.00246482 -0.00101083
2048 1 7.57453 17.5444 16.5015 0.000336633 0.000875629 -0.00168309
2049 1 5.01163 18.258 15.1776 -0.00335685 -0.00356807 0.00129891
2050 1 6.33233 17.9626 17.2513 0.00955159 0.00297755 0.00468102
2051 1 3.7857 17.983 17.2747 0.000281751 -0.00491858 0.00913636
2052 1 5.03132 16.0289 16.1984 0.00166994 -0.00309845 0.00256993
2053 1 5.03132 17.5221 16.5436 -0.00121896 -0.00610003 0.00546327
2054 1 4.95535 15.3131 17.417 0.0013713 -0.00906815 -0.00237812
2055 1 2.48714 16.0121 16.3288 0.00784042 -0.00310991 -0.00156208
2056 1 2.51229 13.8578 17.2655 -0.00376849 -0.00215177 0.00468512
2057 1 2.5112 15.1707 17.5433 0.00361556 0.00461582 -0.000838049
2058 1 22.6647 13.7496 17.2396 -0.00159612 -0.00649697 0.000236505
2059 1 20.2029 24.2632 13.3021 -0.00489317 -0.00219836 -9.18277e-05
2060 1 18.9203 24.6859 14.1078 0.00830285 0.0013057 0.00135803
2061 1 16.3941 24.7241 14.0615 -0.00109973 -0.00759644 0.00383109
2062 1 17.6758 22.8227 13.0059 -0.00818089 0.00523707 -0.00126112
2063 1 17.6922 24.3418 13.2927 -0.00420356 -0.000937942 0.00326782
2064 1 18.9504 23.9359 15.4776 0.000874263 0.0107406 0.002016
2065 1 16.3826 23.9769 15.4007 0.00874803 0.00229701 0.00211466
2066 1 17.6619 22.0585 14.3457 -0.00647841 -0.0031772 -0.00794795
2067 1 15.1731 22.8466 12.9877 -0.00903757 -0.00387204 -0.00593632
2068 1 16.3982 22.4698 15.0997 0.00520136 -0.00142138 -0.00162485
2069 1 13.8336 22.4657 15.1307 -0.00631447 -0.00673843 0.00410827
2070 1 15.1151 20.485 14.0513 0.000249192 0.00219893 0.00274267
2071 1 15.0804 22.062 14.3206 0.00747511 -0.00523741 -0.000492751
2072 1 16.3158 21.7145 16.5284 -0.000624817 0.000276501 0.00363738
2073 1 13.8653 21.7348 16.7247 0.00513952 -0.0010262 -0.00160375
2074 1 15.1398 19.7496 15.3608 -0.00525976 -0.0106893 -0.00318193
2075 1 12.6028 20.557 14.0675 -0.00460119 -0.00472382 0.0023044
2076 1 13.8769 20.1622 16.3161 -0.00308941 0.00104664 -0.0054601
2077 1 11.3309 20.1409 16.3178 -0.00614392 0.00148132 -0.00648189
2078 1 12.5822 18.2463 15.2093 0.00734734 -0.00182073 -0.0016343
2079 1 12.683 19.8404 15.4018 -0.00883871 0.00557822 0.00160523
2080 1 13.8012 19.3628 17.4887 0.00376128 0.00297683 -0.00285158
2081 1 11.3628 19.2852 17.4639 -0.00049489 -0.00640091 -0.00493597
2082 1 12.558 17.4558 16.5572 -0.0130786 0.00346917 0.013487
2083 1 10.072 18.2023 15.1254 0.00036773 -0.00227902 0.00355102
2084 1 11.2799 17.9307 17.177 0.000113858 0.0082696 -0.00120011
2085 1 8.85217 17.9334 17.2155 0.00557999 0.00246923 0.00530101
2086 1 10.1233 16.0156 16.2512 0.00087154 0.00336354 0.000842591
2087 1 10.0995 17.4345 16.5367 -0.0117395 -0.0030035 0.0040409
2088 1 10.1823 15.1699 17.4022 0.00170641 -0.000675953 -0.000546426
2089 1 7.59862 16.0347 16.2234 0.00615587 0.0029514 -0.00739574
2090 1 7.52746 13.8003 17.285 0.00341877 -0.0130106 0.000394898
2091 1 7.48384 15.1365 17.4017 -0.00697531 0.00749957 0.00161501
2092 1 5.02997 13.9377 17.3147 0.00758277 5.68919e-06 0.00532806
2093 1 21.4498 24.6627 14.074 0.00378879 0.00556665 -0.00985434
2094 1 21.4659 23.9192 15.3835 -0.00456351 -0.000962464 -0.00774248
2095 1 20.1499 22.7824 13.0015 -0.00659647 0.00917593 0.00290314
2096 1 21.4173 22.3938 15.1399 0.00258209 -0.00482165 -0.00242093
2097 1 18.9058 22.451 15.1877 0.0051096 -0.00270979 -0.00312255
2098 1 20.1344 20.515 14.0838 -0.00624512 -0.000128842 0.00836682
2099 1 20.1567 22.0816 14.3536 0.00614686 0.00623277 0.00583679
2100 1 21.4186 21.6138 16.5281 0.00755338 -0.00244008 0.000161594
2101 1 18.9175 21.6454 16.5818 -0.00493508 -0.000476945 0.00590151
2102 1 20.1983 19.806 15.4197 0.00563002 0.0038115 0.00492785
2103 1 17.6391 20.5519 14.1373 -0.00149067 0.00021715 0.0130582
2104 1 18.9593 20.1878 16.2369 0.00134067 -0.00673298 0.0128511
2105 1 16.3808 20.1208 16.2527 0.00533214 0.000526104 -0.000440281
2106 1 17.7056 18.2641 15.2102 0.0060511 -0.00221083 0.00654294
2107 1 17.6302 19.7544 15.3935 0.000610447 -0.00224952 -0.00110041
2108 1 18.9495 19.3193 17.4397 -0.00584098 0.00427968 0.000208986
2109 1 16.3502 19.3476 17.4692 -0.00172892 0.00843552 0.00257067
2110 1 17.6356 17.5363 16.6024 0.00600892 -0.003628 0.00168275
2111 1 15.1009 18.2712 15.1659 0.000593727 0.00161572 0.00498582
2112 1 16.3279 18.0011 17.2399 0.0158649 0.0055723 0.00611672
2113 1 13.8344 17.9858 17.3233 -0.00165606 -0.00274272 0.0119616
2114 1 15.1212 15.9472 16.3308 -0.00246807 -0.000591512 0.00606849
2115 1 15.0611 17.4743 16.6102 -0.00192753 0.000993822 -0.000319367
2116 1 15.1376 15.1562 17.5027 0.00462045 0.00954941 0.00177528
2117 1 12.6195 15.9455 16.2341 -0.0054128 -0.00777987 -0.00061474
2118 1 12.6297 13.8126 17.272 0.00978834 0.00601624 0.00552864
2119 1 12.591 15.1986 17.4705 0.0040996 -0.0047614 -0.00198439
2120 1 10.0855 13.7934 17.1868 0.00118586 -0.000373773 -0.00184266
2121 1 21.4503 20.1269 16.2962 0.0060196 0.000629162 0.00798471
2122 1 21.3952 19.3628 17.4757 0.000860485 -0.00338508 0.00427956
2123 1 20.1739 18.3218 15.1402 -0.00478292 0.00976856 0.000407606
2124 1 21.4175 18.0262 17.2254 -0.00752286 0.00253101 0.00529665
2125 1 18.9067 17.9653 17.2879 -0.00330218 0.00111244 0.00750582
2126 1 20.1464 15.9539 16.2072 -0.0035104 -0.00560874 0.00392578
2127 1 20.2027 17.509 16.5467 -0.000164408 0.00656584 -0.0062456
2128 1 20.1335 15.1856 17.3831 -0.00277491 -0.000116723 0.00511582
2129 1 17.6612 16.0077 16.2338 0.000411787 -0.00240149 -0.00470051
2130 1 17.6255 13.9038 17.3005 -0.000544464 -0.000883915 -0.000453262
2131 1 17.6595 15.2768 17.4561 0.000847004 0.00431606 0.000175747
2132 1 15.1236 13.7984 17.2882 -0.0093286 -0.00666879 -0.00208431
2133 1 20.1674 13.8593 17.2226 -0.00539798 -0.00605564 0.00773186
2134 1 2.52701 24.3338 16.2135 -0.000140731 -0.00345604 0.00195833
2135 1 2.5057 23.5229 17.3863 -0.00253966 -0.00470237 0.00373688
2136 1 0.0503386 24.3015 16.2968 0.00594952 0.00190717 0.00400074
2137 1 22.6553 22.1509 17.2425 -0.00483032 -0.00708485 0.00366168
2138 1 22.6389 23.5591 17.5049 0.00250651 -0.00575978 -0.00550826
2139 1 7.60492 24.3233 16.2869 0.00270371 -0.00244746 -0.0022338
2140 1 7.63971 23.496 17.4017 3.51761e-05 -0.00508807 0.00289217
2141 1 5.05074 24.3894 16.3108 -0.00588849 -0.00879267 -0.00430546
2142 1 5.11726 22.1263 17.2498 -0.00487204 0.000761243 0.00600346
2143 1 5.08923 23.493 17.4394 0.00258074 0.00438184 0.00875039
2144 1 2.53867 22.1868 17.2379 -0.00318805 0.00461362 0.00508111
2145 1 12.5718 24.3169 16.244 -0.00401691 0.0073556 0.000348682
2146 1 12.5767 23.4689 17.442 0.00238879 0.00234676 -0.000839467
2147 1 10.123 24.3596 16.2665 -0.00533705 0.00347024 0.00169673
2148 1 10.0854 22.1631 17.2538 0.00670322 0.000364371 0.00111099
2149 1 10.1062 23.5374 17.4213 0.00314449 -0.00184709 0.00800315
2150 1 7.63563 22.1657 17.2805 0.00240783 0.00564177 -0.00762981
2151 1 17.681 24.3145 16.2286 0.00392251 5.59981e-05 -0.000683717
2152 1 17.5789 23.4795 17.3157 0.00149247 0.010749 0.000891112
2153 1 15.1654 24.3307 16.2485 0.00176792 -0.0038104 -0.000921279
2154 1 15.1655 22.2211 17.2709 0.0121301 0.00313132 0.00582237
2155 1 15.2056 23.5553 17.5019 0.00589557 -0.00183554 -0.000438406
2156 1 12.5567 22.1587 17.2949 0.00684245 -0.00227711 0.00921649
2157 1 20.1652 24.3428 16.2984 -0.00319824 0.00104369 -0.00708578
2158 1 20.1336 22.1024 17.2924 -0.00606029 -0.0048625 -0.00158764
2159 1 20.1806 23.4443 17.4006 -0.00196092 0.00779871 0.00552603
2160 1 17.6129 22.16 17.1798 0.00640092 -0.000580528 0.00311057
