LAMMPS data file via write_data, version 23 Jun 2022, timestep = 0

720 atoms
3 atom types

0 15.126656667556212 xlo xhi
0 15.126656667556212 ylo yhi
-2.2283669804811876 32.0884845189291 zlo zhi

Masses

1 12.011
2 1.00784
3 16

Atoms # charge/kk

3 1 1.1158268356574047e-02 1.2605547222479097e+00 1.2605547229017988e+00 -1.6812914812951796e+00 0 0 0
4 1 -2.0178710867085540e-03 2.5211094447242939e+00 1.2605547223453804e+00 -1.0050699573538708e+00 0 0 0
6 1 -1.9658670659032031e-03 1.0682266350250666e-10 6.3027736114145361e+00 -1.0050699565845962e+00 0 0 0
7 1 1.1143012645663739e-02 1.2605547201950693e+00 6.3027736116116406e+00 -1.6812914821385971e+00 0 0 0
8 1 1.1153200482076010e-02 1.2605547208462657e+00 3.7816641663906734e+00 -1.6812914820915941e+00 0 0 0
9 1 -1.9561024660266061e-03 2.5211094449260636e+00 6.3027736114465487e+00 -1.0050699587349290e+00 0 0 0
10 1 -1.9935704838481630e-03 2.5211094449156985e+00 3.7816641671956757e+00 -1.0050699587180862e+00 0 0 0
11 1 1.1147069152966328e-02 3.7816641676376310e+00 3.7816641659154717e+00 -1.6812914849045104e+00 0 0 0
12 1 1.1129315920793781e-02 3.7816641676367078e+00 1.2605547221250379e+00 -1.6812914834849051e+00 0 0 0
13 1 -2.0094853681996956e-03 5.0422188890102086e+00 3.7816641671373081e+00 -1.0050699582018243e+00 0 0 0
14 1 -1.9998615864853242e-03 5.0422188890895967e+00 1.2605547224506921e+00 -1.0050699574861781e+00 0 0 0
15 1 1.1157887389736122e-02 6.3027736122812241e+00 1.2605547219264850e+00 -1.6812914805323187e+00 0 0 0
24 1 1.1130365260504718e-02 3.7816641679149661e+00 6.3027736113864554e+00 -1.6812914840397497e+00 0 0 0
26 1 -1.9360545220110613e-03 5.0422188889113828e+00 6.3027736114443442e+00 -1.0050699576761171e+00 0 0 0
27 1 1.1145427953867698e-02 6.3027736126352849e+00 6.3027736114460060e+00 -1.6812914789440299e+00 0 0 0
28 1 1.1160548307779966e-02 6.3027736123193163e+00 3.7816641662475372e+00 -1.6812914807244494e+00 0 0 0
73 1 2.6303830878349594e-03 1.5109832991588815e+01 2.4816452766299184e+00 1.9676177197403215e-02 -1 0 0
74 1 2.7898062889591159e-03 1.5059094053780951e+01 3.7814553977825440e+00 2.6338221079369397e+00 -1 0 0
75 1 2.6332276955162168e-03 1.5111666528495203e+01 1.2886642192622808e+00 2.6420702888597885e+00 -1 0 0
76 1 2.6695039392647933e-03 1.2355103025477407e+00 2.5233560283408289e+00 8.7163786276158395e-01 0 0 0
77 1 2.4977200261137545e-03 1.5099613614786261e+01 1.5113293216835771e+01 -3.0916622443769776e-02 -1 -1 0
78 1 3.3226956267492962e-03 1.2527789117234867e+00 1.3014330431141998e+00 1.7547462419740005e+00 0 0 0
79 1 2.6197303159904454e-03 2.5192031619864883e+00 5.3445344062636166e-02 1.2307843798675380e-02 0 0 0
80 1 2.7808716127076696e-03 1.2332980078743996e+00 1.1872873719695014e-02 8.6314328413785235e-01 0 0 0
81 1 2.8603683980828513e-03 2.5549918998354526e+00 1.2085877891211210e+00 2.6420980065613420e+00 0 0 0
82 1 2.6467647037637745e-03 3.8382526053476780e+00 2.3100529848944381e-03 8.4701560962368860e-01 0 0 0
85 1 2.6300841536594567e-03 1.5060970755592740e+01 6.2978291131949637e+00 2.6324005404644626e+00 -1 0 0
88 1 3.4373028233390416e-03 1.2261108236675446e+00 6.3126761628271897e+00 1.7690833392618255e+00 0 0 0
89 1 3.3042023012926176e-03 1.2135774604084728e+00 3.8226703471522607e+00 1.7295667115883007e+00 0 0 0
90 1 2.6034958011777994e-03 2.4694977202361561e+00 5.0297440072509518e+00 2.6513507208587705e-02 0 0 0
91 1 2.5402740930173229e-03 1.2465263515188392e+00 5.0124990849797140e+00 8.6605634589579750e-01 0 0 0
92 1 2.6353266696443750e-03 2.5158179378708820e+00 6.3340740793558856e+00 2.6430591236242376e+00 0 0 0
93 1 2.8242160638985905e-03 2.5236329314411781e+00 3.8072257446015292e+00 2.6728032198589009e+00 0 0 0
94 1 2.5498776724417623e-03 3.7613006776298428e+00 5.0743264984269016e+00 8.4301825275264031e-01 0 0 0
95 1 2.5596491286667593e-03 2.5316690335745120e+00 2.5502929677566719e+00 -9.0314493842594840e-03 0 0 0
96 1 3.3077333022635213e-03 3.7991888483241674e+00 3.8904086695159368e+00 1.7400004778382785e+00 0 0 0
97 1 3.1705522365626545e-03 3.8102776695316622e+00 1.2609991272782506e+00 1.7343191603404449e+00 0 0 0
98 1 2.5582474215147398e-03 4.9935327893769719e+00 2.5219385379049823e+00 -4.3927939956211581e-02 0 0 0
99 1 2.8598603816640711e-03 3.7515301803470509e+00 2.4949606447289558e+00 9.2217782298725759e-01 0 0 0
100 1 2.8408389529897349e-03 4.9935435538895847e+00 3.8113540317924817e+00 2.6944521777756347e+00 0 0 0
101 1 2.7556150796552679e-03 5.0425375388927289e+00 1.2611556775508803e+00 2.6431554492660845e+00 0 0 0
102 1 2.7831683800399803e-03 6.3007158073299108e+00 2.5386726445961725e+00 8.7859423967196582e-01 0 0 0
103 1 2.4403611503129286e-03 5.0246071561731238e+00 2.5621132958193347e-03 -3.8024199324499484e-02 0 0 0
104 1 3.3068534240227290e-03 6.3266463570604419e+00 1.2455708828136944e+00 1.7609486451644889e+00 0 0 0
105 1 2.5935586057275026e-03 7.5591735584646651e+00 2.3343589944734365e-02 1.6031860831597342e-02 0 0 0
106 1 2.7363732741935839e-03 6.2992950215112113e+00 1.6526737142047564e-03 8.5043658690286450e-01 0 0 0
123 1 3.3138074811320238e-03 3.7208106814663080e+00 6.3164078081236514e+00 1.7781952228517981e+00 0 0 0
124 1 2.4808161455050375e-03 5.0544338127607267e+00 7.5619504461311768e+00 3.4982796619719616e-03 0 0 0
125 1 2.7159541160732071e-03 3.8288099177256569e+00 7.5764673375203868e+00 8.6717384575748624e-01 0 0 0
127 1 2.7718715288894921e-03 5.0311571384693492e+00 6.2716979790225267e+00 2.6702324375154682e+00 0 0 0
129 1 2.6051060472609779e-03 5.0082165979792457e+00 5.0405989479062461e+00 1.4963045329663759e-02 0 0 0
130 1 3.3682415004933726e-03 6.3114643567346214e+00 6.3070000196973437e+00 1.8103065234826030e+00 0 0 0
131 1 3.2657948180561721e-03 6.3000693184057983e+00 3.7584561655325635e+00 1.7308873517020282e+00 0 0 0
132 1 2.5717570764388627e-03 7.5095681834504733e+00 5.0042108888382479e+00 1.2427514435587846e-02 0 0 0
133 1 2.7209012643181346e-03 6.2954278166396644e+00 4.9877695643263182e+00 8.8483663790800571e-01 0 0 0
217 1 2.9853210238917041e-03 8.4431319475894683e-03 2.4974841469259248e+00 3.5598945359316758e+00 0 0 0
220 1 2.7105700115830100e-03 1.3004956776218537e+00 2.5120867595349150e+00 4.4005467936230449e+00 0 0 0
221 1 3.0526853741139988e-03 1.5105334006895662e+01 2.3040852931180196e-02 3.5136905576400088e+00 -1 0 0
223 1 3.0247613321252387e-03 2.5100290714231339e+00 1.5103006220809894e+01 3.5711379467670068e+00 0 -1 0
224 1 2.5926798465726012e-03 1.2134604306954213e+00 1.5124958543433555e+01 4.4494304453390638e+00 0 -1 0
226 1 2.6334613212320884e-03 3.7786218199190942e+00 1.5079341872136098e+01 4.4579295259747749e+00 0 -1 0
227 1 2.9347823564490881e-03 1.0457471503412974e-02 7.5558409605046659e+00 3.5804874357297489e+00 0 0 0
231 1 2.9601311027395607e-03 1.5212652625654771e-02 5.0490492681115633e+00 3.5214461814102780e+00 0 0 0
234 1 2.8446003555552008e-03 2.5110852658624960e+00 5.0771893659278247e+00 3.5602940797230160e+00 0 0 0
235 1 2.5824232372052146e-03 1.2988567929793229e+00 5.0109777923851722e+00 4.4355079784201727e+00 0 0 0
238 1 2.7472755188339727e-03 3.7657954539992238e+00 5.0879453522541329e+00 4.4357052876755505e+00 0 0 0
239 1 2.9831263572617107e-03 2.4931538676727372e+00 2.5542419613602489e+00 3.5012582022939758e+00 0 0 0
242 1 2.9376802723498291e-03 5.0118019192030303e+00 2.4951233183565131e+00 3.5614307983103064e+00 0 0 0
243 1 2.6566328995583075e-03 3.8388005495348825e+00 2.4379152090808907e+00 4.4225624834275967e+00 0 0 0
246 1 2.6372749074854555e-03 6.3190509319890964e+00 2.4891336520183072e+00 4.4715657770581050e+00 0 0 0
247 1 2.9997737876880102e-03 5.0713059031418997e+00 1.5124597015821385e+01 3.5488221559809046e+00 0 -1 0
250 1 2.6336324988181798e-03 6.2821989979633290e+00 1.5081257744560240e+01 4.4402323559298047e+00 0 -1 0
268 1 2.8508617817145730e-03 5.0276299143300811e+00 7.5515718868500503e+00 3.5812089876645028e+00 0 0 0
269 1 2.5382285258592967e-03 3.8343668576808456e+00 7.6340362932217607e+00 4.4780868997738246e+00 0 0 0
273 1 2.7109140627891532e-03 5.0403136920119396e+00 5.0424337394003578e+00 3.5434466764676120e+00 0 0 0
277 1 2.6949492728035270e-03 6.2442682474824096e+00 4.9606270486387789e+00 4.4153486807258693e+00 0 0 0
137 1 2.5422104756022738e-03 7.5739716316315686e+00 2.5525390500708784e+00 2.5341347134216008e-03 0 0 0
86 1 2.6800748606948519e-03 1.2615323300166248e+00 7.5517025605145252e+00 8.3475922335048225e-01 0 0 0
121 1 2.5979273804832112e-03 2.5576480510368516e+00 7.5535763515467798e+00 -2.8061594973114116e-03 0 0 0
128 1 2.7890453050236803e-03 6.2892919896401134e+00 7.5332650464370907e+00 8.6006517456115783e-01 0 0 0
230 1 2.5362142422570601e-03 1.2528530104762419e+00 7.5056746805060621e+00 4.4249245669711561e+00 0 0 0
265 1 3.0633696028994233e-03 2.5280434572337107e+00 7.5898074949265188e+00 3.5546798262744179e+00 0 0 0
272 1 2.5161762294622883e-03 6.2701775513215408e+00 7.5590888390482149e+00 4.4551710826672775e+00 0 0 0
1 1 -1.9579585405299672e-03 1.5126656667501779e+01 3.7816641669651343e+00 -1.0050699565518968e+00 -1 0 0
2 1 -1.9922784241028888e-03 1.5126656667235443e+01 1.2605547220727884e+00 -1.0050699559145135e+00 -1 0 0
30 1 -2.0470262110111716e-03 7.5633283340488378e+00 3.7816641670523401e+00 -1.0050699572759534e+00 0 0 0
83 1 2.5751990811713576e-03 1.5087365091639120e+01 7.5462023080045091e+00 -1.8727828407767034e-03 -1 0 0
87 1 2.5159220020594918e-03 1.5121688999991088e+01 5.0161876965648053e+00 7.6166332550738416e-03 -1 0 0
135 1 2.7587749403436409e-03 7.5907862079095878e+00 3.7736644482820418e+00 2.6655074087826778e+00 0 0 0
169 1 2.5556738522562587e-03 7.6037921615613087e+00 7.5212673450475194e+00 -3.5802717735240984e-02 0 0 0
249 1 2.9990039195541556e-03 7.5496279728533633e+00 2.3078425968725967e-02 3.5467757518134908e+00 0 0 0
276 1 2.9650860753015641e-03 7.5335530700051452e+00 5.0183596732584261e+00 3.5727968159903885e+00 0 0 0
313 1 2.9633690950795037e-03 7.5116481733573632e+00 7.6022713130735777e+00 3.5154619790489883e+00 0 0 0
16 1 -1.9465753223075932e-03 7.5633283340686637e+00 1.2605547224737705e+00 -1.0050699563815706e+00 0 0 0
29 1 -1.9478102394996154e-03 7.5633283339981769e+00 6.3027736113919008e+00 -1.0050699568658794e+00 0 0 0
31 1 1.1163118711278714e-02 8.8238830529603423e+00 3.7816641664339983e+00 -1.6812914829063001e+00 0 0 0
32 1 1.1120270524336038e-02 8.8238830529113450e+00 1.2605547215727173e+00 -1.6812914817809126e+00 0 0 0
33 1 -2.0082438847591417e-03 1.0084437778600332e+01 3.7816641669893816e+00 -1.0050699598318336e+00 0 0 0
34 1 -1.9402721715552314e-03 1.0084437778787219e+01 1.2605547224540528e+00 -1.0050699583414420e+00 0 0 0
35 1 1.1144038784319877e-02 1.1344992499916158e+01 1.2605547221340032e+00 -1.6812914859163282e+00 0 0 0
36 1 -1.9358303970460871e-03 1.2605547222541439e+01 1.2605547221585576e+00 -1.0050699580067393e+00 0 0 0
48 1 1.1124416940470871e-02 8.8238830533043568e+00 6.3027736119918014e+00 -1.6812914816953328e+00 0 0 0
50 1 -1.9040445532128557e-03 1.0084437778537938e+01 6.3027736112939303e+00 -1.0050699597058323e+00 0 0 0
51 1 1.1115669801095865e-02 1.1344992501615019e+01 6.3027736124272646e+00 -1.6812914850784593e+00 0 0 0
52 1 1.1158152551713971e-02 1.1344992501279799e+01 3.7816641670364324e+00 -1.6812914861040344e+00 0 0 0
53 1 -1.9421493703764331e-03 1.2605547222410094e+01 6.3027736113143096e+00 -1.0050699583658929e+00 0 0 0
54 1 -2.0127731742786178e-03 1.2605547222369813e+01 3.7816641668438176e+00 -1.0050699585915919e+00 0 0 0
55 1 1.1129684044195046e-02 1.3866101947625204e+01 3.7816641673250682e+00 -1.6812914811088673e+00 0 0 0
56 1 1.1141328475417192e-02 1.3866101947675176e+01 1.2605547232645349e+00 -1.6812914824775878e+00 0 0 0
68 1 1.1107703028520259e-02 1.3866101947003900e+01 6.3027736121065576e+00 -1.6812914804256593e+00 0 0 0
107 1 2.6331164348469701e-03 7.5348637365024231e+00 1.2482873053436263e+00 2.6742263936206889e+00 0 0 0
108 1 2.7431996594217472e-03 8.8432433007207401e+00 1.6916840281458456e-03 8.8829442230274780e-01 0 0 0
134 1 2.7949037031960223e-03 7.5532482532496852e+00 6.3002930976759171e+00 2.7196149792056898e+00 0 0 0
136 1 2.8296724918105021e-03 8.8039327086320966e+00 4.9767423549135170e+00 8.9363356520396220e-01 0 0 0
138 1 3.2284839116343712e-03 8.8301761634978480e+00 3.7296683225277087e+00 1.7997433436904908e+00 0 0 0
139 1 3.3535928621098573e-03 8.8270208046299619e+00 1.2689696735205833e+00 1.7888819656233799e+00 0 0 0
140 1 2.4822671559087766e-03 1.0060784511952727e+01 2.5369826541575717e+00 -2.1898510901001846e-02 0 0 0
141 1 2.6482983931254960e-03 8.8439011235526177e+00 2.4923156921482494e+00 8.2893629831366877e-01 0 0 0
142 1 2.6084996833150315e-03 1.0099189152223975e+01 3.6632824641146469e+00 2.6500315306970901e+00 0 0 0
143 1 2.5734349769473957e-03 1.0080464460033063e+01 1.2324026939110064e+00 2.6633492311566269e+00 0 0 0
144 1 2.8494400934736788e-03 1.1345862631668124e+01 2.5193742016241298e+00 8.9103319451193475e-01 0 0 0
145 1 2.5637463304697874e-03 1.0073942807647242e+01 1.5121964661312122e+01 9.0255426695572930e-04 0 -1 0
146 1 3.2084369416381922e-03 1.1357576661872070e+01 1.2444563931082586e+00 1.7811662522458223e+00 0 0 0
147 1 2.4633747931734687e-03 1.2625627817049670e+01 1.5122413646683707e+01 -9.7873146592509022e-03 0 -1 0
148 1 2.8022785232936728e-03 1.1349046815957468e+01 1.8864406240386631e-02 8.6997609936752562e-01 0 0 0
149 1 2.6417075528644136e-03 1.2593612235248589e+01 1.2056906440311614e+00 2.6415749155496848e+00 0 0 0
150 1 2.7566948998528325e-03 1.3839494802154665e+01 1.5066550909711014e+01 8.4627041204524700e-01 0 -1 0
171 1 3.3917324603280692e-03 8.8595815996226523e+00 6.2850111469978795e+00 1.7734481835706672e+00 0 0 0
173 1 2.7243063914350820e-03 8.8250912405723874e+00 7.5493047277141034e+00 8.5234983779807694e-01 0 0 0
175 1 2.5619130022437198e-03 1.0039816525293961e+01 6.2427039238694313e+00 2.6363570988995604e+00 0 0 0
176 1 2.9197027731326058e-03 1.1336449974442486e+01 7.5098045173281447e+00 8.9383052415467057e-01 0 0 0
177 1 2.5213753822096330e-03 1.0068821348645535e+01 5.0185475844567655e+00 7.4020531194218895e-03 0 0 0
178 1 3.3074658096860876e-03 1.1308316339349567e+01 6.2466625418078836e+00 1.8409460434829692e+00 0 0 0
179 1 3.0797951493386757e-03 1.1298224255803689e+01 3.7745446244397343e+00 1.7944346366570247e+00 0 0 0
180 1 2.4758679014011227e-03 1.2626972923541816e+01 5.0237186035134878e+00 -9.6664890321713728e-02 0 0 0
181 1 2.9509674488556411e-03 1.1316209299657082e+01 4.9928091835235442e+00 8.8988311363152428e-01 0 0 0
182 1 2.7031482184657605e-03 1.2592662159231025e+01 6.3084337717160217e+00 2.7394628477291390e+00 0 0 0
183 1 2.7880504908514643e-03 1.2570557101644633e+01 3.7860039159297911e+00 2.6594196232210101e+00 0 0 0
184 1 2.7205267288630173e-03 1.3848567639378640e+01 5.0546849397634990e+00 8.0956003604973559e-01 0 0 0
185 1 2.5449689700877734e-03 1.2601890407598280e+01 2.5151900641936078e+00 1.2487797436769456e-02 0 0 0
186 1 3.2995663159946583e-03 1.3821576470678441e+01 3.7564231358703295e+00 1.7089632518669882e+00 0 0 0
187 1 3.3105499586192225e-03 1.3851325982414245e+01 1.2446188013008965e+00 1.7784639532599715e+00 0 0 0
188 1 2.6246741025777449e-03 1.3806464733986642e+01 2.4870794360049260e+00 9.0749071200147702e-01 0 0 0
209 1 3.4486196921640279e-03 1.3840800670431630e+01 6.2893648889277340e+00 1.7647114456588533e+00 0 0 0
252 1 2.7234678016592167e-03 8.8470478558129741e+00 2.9358518131496154e-02 4.4474082261865933e+00 0 0 0
280 1 2.6423904743871863e-03 8.7990298976712520e+00 5.0455513817821283e+00 4.4841383484125448e+00 0 0 0
281 1 2.9803655867745309e-03 7.5646495291401008e+00 2.5139557990085106e+00 3.5475050594346387e+00 0 0 0
284 1 2.8668925512185888e-03 1.0113420483982402e+01 2.4483595152579962e+00 3.5434159610422640e+00 0 0 0
285 1 2.7330407060712513e-03 8.8313035293406941e+00 2.5051953266152172e+00 4.4730675442010286e+00 0 0 0
288 1 2.6805389881178455e-03 1.1335076422172998e+01 2.4853615522804495e+00 4.4729398808511522e+00 0 0 0
289 1 2.9012355310244027e-03 1.0113888439616384e+01 4.1677897060154716e-03 3.5470522734658143e+00 0 0 0
291 1 2.9892064179610177e-03 1.2563824722729937e+01 1.5099486434108270e+01 3.5712792251679502e+00 0 -1 0
292 1 2.5790798675303854e-03 1.1326752682604571e+01 1.9288862891328237e-02 4.4514826041141760e+00 0 0 0
294 1 2.6729419858308461e-03 1.3875009779369126e+01 1.5067305827353346e+01 4.4896187001441739e+00 0 -1 0
317 1 2.7325350858613310e-03 8.8432412986704509e+00 7.5955757838705971e+00 4.4636091119646375e+00 0 0 0
320 1 2.6042888019520176e-03 1.1391831021614811e+01 7.5182919577582936e+00 4.4549731086495239e+00 0 0 0
321 1 3.0591218385982114e-03 1.0058409176880213e+01 4.9558708603813919e+00 3.5965571849794657e+00 0 0 0
324 1 2.9920933674818292e-03 1.2588006373791012e+01 5.0242801911644239e+00 3.5875941368845372e+00 0 0 0
325 1 2.5608018565005971e-03 1.1291087706830213e+01 4.9506347296140367e+00 4.4299387685056315e+00 0 0 0
328 1 2.7811873926965212e-03 1.3914955574739434e+01 5.0656970091131797e+00 4.4168524744688673e+00 0 0 0
329 1 2.9899602387137981e-03 1.2634511294931837e+01 2.4953629462105558e+00 3.5452643940214221e+00 0 0 0
332 1 2.6883562790728033e-03 1.3842337490681501e+01 2.4867354687795600e+00 4.4290055073946872e+00 0 0 0
210 1 2.7167653689164728e-03 1.3805091546375246e+01 7.5758959246977895e+00 8.1735698279343005e-01 0 0 0
316 1 3.1449841843153789e-03 1.0110436458161463e+01 7.5137064986465116e+00 3.5547832588044250e+00 0 0 0
351 1 2.8344586569619074e-03 1.2631598946739583e+01 7.5164886835075793e+00 3.5914709897224339e+00 0 0 0
354 1 2.5702622962872532e-03 1.3884953253505540e+01 7.5795439520992867e+00 4.4717934959977219e+00 0 0 0
5 1 -1.9341170912188653e-03 9.8858793878864282e-11 8.8238830561847124e+00 -1.0050699560128813e+00 0 0 0
19 1 1.1155815667271002e-02 1.2605547210371155e+00 1.1344992499931685e+01 -1.6812914834419188e+00 0 0 0
20 1 1.1132713102183245e-02 1.2605547201088889e+00 8.8238830554351022e+00 -1.6812914817931552e+00 0 0 0
21 1 -2.0504691316917140e-03 2.5211094448022231e+00 1.1344992500653397e+01 -1.0050699580601807e+00 0 0 0
22 1 -1.8651948302416772e-03 2.5211094449368510e+00 8.8238830561053518e+00 -1.0050699582336451e+00 0 0 0
23 1 1.1126019854601814e-02 3.7816641673365168e+00 8.8238830554085332e+00 -1.6812914844001430e+00 0 0 0
25 1 -1.9948048948366585e-03 5.0422188889926263e+00 8.8238830561869808e+00 -1.0050699581763198e+00 0 0 0
37 1 1.1151542601948349e-02 1.2605547225249136e+00 1.3866101946397698e+01 -1.6812914829922907e+00 0 0 0
38 1 -1.8911378962532476e-03 2.5211094446000235e+00 1.3866101944922193e+01 -1.0050699571979667e+00 0 0 0
39 1 1.1114740209913408e-02 3.7816641678480529e+00 1.3866101946899430e+01 -1.6812914840303801e+00 0 0 0
40 1 1.1150338928060837e-02 3.7816641672705602e+00 1.1344992500933653e+01 -1.6812914858088936e+00 0 0 0
41 1 -1.9440465167219801e-03 5.0422188890583568e+00 1.3866101944898972e+01 -1.0050699573548083e+00 0 0 0
42 1 -1.9670700379288033e-03 5.0422188890601998e+00 1.1344992500550301e+01 -1.0050699585698826e+00 0 0 0
43 1 1.1120659845548050e-02 6.3027736130255470e+00 1.1344992501072683e+01 -1.6812914833789014e+00 0 0 0
44 1 1.1124944857324742e-02 6.3027736128459004e+00 8.8238830551932104e+00 -1.6812914809209576e+00 0 0 0
57 1 1.1128256880692597e-02 6.3027736127768303e+00 1.3866101946782717e+01 -1.6812914812113431e+00 0 0 0
84 1 2.8042953656925778e-03 1.5088766189333731e+01 8.8352272825755271e+00 2.6737178444104135e+00 -1 0 0
109 1 2.5400009947795007e-03 4.6855703314062941e-02 1.2634492275183076e+01 -1.4323841006445244e-02 0 0 0
110 1 2.7975949826255730e-03 9.2804643274979337e-03 1.3850035738417873e+01 2.6466819438438076e+00 0 0 0
111 1 2.6941999871131950e-03 4.3211253436581346e-02 1.1263212195791676e+01 2.6869382978457850e+00 0 0 0
112 1 2.7309636945257896e-03 1.2843287074065639e+00 1.2549415626505990e+01 8.5478166126497435e-01 0 0 0
114 1 3.1913454455518740e-03 1.2828813317991434e+00 1.1308560492968281e+01 1.7444733862630004e+00 0 0 0
115 1 3.3982941515789435e-03 1.2398604927706631e+00 8.7764498258950443e+00 1.7319714326211324e+00 0 0 0
116 1 2.6691541870161998e-03 2.5289176656410173e+00 1.0187772623993064e+01 3.5281835356693977e-02 0 0 0
117 1 2.6157927859775799e-03 1.2404126775351401e+00 1.0076786820340740e+01 8.5134258837095589e-01 0 0 0
118 1 2.7558596184732815e-03 2.5222955440362265e+00 1.1398332729474058e+01 2.5931729054064698e+00 0 0 0
119 1 2.6727478989716576e-03 2.5047291149361857e+00 8.8419596191005656e+00 2.6262684140678467e+00 0 0 0
120 1 2.7453567405319903e-03 3.8592090952237448e+00 1.0074202273519189e+01 8.6056982216054112e-01 0 0 0
122 1 3.3376609276628924e-03 3.7956781215013327e+00 8.8078302922961313e+00 1.8042783260275763e+00 0 0 0
126 1 2.6061218212266668e-03 5.0715655046033232e+00 8.7812942425186495e+00 2.6646210141515816e+00 0 0 0
151 1 3.3975767580793339e-03 1.2607058390860448e+00 1.3869092711436480e+01 1.7351293588650252e+00 0 0 0
152 1 2.7430676564290605e-03 2.5405537571760370e+00 1.3837476879570994e+01 2.6425477601471394e+00 0 0 0
153 1 2.5263301275038081e-03 2.5937756058723385e+00 1.2606651899315118e+01 3.7591919955067665e-02 0 0 0
154 1 3.3020131354099844e-03 3.7646761970552785e+00 1.3903445218080806e+01 1.7655754238922881e+00 0 0 0
155 1 3.4106683393112995e-03 3.8386003231826056e+00 1.1318957655655227e+01 1.7606718541392206e+00 0 0 0
156 1 2.4469899301086625e-03 5.0709700850305302e+00 1.2579247122256037e+01 -1.0224630128350317e-02 0 0 0
157 1 2.6828595167138133e-03 3.8400762871053269e+00 1.2633540627482486e+01 8.0397390987394957e-01 0 0 0
158 1 2.7273706351642231e-03 5.0422268794006024e+00 1.3873669634308573e+01 2.6207717623595710e+00 0 0 0
159 1 2.6600651743813246e-03 5.0900338979279383e+00 1.1333967104535722e+01 2.6662231179884759e+00 0 0 0
160 1 2.6535578930568849e-03 6.3223025133103326e+00 1.2547792576846915e+01 8.2433315721731415e-01 0 0 0
161 1 2.4833263833499079e-03 5.0738565506720308e+00 1.0043977603551685e+01 -3.9542048084075528e-02 0 0 0
162 1 3.3248629491520292e-03 6.3583959472181659e+00 1.1345190047924845e+01 1.7908137302355258e+00 0 0 0
163 1 3.1738167435124520e-03 6.2754425208300404e+00 8.7963158116600741e+00 1.7338163830027595e+00 0 0 0
165 1 2.8380519968968752e-03 6.3475137335037388e+00 1.0031662667284325e+01 9.0847455250800757e-01 0 0 0
189 1 3.4043692215608599e-03 6.3012572442625174e+00 1.3831611576525699e+01 1.7308910347677982e+00 0 0 0
253 1 3.0141337407503005e-03 1.5107200187836661e+01 1.2586627519460004e+01 3.5208590568969393e+00 -1 0 0
256 1 2.6885422015745222e-03 1.2890452267242005e+00 1.2622567443422991e+01 4.4506724852823663e+00 0 0 0
257 1 2.7341805004204001e-03 3.9562267676819522e-02 1.0111327479869926e+01 3.6129638646669635e+00 0 0 0
260 1 3.0546351325875494e-03 2.4934569509210767e+00 1.0071876025954102e+01 3.5164052089447244e+00 0 0 0
261 1 2.5518600502505095e-03 1.2612717318750544e+00 1.0061465804096255e+01 4.4214733826724109e+00 0 0 0
264 1 2.7211476654621786e-03 3.8087982061722370e+00 1.0079501803461683e+01 4.4065939746733722e+00 0 0 0
297 1 2.9846849322240979e-03 2.5207058667821558e+00 1.2571662346362793e+01 3.5638844151287636e+00 0 0 0
300 1 3.0431265666397865e-03 5.0536222214887303e+00 1.2583378208262772e+01 3.5083840629097676e+00 0 0 0
301 1 2.7048950680329605e-03 3.8298056346472311e+00 1.2582569747492261e+01 4.4318374859480967e+00 0 0 0
304 1 2.7465645375129907e-03 6.3771337912394301e+00 1.2515145274583823e+01 4.4517533797385038e+00 0 0 0
305 1 2.8653331486894655e-03 5.0734495642775972e+00 1.0027821812327614e+01 3.5284711404016544e+00 0 0 0
309 1 2.4923212729993809e-03 6.2730531311174600e+00 1.0046561499873041e+01 4.4406436595762973e+00 0 0 0
190 1 2.8182157584671964e-03 7.5512253325717413e+00 1.3808090862454808e+01 2.7172993791346243e+00 0 0 0
335 1 2.8088053866690689e-03 7.6213753058181508e+00 1.2562854702196631e+01 3.5714156764535039e+00 0 0 0
17 1 -2.0251038262365938e-03 1.5126656667249939e+01 1.3866101945073487e+01 -1.0050699561403063e+00 -1 0 0
18 1 -1.9689636086366183e-03 1.5126656667508257e+01 1.1344992500957968e+01 -1.0050699562052454e+00 -1 0 0
45 1 -1.9583926320216657e-03 7.5633283338161350e+00 1.1344992500579661e+01 -1.0050699575619821e+00 0 0 0
46 1 -1.9565386571908003e-03 7.5633283338790429e+00 8.8238830561672703e+00 -1.0050699574726483e+00 0 0 0
113 1 2.4850961384229498e-03 3.0644277625553329e-02 1.0095268507357707e+01 1.9402812695034680e-03 0 0 0
166 1 2.7631037591283047e-03 7.5835990914956337e+00 1.1301139645909208e+01 2.7033552584970932e+00 0 0 0
167 1 2.6844531600316410e-03 7.5272690571335659e+00 8.8173551719088419e+00 2.6708687425857387e+00 0 0 0
47 1 1.1121373837529241e-02 8.8238830544158215e+00 8.8238830559272685e+00 -1.6812914824419933e+00 0 0 0
49 1 -2.0195035060162850e-03 1.0084437778464764e+01 8.8238830559966814e+00 -1.0050699592279175e+00 0 0 0
58 1 -1.9685604742106892e-03 7.5633283339550399e+00 1.3866101945003651e+01 -1.0050699560615570e+00 0 0 0
59 1 1.1133660658393899e-02 8.8238830537499702e+00 1.3866101945862178e+01 -1.6812914813245428e+00 0 0 0
60 1 1.1145985583598200e-02 8.8238830549104144e+00 1.1344992500880657e+01 -1.6812914831951442e+00 0 0 0
61 1 -1.9312282652873265e-03 1.0084437778804107e+01 1.3866101945237238e+01 -1.0050699572353947e+00 0 0 0
62 1 -1.9960553296724079e-03 1.0084437778544011e+01 1.1344992500697378e+01 -1.0050699582472171e+00 0 0 0
63 1 1.1137068258118055e-02 1.1344992500382753e+01 1.1344992499883908e+01 -1.6812914851352441e+00 0 0 0
64 1 1.1137418281252353e-02 1.1344992501490660e+01 8.8238830561862329e+00 -1.6812914846201883e+00 0 0 0
65 1 -1.9874237574231371e-03 1.2605547222715929e+01 1.1344992500972493e+01 -1.0050699574001845e+00 0 0 0
66 1 -1.9794062862863952e-03 1.2605547222518375e+01 8.8238830560957009e+00 -1.0050699577109283e+00 0 0 0
67 1 1.1138702917032544e-02 1.3866101946470854e+01 8.8238830554786993e+00 -1.6812914804919765e+00 0 0 0
69 1 1.1136486724339411e-02 1.1344992499143549e+01 1.3866101945000830e+01 -1.6812914854071188e+00 0 0 0
70 1 -1.9388755285421333e-03 1.2605547222779268e+01 1.3866101945283805e+01 -1.0050699574709914e+00 0 0 0
71 1 1.1120815694541273e-02 1.3866101946625266e+01 1.3866101945419738e+01 -1.6812914842555855e+00 0 0 0
72 1 1.1150051852109627e-02 1.3866101946042249e+01 1.1344992499074042e+01 -1.6812914829518855e+00 0 0 0
164 1 2.5190359033135444e-03 7.5704942057456037e+00 1.0102036515147901e+01 -4.5811225416412464e-02 0 0 0
168 1 2.8015593121274323e-03 8.8529992851927073e+00 1.0088801893021019e+01 8.6944233868313325e-01 0 0 0
170 1 3.4273108034439362e-03 8.8301371656907364e+00 8.8079272414270342e+00 1.7510997122555829e+00 0 0 0
172 1 2.4934785729196999e-03 1.0072701286110275e+01 7.5760637913310065e+00 -1.7705190859156103e-02 0 0 0
174 1 2.7163872073258754e-03 1.0111714769413469e+01 8.8318778679834455e+00 2.6113044895412032e+00 0 0 0
191 1 2.5111970433060503e-03 7.5374714847169759e+00 1.2645600342679078e+01 -1.1004261225480629e-02 0 0 0
192 1 3.2774097576258724e-03 8.8111901064636182e+00 1.3893259893053536e+01 1.7998017354867391e+00 0 0 0
193 1 3.3524414495642832e-03 8.8489689373136322e+00 1.1342729659556040e+01 1.7261652589554612e+00 0 0 0
194 1 2.4553898762609085e-03 1.0101477382830657e+01 1.2588557875398587e+01 -1.9259206431738663e-02 0 0 0
195 1 2.8417207963890522e-03 8.8430012766283141e+00 1.2634527513722528e+01 8.6127739019830385e-01 0 0 0
196 1 2.7661150488143670e-03 1.0096407120630522e+01 1.3843026508129304e+01 2.6180073730420288e+00 0 0 0
197 1 2.8004272642120258e-03 1.0102753663979239e+01 1.1360018996489545e+01 2.6543204761230781e+00 0 0 0
198 1 2.7468172241223339e-03 1.1327144890040065e+01 1.2552176794034450e+01 8.5055054646285699e-01 0 0 0
199 1 2.4437181479633036e-03 1.0115950618715127e+01 1.0069590103492196e+01 -6.0334114875140524e-02 0 0 0
200 1 3.3111176566046185e-03 1.1353124317625053e+01 1.1331851144610443e+01 1.7742413022787979e+00 0 0 0
201 1 3.1774593033888467e-03 1.1362715767285195e+01 8.8229672839637754e+00 1.7899826183176173e+00 0 0 0
202 1 2.5745247597904054e-03 1.2596207928543784e+01 1.0069190684571812e+01 1.4725137652533126e-02 0 0 0
203 1 2.7553095788478118e-03 1.1343631427434699e+01 1.0056475149066488e+01 8.7169989583821628e-01 0 0 0
204 1 2.8320905240788105e-03 1.2672758063922686e+01 1.1333094116277671e+01 2.6586924136782071e+00 0 0 0
205 1 2.7518122714331062e-03 1.2561193502921476e+01 8.7906289451663522e+00 2.6869786754621958e+00 0 0 0
206 1 2.7693764253442737e-03 1.3895182263947136e+01 1.0090445537410185e+01 8.5474987974999816e-01 0 0 0
207 1 2.4756351860809158e-03 1.2542940470034582e+01 7.5878901953961329e+00 -5.2846773066469090e-03 0 0 0
208 1 3.3707180571168954e-03 1.3855519721898181e+01 8.7763367984606422e+00 1.7938800569814541e+00 0 0 0
211 1 3.3602476031426884e-03 1.1367608647811730e+01 1.3854466317681004e+01 1.7732451024985090e+00 0 0 0
212 1 2.7531455637888514e-03 1.2639693097587298e+01 1.3850955446474780e+01 2.6766186709730975e+00 0 0 0
213 1 2.4734486723048928e-03 1.2596326855733144e+01 1.2568739634422062e+01 -1.6584316466066260e-02 0 0 0
214 1 3.3299664344444910e-03 1.3863762681658624e+01 1.3794458162482599e+01 1.7312700368186629e+00 0 0 0
215 1 3.3137865730459280e-03 1.3924289530261513e+01 1.1306418965179349e+01 1.7619236091952244e+00 0 0 0
216 1 2.7024157263454028e-03 1.3841831119438602e+01 1.2576399033784877e+01 7.9469880430750006e-01 0 0 0
308 1 2.9016158196912014e-03 7.5359193056354208e+00 1.0027628957557759e+01 3.5577585351564576e+00 0 0 0
312 1 2.6974768516525487e-03 8.8067670042905899e+00 9.9894781774016241e+00 4.4930809955601640e+00 0 0 0
338 1 2.9130972320515875e-03 1.0140226276705169e+01 1.2593632517253109e+01 3.5721326690835338e+00 0 0 0
339 1 2.7362852115785197e-03 8.8726008686455238e+00 1.2591014906873118e+01 4.4380084278659018e+00 0 0 0
342 1 2.6008456496133441e-03 1.1370412324571776e+01 1.2541584411691298e+01 4.4599898907168365e+00 0 0 0
343 1 3.1737528867726694e-03 1.0106170443573699e+01 1.0051667748422739e+01 3.5964797420486527e+00 0 0 0
346 1 2.9876514012244487e-03 1.2650299548017529e+01 1.0055626061877120e+01 3.5986670106979179e+00 0 0 0
347 1 2.5632657063058882e-03 1.1392995181242229e+01 9.9923967936836355e+00 4.4841593501197679e+00 0 0 0
350 1 2.6708340514832668e-03 1.3925810523394281e+01 1.0060029508702662e+01 4.4434981811503382e+00 0 0 0
357 1 2.9316438318528508e-03 1.2627881153625212e+01 1.2574708101685152e+01 3.5578531704360516e+00 0 0 0
360 1 2.5842912548106056e-03 1.3907365281660043e+01 1.2523720740582380e+01 4.4451263908084933e+00 0 0 0
218 1 2.8142848484921257e-03 1.4103005755081400e-02 3.7873836342164857e+00 6.2146565693996498e+00 0 0 0
222 1 1.9382406417190459e-03 1.3407852560675477e+00 1.2246133240913171e+00 5.3753303276952629e+00 0 0 0
225 1 3.0091576930375381e-03 2.5571432131974734e+00 1.2325159718323673e+00 6.1710525125762965e+00 0 0 0
229 1 3.1449948028319371e-03 2.1624008206399571e-02 6.3084549590520602e+00 6.2063446709783463e+00 0 0 0
232 1 1.7867500478417353e-03 1.3166972030764528e+00 6.3040685250342170e+00 5.2758270902294946e+00 0 0 0
233 1 1.9846427737180102e-03 1.2802605493437025e+00 3.8087567308553383e+00 5.3211357977722988e+00 0 0 0
236 1 3.1061538481151683e-03 2.5255700057412640e+00 6.3246105683755465e+00 6.1969332091534213e+00 0 0 0
237 1 2.9000115389102481e-03 2.5846864441641011e+00 3.7745910002933702e+00 6.1817733727428870e+00 0 0 0
240 1 1.9021494566729682e-03 3.8165851938258446e+00 3.7447759468962412e+00 5.2968196054452950e+00 0 0 0
241 1 1.6755636750942161e-03 3.8046675023796266e+00 1.1967030450660354e+00 5.3253381196107341e+00 0 0 0
244 1 3.1343886914853439e-03 5.0809687640578307e+00 3.7554210762374032e+00 6.1959002204886557e+00 0 0 0
245 1 2.9269384336953379e-03 5.0292861480584881e+00 1.2277935222997112e+00 6.2047753196535620e+00 0 0 0
248 1 1.8746055729348778e-03 6.3752178688984298e+00 1.2504092579578876e+00 5.3598312671476993e+00 0 0 0
267 1 1.9232420443104320e-03 3.7375217334993494e+00 6.3697837725560769e+00 5.3843821598344546e+00 0 0 0
271 1 3.1692688103175789e-03 5.0906064283440777e+00 6.2975156851512830e+00 6.2342562229308829e+00 0 0 0
274 1 1.9432853378239536e-03 6.3357181482990592e+00 6.3007121323849287e+00 5.2832901652996389e+00 0 0 0
275 1 1.8211997063089891e-03 6.3149122984912616e+00 3.7335477628954492e+00 5.3798353711041651e+00 0 0 0
361 1 5.1937325835522859e-03 4.2671332404009665e-02 2.5371988768703759e+00 7.0940838095083745e+00 0 0 0
362 1 5.3515678619391240e-03 4.9316351940241553e-02 3.7662032211162124e+00 9.8747148471376871e+00 0 0 0
363 1 4.2446794847935182e-03 3.9578422528333393e-02 1.2535322898293000e+00 9.8035164656508460e+00 0 0 0
364 1 2.8327340320328095e-03 1.2611324022642925e+00 2.4855164393726934e+00 8.0019765550935240e+00 0 0 0
366 1 -4.7746892228049719e-03 1.2755346864059198e+00 1.2297343500019546e+00 8.8987876240064541e+00 0 0 0
367 1 5.1575339805822289e-03 2.5736432508727800e+00 1.5097536544741992e+01 7.1143106216590857e+00 0 -1 0
369 1 4.0962616295921808e-03 2.4825813128997978e+00 1.2384251069677030e+00 9.7606571094484895e+00 0 0 0
370 1 2.9206093509726097e-03 3.8520530924750882e+00 2.2470711949611807e-02 8.0167145718632273e+00 0 0 0
371 1 5.2367004640999307e-03 3.3056988372163566e-02 7.5806698282030558e+00 7.1351635473227066e+00 0 0 0
373 1 4.4477210572093188e-03 1.5122827281655924e+01 6.3200769575799702e+00 9.8214568587537094e+00 -1 0 0
375 1 5.3355186435597168e-03 1.5106734403111965e+01 5.0021997986362985e+00 7.1345022187375395e+00 -1 0 0
376 1 -3.8995356050524534e-03 1.2317587382653745e+00 6.2342773943896264e+00 8.9896999905260309e+00 0 0 0
377 1 -4.2788479790898367e-03 1.2998846293469339e+00 3.7638746944740378e+00 8.9454002751462287e+00 0 0 0
378 1 5.2822585581153879e-03 2.5107573117615520e+00 5.0334392216428059e+00 7.0898430089002158e+00 0 0 0
379 1 2.7001651253351273e-03 1.2949264215752470e+00 4.9946623389289044e+00 8.0791338315003980e+00 0 0 0
380 1 4.8513838631454968e-03 2.5158051636119421e+00 6.3326127241680839e+00 9.7921262533492861e+00 0 0 0
381 1 2.7991160024836981e-03 2.5242365011256420e+00 3.7292866612137940e+00 9.7446308896325835e+00 0 0 0
382 1 2.8330723819974596e-03 3.7875621913520852e+00 5.0453142807749813e+00 7.9488098024507625e+00 0 0 0
383 1 5.2894148855811025e-03 2.5806979084292236e+00 2.5279756566673086e+00 7.1038499912297013e+00 0 0 0
384 1 -4.2912701557738788e-03 3.7962680259702015e+00 3.7594331283391855e+00 8.8479021957737309e+00 0 0 0
385 1 -4.1524157525180032e-03 3.7405225997550957e+00 1.2010970710578537e+00 8.9071875418816830e+00 0 0 0
386 1 5.1896438369780111e-03 5.0618592358701315e+00 2.4633922138782212e+00 7.1056782321947800e+00 0 0 0
387 1 2.7547552678013607e-03 3.7686810649743845e+00 2.5087019695231474e+00 7.9984809759748359e+00 0 0 0
388 1 4.0823043353080297e-03 5.0195068454129652e+00 3.7375299027628079e+00 9.7466728135014975e+00 0 0 0
389 1 2.6584675621891167e-03 5.0597829310474483e+00 1.2251584179021027e+00 9.7957572960832771e+00 0 0 0
390 1 3.0353638592830906e-03 6.3001536018059561e+00 2.4822224481522785e+00 7.9768665796223530e+00 0 0 0
391 1 5.2595331463477293e-03 5.1371059880593881e+00 1.5112970369013862e+01 7.1481503523798331e+00 0 -1 0
392 1 -4.5911589819186511e-03 6.3433868925834940e+00 1.2322479148897851e+00 8.8545035354794788e+00 0 0 0
394 1 3.0002474185187216e-03 6.3839965394503384e+00 1.5064476250682977e+01 8.0284506015352370e+00 0 -1 0
411 1 -4.2862905157350258e-03 3.7554585434488779e+00 6.2844128306845395e+00 8.8884917501206058e+00 0 0 0
412 1 5.3416558918435849e-03 5.0722680848235937e+00 7.5156417978318597e+00 7.0907864753882057e+00 0 0 0
415 1 3.5608361639070840e-03 5.0170383757710795e+00 6.2991054868060852e+00 9.7875051712588323e+00 0 0 0
417 1 5.1452867525931525e-03 5.0271074588917619e+00 5.0062934515029225e+00 7.1796057177930441e+00 0 0 0
418 1 -3.5295281290241183e-03 6.3026838424220006e+00 6.3557410565027324e+00 8.9204832571748831e+00 0 0 0
419 1 -4.6339254474503933e-03 6.3290721577284481e+00 3.7017840717068267e+00 8.8632721147775566e+00 0 0 0
420 1 5.4739971036025297e-03 7.5803680562561562e+00 5.0222215512893635e+00 7.1178965532268839e+00 0 0 0
421 1 2.0938599750071401e-03 6.2890707427119716e+00 4.9706750207596118e+00 8.0568998220591954e+00 0 0 0
505 1 1.9498574569463533e-02 4.0433487214276545e-02 2.4910463924091855e+00 1.0717495348835676e+01 0 0 0
522 1 1.9937135400974276e-02 2.5100566549709575e+00 4.9958425901749495e+00 1.0666599806393243e+01 0 0 0
527 1 2.0462884371698832e-02 2.5159805676464915e+00 2.5161271777766250e+00 1.0637283021165842e+01 0 0 0
530 1 2.0429874175474712e-02 5.0270859640889789e+00 2.4540150065830000e+00 1.0677021279590278e+01 0 0 0
561 1 2.0497015687149761e-02 5.0457742573872064e+00 5.0527954541382423e+00 1.0623122928320443e+01 0 0 0
409 1 5.2742667619645025e-03 2.4993733395761528e+00 7.6049274336440291e+00 7.1832873292337105e+00 0 0 0
219 1 3.1006988009564130e-03 1.5125542384379472e+01 1.2232525900978339e+00 6.2221806512253304e+00 -1 0 0
279 1 2.9300665421317681e-03 7.5665254363180354e+00 3.8063169891251962e+00 6.2327898044580436e+00 0 0 0
393 1 5.0392945010430644e-03 7.6168024173098017e+00 1.5102850325356622e+01 7.1281943867319093e+00 0 -1 0
423 1 3.7737835159392871e-03 7.5818697773628809e+00 3.7662540314079438e+00 9.7558380260450388e+00 0 0 0
457 1 5.2604554013118525e-03 7.5289894350696311e+00 7.5088868919336189e+00 7.1394310822739433e+00 0 0 0
519 1 1.9154870287121869e-02 1.5098459893174191e+01 5.0359828568288698e+00 1.0766265093233397e+01 -1 0 0
564 1 1.9741065744675053e-02 7.5634402738125850e+00 5.0637296230484914e+00 1.0616405376895520e+01 0 0 0
251 1 3.1763924609307715e-03 7.6053119452679017e+00 1.2705603960932530e+00 6.2771304890818680e+00 0 0 0
278 1 2.8740429970830197e-03 7.5774322714793012e+00 6.2931832144603606e+00 6.1650903603135641e+00 0 0 0
282 1 1.8243190333614631e-03 8.8306124881061727e+00 3.7735598837156288e+00 5.3976395588826227e+00 0 0 0
283 1 1.8377493159350594e-03 8.8486974001967038e+00 1.2591021503775346e+00 5.3628666942074741e+00 0 0 0
286 1 3.0062491140901183e-03 1.0071211287074542e+01 3.7749864075841737e+00 6.2318331250759647e+00 0 0 0
287 1 3.0553558614221992e-03 1.0162220597879838e+01 1.2384000240397579e+00 6.2600607818931611e+00 0 0 0
290 1 1.7436018506304890e-03 1.1380241689301631e+01 1.2418285433083147e+00 5.3449001585011926e+00 0 0 0
293 1 3.1528831880786386e-03 1.2624784538752422e+01 1.2604028468719310e+00 6.2413720367581940e+00 0 0 0
315 1 1.9047180561794291e-03 8.8359731589451123e+00 6.3144100291250016e+00 5.3733331232963542e+00 0 0 0
319 1 3.0073728386435187e-03 1.0118062671981836e+01 6.2743577617626451e+00 6.2755571600553361e+00 0 0 0
322 1 2.0164863988439735e-03 1.1332129206833089e+01 6.2218945884818684e+00 5.3228303843569460e+00 0 0 0
323 1 1.8220538739948176e-03 1.1294460634019215e+01 3.7384689526626547e+00 5.3661878945334136e+00 0 0 0
326 1 3.0717870100551515e-03 1.2655962020389035e+01 6.3049725434084847e+00 6.2363253301810087e+00 0 0 0
327 1 3.0923767688149791e-03 1.2565697762515544e+01 3.7283610157358855e+00 6.2198415452681148e+00 0 0 0
330 1 2.0238860511758365e-03 1.3903350182477563e+01 3.7423994152702953e+00 5.3759316820656862e+00 0 0 0
331 1 1.8438728879595560e-03 1.3856367273517183e+01 1.2017239320951005e+00 5.3471278253950576e+00 0 0 0
353 1 1.7465300334991694e-03 1.3930318828447716e+01 6.3184931147158352e+00 5.3576302644083196e+00 0 0 0
395 1 4.3713681216491947e-03 7.5342911498081344e+00 1.2404234649171073e+00 9.8198697267288608e+00 0 0 0
396 1 2.7552136417755523e-03 8.9068391867243815e+00 2.1999587066240729e-02 7.9791761578520557e+00 0 0 0
422 1 3.1866005023393784e-03 7.5643484383877881e+00 6.2817317781052608e+00 9.7993515499534229e+00 0 0 0
424 1 2.4526408682571015e-03 8.8144923126871770e+00 5.0150825889650061e+00 8.0621776730381871e+00 0 0 0
425 1 5.1794255694725044e-03 7.5661354219038905e+00 2.5399004699651875e+00 7.1580582640639028e+00 0 0 0
426 1 -4.0847951958846961e-03 8.8394254757491915e+00 3.7187655001676818e+00 8.9006539514318472e+00 0 0 0
427 1 -4.0784516535632654e-03 8.8144638777922601e+00 1.2614887625126783e+00 8.9124851688933351e+00 0 0 0
428 1 5.1926817439512706e-03 1.0097830004812000e+01 2.4915500002916104e+00 7.1521483164795550e+00 0 0 0
429 1 2.6890672794076431e-03 8.8441022379407563e+00 2.5247132952839144e+00 8.0148753517924192e+00 0 0 0
430 1 4.7872244979908990e-03 1.0100217733664666e+01 3.7940856903467113e+00 9.8454629746785685e+00 0 0 0
431 1 3.1610360227736149e-03 1.0070503509249308e+01 1.2919952858935935e+00 9.7990176136785934e+00 0 0 0
432 1 2.6991559422726852e-03 1.1402331981488082e+01 2.5342333809567639e+00 8.0189344821821305e+00 0 0 0
433 1 5.0117311172093761e-03 1.0123892172038856e+01 1.5111391098830309e+01 7.1227591335673477e+00 0 -1 0
434 1 -3.6159811695114777e-03 1.1346166554513957e+01 1.2470850097589696e+00 8.9309790476314284e+00 0 0 0
436 1 2.5245358219303541e-03 1.1419361808338511e+01 6.3336945244185389e-03 8.0231445723093646e+00 0 0 0
437 1 4.4172771012157995e-03 1.2643826561987680e+01 1.2147258024505474e+00 9.8361170286031214e+00 0 0 0
459 1 -3.9355370830622526e-03 8.7821156564733780e+00 6.2743558942365576e+00 8.9271467373404505e+00 0 0 0
463 1 3.8305277875309404e-03 1.0106060664351999e+01 6.3210595031999093e+00 9.7916125213793528e+00 0 0 0
465 1 5.1285447369209276e-03 1.0085162536032708e+01 5.0410728378594749e+00 7.1434718172961214e+00 0 0 0
466 1 -4.4295212601160950e-03 1.1382000232959822e+01 6.2751213381686535e+00 8.9135231029065629e+00 0 0 0
467 1 -4.2250001063055846e-03 1.1367332965694157e+01 3.7708774692380285e+00 8.8508077199306285e+00 0 0 0
468 1 5.1906280296389207e-03 1.2622296848110761e+01 5.0630439063158619e+00 7.1279456953102800e+00 0 0 0
469 1 2.9197198083403819e-03 1.1353991713493777e+01 5.0263671715158385e+00 8.0392561542662637e+00 0 0 0
470 1 3.7957514640280703e-03 1.2645178401946700e+01 6.2714138605514940e+00 9.8188848695815203e+00 0 0 0
471 1 3.1006601292850578e-03 1.2578733561255461e+01 3.7380939577321084e+00 9.7783695180492103e+00 0 0 0
472 1 2.6577028658232318e-03 1.3862198816081031e+01 5.0313674766599661e+00 8.0244518232002342e+00 0 0 0
473 1 4.8767752784430567e-03 1.2611690606407535e+01 2.5557802866497288e+00 7.1357493170587762e+00 0 0 0
474 1 -4.2068512731577535e-03 1.3905447952732739e+01 3.8044930476416092e+00 8.9762309339979147e+00 0 0 0
475 1 -3.9758933357780532e-03 1.3870184545507501e+01 1.3016271601676610e+00 8.9174194014869759e+00 0 0 0
476 1 2.7959808611329891e-03 1.3866665523773664e+01 2.5516574559519647e+00 7.9981757027777398e+00 0 0 0
497 1 -4.1603056878167493e-03 1.3841976694473713e+01 6.3441168755164377e+00 8.9282257937167770e+00 0 0 0
569 1 2.0633443719375956e-02 7.5069063602838977e+00 2.5033257787681538e+00 1.0695194642207888e+01 0 0 0
572 1 1.9721591384889697e-02 1.0094675105994460e+01 2.5139758572515127e+00 1.0699595090835226e+01 0 0 0
577 1 2.0070865503625197e-02 1.0124594458227232e+01 3.5587002945218070e-02 1.0656714690866336e+01 0 0 0
579 1 1.9167288323330582e-02 1.2652633168757413e+01 1.5093445243975806e+01 1.0691844488123634e+01 0 -1 0
609 1 1.9348375504257234e-02 1.0097835665897003e+01 5.0646029792221308e+00 1.0714222451368116e+01 0 0 0
612 1 2.0660534911602170e-02 1.2577540824376438e+01 4.9763351777229907e+00 1.0689080913353214e+01 0 0 0
617 1 2.0593341073187291e-02 1.2637519827090092e+01 2.5105591990291116e+00 1.0692789458302389e+01 0 0 0
368 1 3.0261219040983818e-03 1.2957936987368908e+00 2.2578700573948396e-02 7.9899084913352443e+00 0 0 0
413 1 2.4377453863028429e-03 3.8107401083683587e+00 7.5605146691807512e+00 8.0363729326808446e+00 0 0 0
509 1 2.0419367346129425e-02 1.6014633252065293e-02 1.5092980009611138e+01 1.0704065646971397e+01 0 -1 0
511 1 2.0385663349487753e-02 2.5220607548684950e+00 1.5114089472375710e+01 1.0725207565114482e+01 0 -1 0
535 1 2.0225845018363459e-02 5.0689811772499747e+00 1.5107689189646532e+01 1.0677558485098526e+01 0 -1 0
556 1 2.0517295565236657e-02 5.0417972292975035e+00 7.5474066562768387e+00 1.0711778987804593e+01 0 0 0
228 1 3.0851001027752010e-03 4.7239464883312238e-02 8.7933138495287988e+00 6.2007042570269393e+00 0 0 0
258 1 1.9866539311012596e-03 1.3147760047610122e+00 1.1344774557392428e+01 5.3169867965905349e+00 0 0 0
259 1 1.9445069382075300e-03 1.2927902418268544e+00 8.8023346322743663e+00 5.2908215393584888e+00 0 0 0
262 1 2.9618641895556566e-03 2.5855366828153787e+00 1.1308264017975162e+01 6.2390995004450884e+00 0 0 0
263 1 3.1047918513937168e-03 2.5585822075667668e+00 8.8109915770748373e+00 6.2672325312661252e+00 0 0 0
266 1 1.7907189510152593e-03 3.7555031743524778e+00 8.8427938226148353e+00 5.3062491647357186e+00 0 0 0
270 1 3.1043729854427497e-03 5.1145624908236522e+00 8.8621381027714463e+00 6.1860047052286280e+00 0 0 0
295 1 1.7805226486206432e-03 1.2705417515372324e+00 1.3896720429851062e+01 5.3354423056974420e+00 0 0 0
296 1 3.0873357554626222e-03 2.5514079617206424e+00 1.3864926363077593e+01 6.2580460532365780e+00 0 0 0
298 1 1.9188992386838719e-03 3.8312056575223177e+00 1.3833629260461407e+01 5.3385591918549835e+00 0 0 0
299 1 1.7901129016549399e-03 3.8301536566015693e+00 1.1321292160600763e+01 5.3387933381329908e+00 0 0 0
302 1 2.9816684967472122e-03 5.1348478818643049e+00 1.3870151373054309e+01 6.2034200145166096e+00 0 0 0
303 1 3.0826958832979568e-03 5.0660072884754532e+00 1.1309877000511866e+01 6.1971921315227538e+00 0 0 0
306 1 1.8497295089603680e-03 6.3731028271330983e+00 1.1278070696847291e+01 5.3315310345296218e+00 0 0 0
307 1 1.7616009813163796e-03 6.3504586835258507e+00 8.8297536334392817e+00 5.3858683330847104e+00 0 0 0
333 1 1.8474609625715591e-03 6.3596022113102366e+00 1.3841670499679534e+01 5.3315342465218505e+00 0 0 0
372 1 4.2143637483188666e-03 1.6010473806126252e-03 8.7820595915002837e+00 9.8077544365617353e+00 0 0 0
374 1 2.0613261126695469e-03 1.2930802352568678e+00 7.5665279559161895e+00 8.0431660196271970e+00 0 0 0
398 1 4.4862412024388783e-03 3.5148814690831434e-02 1.3817433585364194e+01 9.7981595177791778e+00 0 0 0
399 1 3.6739491029851392e-03 2.5537668601697865e-02 1.1302095982794205e+01 9.8089538519720243e+00 0 0 0
400 1 2.8350840172280210e-03 1.3047152658200907e+00 1.2582193681078097e+01 7.9986893943606328e+00 0 0 0
402 1 -4.1552975081373634e-03 1.3091516074468954e+00 1.1263863828747517e+01 8.9041929145400367e+00 0 0 0
403 1 -4.3176613805305884e-03 1.3054040085287884e+00 8.8342629099388414e+00 8.9395194443245245e+00 0 0 0
404 1 5.0108805947925222e-03 2.5958509939610384e+00 1.0098965385110819e+01 7.1064046335746651e+00 0 0 0
405 1 3.0089316764292185e-03 1.3092302971840957e+00 1.0064933258019282e+01 7.9795875224877451e+00 0 0 0
406 1 4.0094265189024331e-03 2.5646705785568797e+00 1.1335015996387405e+01 9.8118019311516136e+00 0 0 0
407 1 5.5482092289676774e-03 2.5040445060075305e+00 8.8536411313051957e+00 9.8132134649886247e+00 0 0 0
408 1 2.5691291012128292e-03 3.8376207009373644e+00 1.0041083236793240e+01 8.0006907128959881e+00 0 0 0
410 1 -4.2662765065273429e-03 3.8001745368522606e+00 8.7824969953910266e+00 8.9689707025483205e+00 0 0 0
414 1 4.4289392506938518e-03 5.0351410959878402e+00 8.7643009579207423e+00 9.7918436395499260e+00 0 0 0
416 1 2.2601011542686591e-03 6.2755549454158475e+00 7.5032951617074035e+00 8.0438019937837630e+00 0 0 0
439 1 -4.5428203443732846e-03 1.2530570734632664e+00 1.3824472525689506e+01 8.8907661764067676e+00 0 0 0
440 1 5.3080416614516741e-03 2.5317254269557536e+00 1.3836408021449522e+01 9.8391118963043471e+00 0 0 0
441 1 5.0449092475222347e-03 2.5647628207571405e+00 1.2574584532406053e+01 7.0944987842046672e+00 0 0 0
442 1 -4.5832408085200596e-03 3.7872304772791838e+00 1.3832000662993890e+01 8.8983509789460484e+00 0 0 0
443 1 -4.0263523770329799e-03 3.8131630424077367e+00 1.1326773780961684e+01 8.8821849117908727e+00 0 0 0
444 1 5.2995999272615084e-03 5.0825118267954119e+00 1.2608837572668909e+01 7.1243568592965119e+00 0 0 0
445 1 2.8586614077041371e-03 3.8356176771833175e+00 1.2614302122014548e+01 7.9666344217462131e+00 0 0 0
446 1 4.2052910780968041e-03 5.0773449411532905e+00 1.3833165263212328e+01 9.8188358961228470e+00 0 0 0
447 1 3.7916195932977386e-03 5.0731132135992736e+00 1.1316792890898929e+01 9.7812536865905102e+00 0 0 0
448 1 2.9424509337537112e-03 6.3930933243634716e+00 1.2606126511352787e+01 8.0317599958879917e+00 0 0 0
449 1 5.1287368583456481e-03 5.0862010171118026e+00 1.0081829648620021e+01 7.1006788497304916e+00 0 0 0
450 1 -4.2877092070752101e-03 6.3732711675572107e+00 1.1342637706555331e+01 8.8764030466936497e+00 0 0 0
451 1 -4.4033737745101213e-03 6.3177648112472493e+00 8.7929591977010428e+00 8.9080696426369048e+00 0 0 0
453 1 2.4981288820199610e-03 6.3540220997631307e+00 1.0035576314589065e+01 8.0314997189104247e+00 0 0 0
477 1 -4.4923099726751565e-03 6.2879138948677022e+00 1.3866860333753525e+01 8.9273524917316127e+00 0 0 0
541 1 1.9559718492876837e-02 5.3629545638576887e-02 1.2543843021695265e+01 1.0683832244872217e+01 0 0 0
545 1 2.1177096019793624e-02 1.3547282864257373e-02 1.0066399465145537e+01 1.0684583031785175e+01 0 0 0
548 1 1.8795556965240118e-02 2.5467696050521260e+00 1.0112198222091207e+01 1.0759860241654026e+01 0 0 0
553 1 1.9507785270951337e-02 2.5135232458564882e+00 7.5839461547413842e+00 1.0754340056457393e+01 0 0 0
585 1 1.9720426943958383e-02 2.5648030517863583e+00 1.2580079463128026e+01 1.0712818333835932e+01 0 0 0
588 1 2.0154187126602493e-02 5.0187554453667644e+00 1.2577319975164777e+01 1.0720566293607323e+01 0 0 0
593 1 2.1293964922470300e-02 5.0612745988274819e+00 1.0075988159154589e+01 1.0655717600304431e+01 0 0 0
623 1 1.9334226773027319e-02 7.6190241507503211e+00 1.2611098002465086e+01 1.0721666593780666e+01 0 0 0
365 1 5.1252699530860459e-03 1.5110882896980680e+01 8.0239589929327337e-03 7.1201360457369720e+00 -1 0 0
515 1 1.9924711355312100e-02 4.5914190842104574e-02 7.5150256815328547e+00 1.0710503105353476e+01 0 0 0
537 1 1.9282584411234909e-02 7.5337996171421677e+00 1.5123999889047662e+01 1.0694984665912639e+01 0 -1 0
601 1 2.0122944953788080e-02 7.5766722863398570e+00 7.5635984787287249e+00 1.0711884297336026e+01 0 0 0
435 1 5.0722257977008104e-03 1.2631886045069503e+01 1.5103370181352572e+01 7.1170225976143309e+00 0 -1 0
438 1 2.5502110531364286e-03 1.3881835157716525e+01 1.5098423989395672e+01 8.0168177024948513e+00 0 -1 0
461 1 2.4287275509773717e-03 8.8122362101546869e+00 7.5397953370131852e+00 8.0167412939776632e+00 0 0 0
464 1 2.5639189919400766e-03 1.1356391319355389e+01 7.5114678304525926e+00 8.0417505777419613e+00 0 0 0
254 1 3.0195606542772215e-03 1.0059083071941188e-01 1.3844681034088817e+01 6.2339984679269689e+00 0 0 0
255 1 3.2038645078386720e-03 4.8507908508637954e-02 1.1344557148271967e+01 6.2856617695787831e+00 0 0 0
310 1 3.2087183364962139e-03 7.6157920931420158e+00 1.1275150338324327e+01 6.2662757721655131e+00 0 0 0
311 1 3.2465964279431870e-03 7.5683600290918172e+00 8.7950080601239264e+00 6.3221291106179276e+00 0 0 0
397 1 4.9654587451711260e-03 3.9912287777278621e-02 1.2642062077691778e+01 7.1248698247002036e+00 0 0 0
401 1 5.2036141589180893e-03 3.5783406190123657e-02 1.0124569649918694e+01 7.1895875545774750e+00 0 0 0
454 1 4.5956500061880229e-03 7.5748958415534355e+00 1.1289089073710954e+01 9.8047191192305405e+00 0 0 0
455 1 5.2319266703439006e-03 7.6293387713992482e+00 8.7532762677821321e+00 9.8467725284412104e+00 0 0 0
314 1 1.8117185238689549e-03 8.8093534565381511e+00 8.7653182259628615e+00 5.3689122831677274e+00 0 0 0
318 1 3.2863244662386742e-03 1.0141781945106064e+01 8.7995983340223329e+00 6.2608877655720629e+00 0 0 0
334 1 2.8479571058328845e-03 7.6118123510453195e+00 1.3843270819098485e+01 6.1820342789252622e+00 0 0 0
336 1 1.8873258795700219e-03 8.8780993758813604e+00 1.3896846344694792e+01 5.3145404531318849e+00 0 0 0
337 1 1.9416368845186914e-03 8.8288262964740145e+00 1.1305007638844669e+01 5.3675575359984888e+00 0 0 0
340 1 3.1818769014874864e-03 1.0099457768955039e+01 1.3833863046736340e+01 6.2762638962739370e+00 0 0 0
341 1 3.1614930674986217e-03 1.0152134577545542e+01 1.1332465006021922e+01 6.2447733982004108e+00 0 0 0
344 1 1.9492310854569617e-03 1.1401795283765960e+01 1.1275524634973797e+01 5.3797052940500247e+00 0 0 0
345 1 1.8542993319045724e-03 1.1351383868661866e+01 8.7869145615503701e+00 5.3582163689366151e+00 0 0 0
348 1 3.1782989870892783e-03 1.2685474033181178e+01 1.1283965402196987e+01 6.2856047138222788e+00 0 0 0
349 1 3.2252672573145733e-03 1.2656632822645745e+01 8.8083782107565547e+00 6.2937200171030954e+00 0 0 0
352 1 1.8347198637532582e-03 1.3936152708923956e+01 8.7674132802547664e+00 5.4181006688854882e+00 0 0 0
355 1 1.9877432707250367e-03 1.1334968772914246e+01 1.3812915276183247e+01 5.3275112728644096e+00 0 0 0
356 1 3.1720055325941670e-03 1.2603460646650618e+01 1.3801426952744668e+01 6.2282592750651924e+00 0 0 0
358 1 1.9848757445974823e-03 1.3908548646819794e+01 1.3787133844017518e+01 5.3324824498954806e+00 0 0 0
359 1 1.8480147074527874e-03 1.3861315947446494e+01 1.1316006467473676e+01 5.4047801954372918e+00 0 0 0
452 1 5.1387902095624211e-03 7.6400068597041528e+00 1.0042475992364087e+01 7.1804467146653703e+00 0 0 0
456 1 2.0558968466246183e-03 8.8751881739765466e+00 1.0090412716836992e+01 8.0574738725279609e+00 0 0 0
458 1 -3.8874547700356653e-03 8.8412549272460410e+00 8.8426555482222788e+00 8.9309913107937771e+00 0 0 0
460 1 5.1151880010127035e-03 1.0101019962783788e+01 7.5047551554180112e+00 7.1374049657261907e+00 0 0 0
462 1 4.7597604361461539e-03 1.0124586423413170e+01 8.9055401693915375e+00 9.8136866512458791e+00 0 0 0
478 1 4.3059790978476741e-03 7.6158851541121413e+00 1.3850685131036574e+01 9.8265512007910409e+00 0 0 0
479 1 5.2837502867142784e-03 7.6447834679536175e+00 1.2613723328266397e+01 7.1011259084630849e+00 0 0 0
480 1 -3.7348619662817481e-03 8.9072585192418838e+00 1.3874274498609021e+01 8.8801588536355727e+00 0 0 0
481 1 -3.4925209272887304e-03 8.8804634500655482e+00 1.1292854592440893e+01 8.9749489297861480e+00 0 0 0
482 1 4.9874887098240537e-03 1.0150914552766382e+01 1.2575276092693645e+01 7.1320052315714362e+00 0 0 0
483 1 2.2347061179493941e-03 8.9013677204936936e+00 1.2577462715005227e+01 8.0386696782673219e+00 0 0 0
484 1 4.3994594069972151e-03 1.0159429514630247e+01 1.3870548925512910e+01 9.7917382110613076e+00 0 0 0
485 1 4.7788635553149489e-03 1.0114570329477443e+01 1.1371725203677094e+01 9.8524625357393756e+00 0 0 0
486 1 2.2198414783545888e-03 1.1406358631335097e+01 1.2560895616886238e+01 7.9779174254696024e+00 0 0 0
487 1 5.1374332522169334e-03 1.0116943255120077e+01 1.0061102491719483e+01 7.1823646691558682e+00 0 0 0
488 1 -4.2912510397226248e-03 1.1388162064698202e+01 1.1312138595886999e+01 8.9525083463336159e+00 0 0 0
489 1 -4.1461257816546989e-03 1.1321387370991422e+01 8.8097267108687394e+00 8.9368550373844329e+00 0 0 0
490 1 5.1850848066220048e-03 1.2656428354909508e+01 1.0050942713206451e+01 7.1634280882450954e+00 0 0 0
491 1 2.4075323330894462e-03 1.1368697606968393e+01 1.0075995214297745e+01 8.0454889024977589e+00 0 0 0
492 1 5.5043797459182501e-03 1.2653652218965739e+01 1.1326830326034504e+01 9.7840445109815750e+00 0 0 0
493 1 4.8690437748296796e-03 1.2606880075531254e+01 8.7802721274438884e+00 9.8294682905363739e+00 0 0 0
494 1 2.0454025885316639e-03 1.3883740916231885e+01 1.0030382547642745e+01 8.0682491115092301e+00 0 0 0
495 1 5.1004924808276432e-03 1.2638217403565383e+01 7.5427801161013059e+00 7.1607771107318143e+00 0 0 0
496 1 -4.2731740211935506e-03 1.3875826391989662e+01 8.7912874702206878e+00 8.9501989104144855e+00 0 0 0
498 1 2.5874740805201415e-03 1.3860958627791524e+01 7.5407028935732745e+00 8.0393907287754143e+00 0 0 0
499 1 -4.2332693046516854e-03 1.1388382280446672e+01 1.3858493135824087e+01 8.9133599902589076e+00 0 0 0
500 1 3.7847427645134276e-03 1.2637943846773318e+01 1.3834561453071549e+01 9.7644731155236499e+00 0 0 0
501 1 5.0397559008696158e-03 1.2620088347199486e+01 1.2597662623132178e+01 7.1462936132919674e+00 0 0 0
502 1 -4.0381105734210590e-03 1.3930712800743530e+01 1.3831016313577171e+01 8.9126062794777390e+00 0 0 0
503 1 -4.1122237205307964e-03 1.3860424112822363e+01 1.1339003241661658e+01 8.9197121408490307e+00 0 0 0
504 1 2.6352638483769075e-03 1.3923109394687142e+01 1.2594328036126978e+01 7.9969329407177989e+00 0 0 0
596 1 1.9823908127143280e-02 7.5974230735119646e+00 1.0071138459307090e+01 1.0739733342530615e+01 0 0 0
604 1 2.0696456631342709e-02 1.0101087007643239e+01 7.5675281538952879e+00 1.0713892630534991e+01 0 0 0
626 1 1.9881441173932601e-02 1.0134079916842092e+01 1.2652910218845712e+01 1.0717978901582303e+01 0 0 0
631 1 1.9461911776336847e-02 1.0160693522816405e+01 1.0146438381592736e+01 1.0711355362292725e+01 0 0 0
634 1 1.9958938673614986e-02 1.2615320781422932e+01 1.0036666987796270e+01 1.0785204928633139e+01 0 0 0
639 1 2.0012553384181866e-02 1.2659489673968654e+01 7.4634315211844493e+00 1.0686044989356631e+01 0 0 0
645 1 2.0647626379087299e-02 1.2647184746365156e+01 1.2622364926466858e+01 1.0702762052461381e+01 0 0 0
508 1 -9.8872860679309078e-03 1.2894012737434148e+00 2.5455654345593315e+00 1.1570494806774125e+01 0 0 0
510 1 4.0823455484803248e-03 1.3246966201522412e+00 1.3087989487690552e+00 1.2468844655422066e+01 0 0 0
512 1 -1.0586514034481347e-02 1.2895687017412893e+00 1.3088764813327288e-02 1.1604155583128652e+01 0 0 0
513 1 -8.8966315567640342e-02 2.5811475438567419e+00 1.2789903315067261e+00 1.3381523862228777e+01 0 0 0
514 1 -9.8066125223978725e-03 3.8364981133889220e+00 1.0667378436346419e-02 1.1584254492482849e+01 0 0 0
520 1 -3.8421017778034861e-04 1.2570020103582003e+00 6.2206479452947390e+00 1.2554676801061468e+01 0 0 0
521 1 4.3076516774928821e-03 1.2510418414548088e+00 3.7474182923184793e+00 1.2541262665669594e+01 0 0 0
523 1 -9.8008917649116869e-03 1.2392790749376044e+00 4.9829186096117573e+00 1.1618908333717041e+01 0 0 0
524 1 -7.6949517458460182e-02 2.5118580976066567e+00 6.2487609515155587e+00 1.3443904821405388e+01 0 0 0
525 1 -9.6478420227048833e-02 2.5245834677514032e+00 3.7983089495841815e+00 1.3408728695239715e+01 0 0 0
526 1 -8.2591361313607645e-03 3.7981642985500681e+00 5.0254150378614391e+00 1.1544848916385584e+01 0 0 0
528 1 2.2491195594999897e-03 3.8317788500429630e+00 3.7308622907865310e+00 1.2469199785310476e+01 0 0 0
529 1 2.6033919480118206e-03 3.8071598350283242e+00 1.2378264100435568e+00 1.2441588264556538e+01 0 0 0
531 1 -9.1479530156268699e-03 3.8241772497868785e+00 2.5431961024300880e+00 1.1577662644156641e+01 0 0 0
532 1 -9.3936540340673919e-02 5.0560343345380714e+00 3.7223917689964758e+00 1.3387602463018046e+01 0 0 0
533 1 -8.8238305477586806e-02 5.0778267059408897e+00 1.2267596090541653e+00 1.3411259738221876e+01 0 0 0
534 1 -9.3649416506403991e-03 6.2536260240961035e+00 2.4908484689195411e+00 1.1604230863989212e+01 0 0 0
536 1 5.6322103761130993e-03 6.2762653984032930e+00 1.2439770097488942e+00 1.2511114733827938e+01 0 0 0
538 1 -1.1261360486956924e-02 6.3075049208887890e+00 8.9257141401710392e-03 1.1601024140027533e+01 0 0 0
555 1 -1.5330462663572630e-03 3.7660204281059433e+00 6.2331510147334530e+00 1.2483823658962145e+01 0 0 0
557 1 -1.0236925730151137e-02 3.7887035909971511e+00 7.5696232179153942e+00 1.1606242981669158e+01 0 0 0
559 1 -9.0861585637593847e-02 5.0366927953453642e+00 6.2621546170520324e+00 1.3413916929247652e+01 0 0 0
562 1 8.5954770705147466e-04 6.2924221821966730e+00 6.2876787923156883e+00 1.2481596774837204e+01 0 0 0
563 1 5.9332868761020176e-03 6.3222252098937242e+00 3.7662854067966580e+00 1.2479740267583773e+01 0 0 0
565 1 -9.7597050317375471e-03 6.3134194176423932e+00 5.0725611100498869e+00 1.1558310007137086e+01 0 0 0
567 1 -9.6466136223951102e-02 7.5495943687950033e+00 3.7124203998091998e+00 1.3358841970570891e+01 0 0 0
649 1 2.9665275689387705e-01 5.3207802270995308e-02 2.5122926102448950e+00 1.4315373102031641e+01 0 0 0
653 1 3.0457139994967630e-01 1.5072620496526248e+01 5.0292214990019151e+00 1.4333102323959446e+01 -1 0 0
654 1 2.9365996230338920e-01 2.5195419858660686e+00 4.9743745794203171e+00 1.4290675837305329e+01 0 0 0
655 1 2.8036175836137328e-01 2.5994427987394957e+00 2.5093379237178950e+00 1.4258238967389726e+01 0 0 0
656 1 2.9263271832341303e-01 5.0686323028922686e+00 2.5175018149870656e+00 1.4302253925660555e+01 0 0 0
664 1 2.8546882799248119e-01 4.9874700557514107e+00 5.0219264221074473e+00 1.4293495761166078e+01 0 0 0
665 1 2.7243675639763554e-01 7.4874255837761288e+00 4.9712794652255177e+00 1.4231795780101249e+01 0 0 0
687 3 -2.6241242244412094e-01 1.2605547085495428e+00 2.5707778341895270e-08 1.5071039193724776e+01 0 0 0
690 3 -2.5193264709747049e-01 1.2605547027366255e+00 5.0422189009448521e+00 1.5071039111197924e+01 0 0 0
691 3 -2.5079864683299813e-01 1.2605546714689284e+00 2.5211094834367982e+00 1.5071039159275411e+01 0 0 0
692 3 -2.5248818379120852e-01 3.7816641711772876e+00 2.5211094993975753e+00 1.5071039164758645e+01 0 0 0
694 3 -2.5907999512948254e-01 6.3027736001416823e+00 1.2455018678325364e-08 1.5071039243372786e+01 0 0 0
700 3 -2.5692597273704199e-01 3.7816642112666461e+00 5.0422189527144745e+00 1.5071039117045615e+01 0 0 0
701 3 -2.4199278257055831e-01 6.3027736568127182e+00 5.0422189716124732e+00 1.5071039169890090e+01 0 0 0
702 3 -2.6177001186469839e-01 6.3027736437030315e+00 2.5211095290288510e+00 1.5071039196610213e+01 0 0 0
710 3 -2.4679871211197923e-01 6.3027736351610404e+00 7.5633283250617769e+00 1.5071039222711864e+01 0 0 0
566 1 -8.0057357183067501e-02 7.5685626059602455e+00 6.2539041911371260e+00 1.3361543824269102e+01 0 0 0
666 1 2.9506330119580065e-01 7.5536356096173938e+00 2.5228955968265709e+00 1.4304998838953672e+01 0 0 0
518 1 -1.1694784372909436e-02 1.2749743464036778e+00 7.5023680326390174e+00 1.1660615252150542e+01 0 0 0
560 1 -9.9692183783198999e-03 6.3338988844191544e+00 7.5428439822967714e+00 1.1606856077901316e+01 0 0 0
698 3 -2.5573450860389157e-01 1.2605547654462350e+00 7.5633283044488406e+00 1.5071039127627142e+01 0 0 0
506 1 -8.9246265898223140e-02 1.5102230625662353e+01 3.7817258399434936e+00 1.3434007719955602e+01 -1 0 0
507 1 -9.4928422167327567e-02 6.0692812969604049e-02 1.2779476595942669e+00 1.3391023929086197e+01 0 0 0
517 1 -8.4359922911678889e-02 1.5069681070731875e+01 6.2457125016139328e+00 1.3455261029089556e+01 -1 0 0
539 1 -9.3601563382152655e-02 7.5716981280169158e+00 1.3194164609252741e+00 1.3376956551655276e+01 0 0 0
540 1 -8.8681974350308806e-03 8.8649267001314360e+00 1.5113023590108050e+01 1.1580748006946836e+01 0 -1 0
568 1 -9.3787620916184096e-03 8.8478236491906230e+00 5.0717753906347101e+00 1.1524276889247936e+01 0 0 0
570 1 4.7697432326795118e-03 8.8261130498118945e+00 3.7414257865352525e+00 1.2450203200247319e+01 0 0 0
571 1 5.4264686358630803e-03 8.8333651198788345e+00 1.2532820700004670e+00 1.2484934750023399e+01 0 0 0
573 1 -8.6973134622637619e-03 8.8128211665540519e+00 2.5160631292994435e+00 1.1554572061784777e+01 0 0 0
574 1 -9.4050397032683267e-02 1.0093498286461850e+01 3.6993573150293955e+00 1.3409784563957448e+01 0 0 0
575 1 -8.6603309993592642e-02 1.0127288455423150e+01 1.1943113233304685e+00 1.3348473964441256e+01 0 0 0
576 1 -1.1030266138669861e-02 1.1390989991025085e+01 2.5075928362460513e+00 1.1575626396169472e+01 0 0 0
578 1 4.7986550314825386e-03 1.1426566890050974e+01 1.2515950525027995e+00 1.2454696364539739e+01 0 0 0
580 1 -9.9906900331169172e-03 1.1388270515700404e+01 1.3842447987998413e-02 1.1563003581786329e+01 0 0 0
581 1 -9.1381584478627112e-02 1.2621485866996974e+01 1.2503921171204018e+00 1.3434347225316479e+01 0 0 0
582 1 -1.0879405099940342e-02 1.3955496162072192e+01 1.5105471571898487e+01 1.1592811735608811e+01 0 -1 0
603 1 3.2580056671983552e-03 8.8648949576030471e+00 6.2946263013174741e+00 1.2522615722964632e+01 0 0 0
605 1 -1.0987123701888523e-02 8.8228366200319694e+00 7.5826317711838165e+00 1.1634247679003286e+01 0 0 0
607 1 -8.5426300762180454e-02 1.0025318752907699e+01 6.2743873733744326e+00 1.3484602288747908e+01 0 0 0
608 1 -1.0302828046634795e-02 1.1332450812702888e+01 7.5253358145355831e+00 1.1634733783494255e+01 0 0 0
610 1 2.0450153912272132e-03 1.1314432285958127e+01 6.2983116586009080e+00 1.2557221009622138e+01 0 0 0
611 1 4.3168812618445624e-03 1.1392221099392936e+01 3.7194926101870762e+00 1.2528333430857371e+01 0 0 0
613 1 -1.0708031035051260e-02 1.1364545166179198e+01 4.9582964072981781e+00 1.1620094745184447e+01 0 0 0
614 1 -9.2370796616839543e-02 1.2529236563232139e+01 6.2799490356373546e+00 1.3437793498813084e+01 0 0 0
615 1 -9.2125550492605110e-02 1.2593871122301509e+01 3.8006622020429228e+00 1.3461045576228104e+01 0 0 0
616 1 -1.0098670585812482e-02 1.3810497112664212e+01 5.0250071368744136e+00 1.1578509915973443e+01 0 0 0
618 1 3.4178010505360353e-03 1.3849623850544059e+01 3.8032855990551737e+00 1.2507365539247372e+01 0 0 0
619 1 2.6694488760027183e-03 1.3946377725986501e+01 1.2516220963918800e+00 1.2504004546259216e+01 0 0 0
620 1 -9.9104154204301652e-03 1.3882864909441034e+01 2.5029777120581609e+00 1.1602351245478509e+01 0 0 0
641 1 1.5133872332182277e-03 1.3825473300967966e+01 6.2816641344855570e+00 1.2469690476131229e+01 0 0 0
667 1 2.9236273782566552e-01 1.0079818476788148e+01 2.5113461826059824e+00 1.4294273195997679e+01 0 0 0
676 1 2.9634593963277855e-01 1.0051128762769039e+01 4.9992108371131678e+00 1.4330312898869026e+01 0 0 0
677 1 3.0312141537501813e-01 1.2536773153073565e+01 5.0434025476719828e+00 1.4321770087352670e+01 0 0 0
678 1 2.9863836262971155e-01 1.2630703977386480e+01 2.5507172165631014e+00 1.4321504428072503e+01 0 0 0
685 3 -2.6107417588554355e-01 1.3866101871133912e+01 2.5211095053897172e+00 1.5071039200479447e+01 -1 0 0
686 3 -2.4557003428757396e-01 1.3866101925682484e+01 8.5589684247209907e-08 1.5071039191474281e+01 -1 0 0
688 3 -2.5977767184545175e-01 1.3866101868282696e+01 7.5633282524070911e+00 1.5071039171538743e+01 -1 0 0
689 3 -2.6274065421624959e-01 1.3866101847326226e+01 5.0422188724496131e+00 1.5071039175437816e+01 -1 0 0
703 3 -2.5575488080004227e-01 8.8238831259133388e+00 2.5211095506355057e+00 1.5071039251274668e+01 0 0 0
704 3 -2.4449981579495506e-01 8.8238830835398439e+00 6.7349680529173836e-08 1.5071039258277644e+01 0 0 0
705 3 -2.3757933430184286e-01 1.1344992525752319e+01 1.0643656042323802e-07 1.5071039239844131e+01 0 0 0
712 3 -2.4489443028063804e-01 8.8238831096312769e+00 5.0422189479824366e+00 1.5071039245508700e+01 0 0 0
713 3 -2.6936234298667200e-01 1.1344992474895170e+01 5.0422189005890656e+00 1.5071039256903864e+01 0 0 0
714 3 -2.5411157613014290e-01 1.1344992519271917e+01 2.5211095429570625e+00 1.5071039260627080e+01 0 0 0
642 1 -1.0212102274039792e-02 1.3877484844782153e+01 7.5229986800644024e+00 1.1599972091674617e+01 0 0 0
711 3 -2.6533354515249613e-01 8.8238830544998539e+00 7.5633282760405649e+00 1.5071039279109652e+01 0 0 0
719 3 -2.7356706408292325e-01 1.1344992433837518e+01 7.5633282375280331e+00 1.5071039263395647e+01 0 0 0
650 1 2.8428257791430528e-01 1.1147512002231386e-01 4.4104333675809571e-02 1.4273839538332254e+01 0 0 0
651 1 3.0052237679219329e-01 2.5572623600062951e+00 1.5106075621512575e+01 1.4349334146864912e+01 0 -1 0
652 1 2.9467541253748691e-01 1.5073786178730920e+01 7.5831630826348162e+00 1.4302419130179793e+01 -1 0 0
657 1 2.9210806879518747e-01 5.0299726975835783e+00 1.5114137840510240e+01 1.4298357980470836e+01 0 -1 0
658 1 2.9795423998647930e-01 7.5597859075290437e+00 4.4741122019175350e-02 1.4334376043763660e+01 0 0 0
663 1 2.8376749922251421e-01 4.9996637656300633e+00 7.5235911180258164e+00 1.4271631728221193e+01 0 0 0
693 3 -2.6593964193097119e-01 3.7816641590026623e+00 1.5126656659216133e+01 1.5071039227189985e+01 0 -1 0
699 3 -2.5460983280668575e-01 3.7816642454415939e+00 7.5633283385909760e+00 1.5071039163086889e+01 0 0 0
516 1 -9.6087954722115773e-02 3.3674687081467175e-02 8.7512380857227043e+00 1.3395086907381593e+01 0 0 0
543 1 -9.2995970773344733e-02 5.4495455708570971e-02 1.1291932058450941e+01 1.3431209223803174e+01 0 0 0
544 1 -1.0101648773650704e-02 1.2640723088723185e+00 1.2547635275775978e+01 1.1570804682293216e+01 0 0 0
546 1 3.0605037234540684e-03 1.2701225069327331e+00 1.1315343405272539e+01 1.2503220774527206e+01 0 0 0
547 1 5.0341605737807436e-03 1.3393657361646605e+00 8.7692845649784399e+00 1.2527237033771456e+01 0 0 0
549 1 -1.0545524335719300e-02 1.2396824543082665e+00 1.0070746949770504e+01 1.1574013962512050e+01 0 0 0
550 1 -8.2920726838983480e-02 2.4974316691582006e+00 1.1328713118389398e+01 1.3482018633091306e+01 0 0 0
551 1 -9.7225426727457681e-02 2.5561520922466214e+00 8.8483632800577592e+00 1.3418604094159203e+01 0 0 0
552 1 -1.0555528409001452e-02 3.8330392666850446e+00 1.0069237280319104e+01 1.1626439885429271e+01 0 0 0
554 1 3.7671828816906853e-03 3.8097127443968701e+00 8.8017817319639473e+00 1.2500416127265430e+01 0 0 0
558 1 -8.6280409387378104e-02 4.9966232419503749e+00 8.7604447321918339e+00 1.3397937077632839e+01 0 0 0
583 1 1.6712796111772942e-03 1.2689346315659062e+00 1.3858423616143808e+01 1.2526755837397253e+01 0 0 0
584 1 -9.1823219278542562e-02 2.5654526528460972e+00 1.3879268712958387e+01 1.3338873944031958e+01 0 0 0
586 1 3.4178341636973424e-03 3.8056205176533533e+00 1.3841891272312656e+01 1.2492010182323847e+01 0 0 0
587 1 -6.0295378024259466e-03 3.7821369217293461e+00 1.1325946374137898e+01 1.2533234251512651e+01 0 0 0
589 1 -9.4629427278933032e-03 3.8236773191557436e+00 1.2558594400381669e+01 1.1627586767986175e+01 0 0 0
590 1 -9.0791856617227926e-02 5.0763981977074843e+00 1.3792374080819251e+01 1.3436160529197384e+01 0 0 0
591 1 -8.7320748216489372e-02 5.1448603645698938e+00 1.1374020598244368e+01 1.3403825225393700e+01 0 0 0
592 1 -8.6654425823657812e-03 6.2738607300072031e+00 1.2544231085318300e+01 1.1584273530263971e+01 0 0 0
594 1 4.3914714336556696e-03 6.3039641172258136e+00 1.1355834098152355e+01 1.2511137476826804e+01 0 0 0
595 1 -1.6738253829759245e-04 6.3341672211232858e+00 8.8013535146553519e+00 1.2531202211848843e+01 0 0 0
597 1 -1.0644923965436995e-02 6.3102579118022897e+00 1.0078924058106786e+01 1.1648717500757769e+01 0 0 0
598 1 -7.6851836250309960e-02 7.6394193200518599e+00 1.1390112727087136e+01 1.3389342151581413e+01 0 0 0
599 1 -9.0517997619752905e-02 7.6012753266487296e+00 8.8139767200607491e+00 1.3384725203462200e+01 0 0 0
621 1 3.5786810866546611e-03 6.3067944550050976e+00 1.3831859512309828e+01 1.2466681720799045e+01 0 0 0
661 1 2.8301844434852935e-01 2.5789792932417339e+00 1.0059278042332842e+01 1.4256186182270685e+01 0 0 0
662 1 2.9824418106564077e-01 2.5023984599372735e+00 7.5863990822696081e+00 1.4327589530019003e+01 0 0 0
670 1 2.8682735915963870e-01 2.5585348593659303e+00 1.2604565623805859e+01 1.4288111370297447e+01 0 0 0
671 1 3.0071038404599054e-01 5.0525670348976837e+00 1.2602649360110536e+01 1.4322119569836721e+01 0 0 0
672 1 2.9437261721649310e-01 5.0204442697867151e+00 1.0083678041854270e+01 1.4332427354221538e+01 0 0 0
697 3 -2.4727637815194128e-01 1.2605548016065156e+00 1.0084437740901814e+01 1.5071039177587499e+01 0 0 0
706 3 -2.4411986042054618e-01 1.2605547759777744e+00 1.2605547213450441e+01 1.5071039195606815e+01 0 0 0
707 3 -2.6047720176549377e-01 3.7816641851373789e+00 1.2605547163347993e+01 1.5071039258572762e+01 0 0 0
708 3 -2.5898767214613128e-01 3.7816642314873969e+00 1.0084437723180143e+01 1.5071039242183634e+01 0 0 0
709 3 -2.5961438102092876e-01 6.3027735872104858e+00 1.0084437683487101e+01 1.5071039286762163e+01 0 0 0
715 3 -2.5079579725527595e-01 6.3027735653000612e+00 1.2605547147245984e+01 1.5071039280701575e+01 0 0 0
622 1 -8.9942712632939556e-02 7.5859802255731452e+00 1.3908729352314046e+01 1.3440221743027157e+01 0 0 0
674 1 2.8525478087001277e-01 7.4904014981106206e+00 7.5473258212556127e+00 1.4278771483286821e+01 0 0 0
668 1 2.6996330649676148e-01 1.0129950287136470e+01 1.5108960875610352e+01 1.4209090896000555e+01 0 -1 0
669 1 2.9113890185899149e-01 1.2677683413395128e+01 4.0290385008843188e-02 1.4298918401186436e+01 0 0 0
542 1 -7.3565679965932496e-02 4.8749991770543843e-02 1.3847486263818745e+01 1.3405831775692240e+01 0 0 0
659 1 2.9487169144436493e-01 1.5104488599671681e+01 1.2521961489743266e+01 1.4313893625933011e+01 -1 0 0
660 1 2.8702023520539383e-01 7.0823358821433757e-02 1.0041925908587936e+01 1.4290078645568418e+01 0 0 0
600 1 -1.1109901174169316e-02 8.8173044723566392e+00 1.0099096338672281e+01 1.1592489118494205e+01 0 0 0
602 1 3.8796832713388157e-03 8.8715884633182966e+00 8.7971206890618188e+00 1.2483123825600785e+01 0 0 0
606 1 -8.5379141618807941e-02 1.0109391465731822e+01 8.8226996820428223e+00 1.3393265333819675e+01 0 0 0
624 1 1.4304852996194297e-03 8.8726793694883614e+00 1.3872186245249393e+01 1.2516015044818205e+01 0 0 0
625 1 -4.4063918177262418e-04 8.8677352493357091e+00 1.1319826799195619e+01 1.2520466700655435e+01 0 0 0
627 1 -1.0778063368008127e-02 8.8685500374862940e+00 1.2654918544069288e+01 1.1596869375057929e+01 0 0 0
628 1 -9.2968250502437885e-02 1.0155414448645075e+01 1.3857532952828929e+01 1.3393616017947553e+01 0 0 0
629 1 -8.3741820765987296e-02 1.0134258974428560e+01 1.1386731462649712e+01 1.3442134554412116e+01 0 0 0
630 1 -9.5218094751451394e-03 1.1422343494753658e+01 1.2621620159997319e+01 1.1576218037264407e+01 0 0 0
632 1 2.2683286890955831e-03 1.1425602715330694e+01 1.1399873951035868e+01 1.2514986735614313e+01 0 0 0
633 1 2.2120740686742417e-03 1.1347478519009202e+01 8.8732077926776505e+00 1.2516796792712659e+01 0 0 0
635 1 -1.2535244978463814e-02 1.1370211671284098e+01 1.0101181475848344e+01 1.1646469800897203e+01 0 0 0
636 1 -9.0379661521913540e-02 1.2687358542210534e+01 1.1412442433720578e+01 1.3341113792421117e+01 0 0 0
637 1 -8.4081674336530118e-02 1.2645094276517382e+01 8.7942989600009440e+00 1.3415695879627282e+01 0 0 0
638 1 -1.0555560246519718e-02 1.3893206151052437e+01 1.0053859528985658e+01 1.1579031735451144e+01 0 0 0
640 1 4.2025068993364299e-03 1.3864259437199248e+01 8.8302005465764708e+00 1.2498096537231680e+01 0 0 0
643 1 3.5851423673426667e-04 1.1405193459381259e+01 1.3873474903175053e+01 1.2492655060888154e+01 0 0 0
644 1 -8.2723220765147529e-02 1.2702292429583629e+01 1.3843826677569927e+01 1.3483585370930808e+01 0 0 0
646 1 -1.9547474182373997e-03 1.3872058958108939e+01 1.3844694018068699e+01 1.2557457578065906e+01 0 0 0
647 1 3.2436183616359241e-03 1.3916172388860435e+01 1.1331510029928133e+01 1.2458394257762027e+01 0 0 0
648 1 -9.9243012170287456e-03 1.3919531295589467e+01 1.2584909316790416e+01 1.1591890468897530e+01 0 0 0
673 1 2.9487638649448411e-01 7.5649967646794645e+00 1.0054415816684637e+01 1.4324432247833879e+01 0 0 0
675 1 3.1979372561499764e-01 1.0029928801233593e+01 7.5379555753476115e+00 1.4400140706188154e+01 0 0 0
679 1 2.8798473200413005e-01 7.6198252950247527e+00 1.2664369687364678e+01 1.4283631806220754e+01 0 0 0
680 1 3.0213403950241757e-01 1.0152649439847997e+01 1.2632790748972910e+01 1.4321845270566454e+01 0 0 0
681 1 2.6782998205724495e-01 1.0088149296114802e+01 1.0083876038184815e+01 1.4220532694317669e+01 0 0 0
682 1 2.8369857238384977e-01 1.2630096594558372e+01 1.0091613071755186e+01 1.4293567837887933e+01 0 0 0
683 1 3.0249940654184992e-01 1.2565913111451520e+01 7.5375224843343274e+00 1.4327235638952683e+01 0 0 0
684 1 2.9540826632660100e-01 1.2691315719210474e+01 1.2609297182558292e+01 1.4307158967398264e+01 0 0 0
695 3 -2.6611824193632749e-01 1.3866101961546594e+01 1.2605547243539089e+01 1.5071039172280162e+01 -1 0 0
696 3 -2.5050434188722298e-01 1.3866101927953704e+01 1.0084437709515175e+01 1.5071039177387423e+01 -1 0 0
716 3 -2.5228140432842477e-01 8.8238830215411586e+00 1.2605547174660295e+01 1.5071039275273058e+01 0 0 0
717 3 -2.4382213090408986e-01 8.8238830087835591e+00 1.0084437652222437e+01 1.5071039301872732e+01 0 0 0
718 3 -2.3728856741748064e-01 1.1344992445627254e+01 1.0084437660528913e+01 1.5071039257093318e+01 0 0 0
720 3 -2.5692169780350727e-01 1.1344992493165828e+01 1.2605547220851033e+01 1.5071039229817012e+01 0 0 0

Velocities

3 0.0000000000000000e+00 0.0000000000000000e+00 0.0000000000000000e+00
4 0.0000000000000000e+00 0.0000000000000000e+00 0.0000000000000000e+00
6 0.0000000000000000e+00 0.0000000000000000e+00 0.0000000000000000e+00
7 0.0000000000000000e+00 0.0000000000000000e+00 0.0000000000000000e+00
8 0.0000000000000000e+00 0.0000000000000000e+00 0.0000000000000000e+00
9 0.0000000000000000e+00 0.0000000000000000e+00 0.0000000000000000e+00
10 0.0000000000000000e+00 0.0000000000000000e+00 0.0000000000000000e+00
11 0.0000000000000000e+00 0.0000000000000000e+00 0.0000000000000000e+00
12 0.0000000000000000e+00 0.0000000000000000e+00 0.0000000000000000e+00
13 0.0000000000000000e+00 0.0000000000000000e+00 0.0000000000000000e+00
14 0.0000000000000000e+00 0.0000000000000000e+00 0.0000000000000000e+00
15 0.0000000000000000e+00 0.0000000000000000e+00 0.0000000000000000e+00
24 0.0000000000000000e+00 0.0000000000000000e+00 0.0000000000000000e+00
26 0.0000000000000000e+00 0.0000000000000000e+00 0.0000000000000000e+00
27 0.0000000000000000e+00 0.0000000000000000e+00 0.0000000000000000e+00
28 0.0000000000000000e+00 0.0000000000000000e+00 0.0000000000000000e+00
73 5.4110711590858078e-03 -1.3389780717704570e-03 -5.3754270993135898e-03
74 -4.8121938935317167e-03 -2.6297168146923208e-03 -5.9385356348843864e-03
75 -1.0633581782115830e-02 8.8738268475320079e-04 -9.7609330183443307e-03
76 -3.6014912464039737e-03 5.1924933155781967e-03 -5.4176342223943305e-03
77 9.7507739371678875e-04 4.5924968719930999e-03 6.9844175810211441e-03
78 -5.4869526548078709e-03 1.3361596199266471e-03 1.4583346302159158e-03
79 4.6508262654765100e-03 3.6788206537841169e-03 8.1899360275170374e-03
80 9.8612595371697764e-03 1.2196239114005527e-03 -8.2812732993688219e-03
81 -3.2121028491432888e-03 4.8797935709357530e-03 -4.0849345401902286e-03
82 -4.7398204823994352e-04 -1.3509618643752581e-03 -8.1028662067516178e-03
85 -2.3308662640021301e-03 -2.7972506427995946e-03 2.9221313370412187e-04
88 5.3868221063284680e-03 -2.4863575476277793e-03 4.8911788599501479e-03
89 3.2397275642247064e-03 -1.8572064956376508e-03 -5.1708085315424019e-03
90 4.2893131683830179e-03 2.8457393182047745e-03 -5.1550079590217067e-04
91 8.9169835127532304e-03 4.2231247409203303e-03 4.9589293929648765e-04
92 1.5194341195057804e-04 -3.1094288560430151e-03 -6.9493467709305021e-03
93 2.0566814655491911e-03 4.3188286536849666e-04 7.3857870271190930e-03
94 -4.5882398204044588e-03 -3.1029696167148256e-03 1.3725754317682418e-03
95 7.5123964477733169e-03 -6.2248623458850579e-03 3.7950865023030304e-03
96 -8.9260543204600020e-04 -3.0638483704272645e-03 1.1424160150349443e-03
97 2.3222912297818977e-03 1.9851462395477438e-03 -2.0608966989155817e-03
98 -3.4572973920465179e-03 3.0930752683494618e-03 -3.6636038074839106e-03
99 -8.7138644551250938e-03 -9.1795559608419362e-03 -1.1601943845160849e-02
100 1.2716045786343153e-03 4.2496335598524526e-03 -7.2193432318421909e-03
101 -2.6022952160245287e-03 2.7574430782140460e-03 2.2943388920913382e-03
102 -9.2702135099125254e-04 3.4057231889455882e-03 -4.4548062718200278e-03
103 -1.5039969906687682e-03 -5.7834647214846822e-03 -1.7574220008088623e-03
104 6.4399884666872321e-03 -1.0267439156044441e-04 5.2574166553142985e-03
105 8.0254982777812020e-04 8.3449103083749528e-03 5.8326906190062210e-03
106 1.7187099239887112e-03 4.3663948842658810e-03 1.0527432221207062e-03
123 -8.6945208690366645e-03 -4.5467978158893274e-03 -2.1696087297469737e-03
124 3.5841164956852850e-03 2.9322205022739335e-03 2.4823628026310936e-03
125 -1.1401563894156931e-02 1.1554919370893091e-02 7.6354145702276109e-03
127 -4.8057755369333025e-03 -4.1056066840095360e-03 8.6570817532682538e-03
129 -5.2835308556933467e-03 -5.9366982178255716e-03 6.8678206891818047e-03
130 -5.0267376410300154e-03 2.5002863556178707e-03 3.2589348160882584e-03
131 1.7019025960949617e-03 -9.1794140652554732e-03 2.4773808087622485e-03
132 6.3731175744553715e-03 4.8989397673511589e-03 -4.2891442984151906e-04
133 3.9318436692519845e-03 7.4331593431611149e-04 1.8780481671514032e-03
217 4.5311215862975048e-04 3.5365062083984313e-03 -5.5734322801252439e-03
220 2.4751596571358793e-03 5.5801591196170215e-03 6.0618493205663896e-04
221 -4.1528135072979033e-03 1.7552515611888718e-03 1.3738702021689024e-03
223 -9.8381444397529806e-03 4.0775117776220213e-03 6.1134193382570085e-03
224 -5.9840519759626907e-03 -9.0140986836125328e-04 6.8886191538253790e-03
226 6.7990652302030875e-03 3.0459813417577919e-03 7.2152474360532752e-03
227 5.2381833746455997e-03 2.1138248895566257e-03 -1.7971215067633997e-03
231 1.3923647939028500e-03 3.3641744799527348e-03 -1.9484881969874625e-03
234 3.1633587391659201e-03 1.0521765400424955e-03 -7.4153535320407252e-03
235 -4.4049927621989601e-03 2.6941521715538020e-03 5.2157870640100077e-03
238 1.0615742168521422e-03 8.1657571443348527e-05 -2.0703145098825574e-03
239 -2.4170614839920935e-04 9.6611678392942400e-03 2.0122321218427716e-03
242 -3.3140174938355747e-03 -1.1477842448245294e-03 4.9155567948060809e-03
243 8.4396599831356789e-04 2.6956505622645691e-03 2.4958863621719067e-03
246 -1.3546885396505904e-02 1.0178188104993766e-03 2.1202508995538066e-03
247 -1.0992405227608023e-04 5.0879953867081183e-03 -4.3765552817694149e-03
250 4.6866351444976905e-03 -4.5387436082564561e-03 -1.9157147477136286e-03
268 3.1189163449898863e-03 -3.0687205233221101e-03 6.9998853923587739e-03
269 3.3897637056406762e-03 3.2023001028205437e-03 7.4243116294659371e-04
273 7.1947125700651147e-03 -2.9710270817548809e-03 -3.2431408471247890e-03
277 -2.7593641444396749e-03 -8.7159347667135571e-03 -1.6997833165715724e-03
137 -2.8539047924670304e-03 -8.3768208386450895e-04 5.2206363987129193e-03
86 -1.2250446701970168e-03 7.9647795401826781e-03 6.5442255435258674e-03
121 -5.6612125171428482e-03 -1.6839226268076967e-03 3.8556920135624190e-03
128 -3.1668276790338421e-04 8.2702691829253762e-04 2.9563928568636117e-03
230 4.6080971232321491e-04 -1.6923219546326549e-03 2.0383203303776542e-03
265 1.3244952597818769e-04 -4.4685348470984666e-03 -6.1402289270497097e-03
272 1.7954022259324038e-03 -5.1489857298693620e-03 -1.5845587918506251e-02
1 0.0000000000000000e+00 0.0000000000000000e+00 0.0000000000000000e+00
2 0.0000000000000000e+00 0.0000000000000000e+00 0.0000000000000000e+00
30 0.0000000000000000e+00 0.0000000000000000e+00 0.0000000000000000e+00
83 2.6747565435599184e-03 2.2332035372244837e-03 -6.5008821113526974e-03
87 -1.4905938402103014e-03 9.0631223107281306e-04 -8.8409408446690860e-04
135 -3.4868888335206423e-03 4.7612348921979956e-03 -4.6010515633964529e-03
169 3.1639435766721478e-03 2.3286589247714998e-03 6.8114598023358520e-03
249 -3.0335010174201839e-03 -8.9596322422259939e-05 5.0599108317473159e-03
276 -2.0058014390332136e-03 4.7040178925946610e-03 -5.1699760525633397e-03
313 7.3552284391158857e-04 -4.3909387328176777e-03 5.0162603866899793e-03
16 0.0000000000000000e+00 0.0000000000000000e+00 0.0000000000000000e+00
29 0.0000000000000000e+00 0.0000000000000000e+00 0.0000000000000000e+00
31 0.0000000000000000e+00 0.0000000000000000e+00 0.0000000000000000e+00
32 0.0000000000000000e+00 0.0000000000000000e+00 0.0000000000000000e+00
33 0.0000000000000000e+00 0.0000000000000000e+00 0.0000000000000000e+00
34 0.0000000000000000e+00 0.0000000000000000e+00 0.0000000000000000e+00
35 0.0000000000000000e+00 0.0000000000000000e+00 0.0000000000000000e+00
36 0.0000000000000000e+00 0.0000000000000000e+00 0.0000000000000000e+00
48 0.0000000000000000e+00 0.0000000000000000e+00 0.0000000000000000e+00
50 0.0000000000000000e+00 0.0000000000000000e+00 0.0000000000000000e+00
51 0.0000000000000000e+00 0.0000000000000000e+00 0.0000000000000000e+00
52 0.0000000000000000e+00 0.0000000000000000e+00 0.0000000000000000e+00
53 0.0000000000000000e+00 0.0000000000000000e+00 0.0000000000000000e+00
54 0.0000000000000000e+00 0.0000000000000000e+00 0.0000000000000000e+00
55 0.0000000000000000e+00 0.0000000000000000e+00 0.0000000000000000e+00
56 0.0000000000000000e+00 0.0000000000000000e+00 0.0000000000000000e+00
68 0.0000000000000000e+00 0.0000000000000000e+00 0.0000000000000000e+00
107 -2.4944949096501749e-03 3.0844025899109347e-03 5.2305575188610490e-03
108 -6.9083584042383527e-03 8.8088411447794276e-03 -2.3659989977062343e-03
134 2.3175381965562666e-03 6.1636914075092718e-03 1.9899258838391638e-03
136 3.0244654217662426e-03 1.5707153614104392e-03 1.9975357275864416e-03
138 -5.5431398641015194e-03 -6.0248881940923116e-03 -9.2120078986520134e-03
139 2.4692004885746811e-03 2.3556434589397414e-03 -1.2651162081717503e-04
140 6.3769162811239295e-04 5.9085113116102398e-04 -2.0577313982615862e-03
141 7.2878608899103999e-03 3.9150643793576436e-03 1.0444690317870035e-03
142 -1.3133326302766676e-03 -5.1617188692129647e-03 -1.0610872559720010e-02
143 5.9401340785370741e-03 5.4448902963797962e-05 -6.3098682964388142e-04
144 -4.4584632139510220e-03 1.2740443341084260e-03 5.1708368769573963e-03
145 -1.8994346251371783e-03 -3.3995228025125420e-03 -1.4036827652290796e-03
146 8.2209614394007733e-03 -1.3142088962817950e-03 6.9524111779638417e-04
147 -3.9824885056573616e-03 -7.2496583583399809e-03 1.1602273822072335e-03
148 -2.8948134633154225e-03 6.5060150117275508e-03 -1.9449477992062366e-03
149 4.4898759168411949e-03 -8.3098498120895564e-03 -6.5596852213871501e-04
150 7.3839159105949089e-03 -3.9205984399431331e-03 7.1465838547415794e-03
171 -2.2968582236675872e-03 1.4170748358730611e-04 -5.5587557943099428e-03
173 7.7971377287378658e-04 1.8879675274972404e-04 -2.9533367844526796e-04
175 2.0460055902264359e-03 -6.6633143521812972e-03 -3.7008617701894428e-03
176 -5.9762101411135861e-03 -6.6643133851042443e-03 -8.5895303422792689e-03
177 6.8017436633908039e-03 2.3199666744292960e-03 -2.3780313714346340e-03
178 5.4613428567238760e-03 7.2501449835657753e-04 -5.5529189446693202e-04
179 2.1415155556548551e-03 5.5223236349453064e-03 4.4373505848108764e-03
180 -4.1785760301400795e-03 6.8188663590055222e-03 -1.4155900655642217e-02
181 -4.3134771849281097e-03 -2.2632701016124940e-03 2.4932999818763407e-04
182 -9.4579314245936161e-05 2.6905027886015252e-03 -3.7732129540833472e-03
183 2.4261803479710598e-04 3.6270424292141595e-03 3.0968900787902752e-03
184 -3.3394842774874625e-03 -4.3602688276943394e-04 1.3050535114881025e-02
185 -2.2510968912204067e-03 6.8727184853307330e-03 -4.0929396079212959e-04
186 -6.8949637639274981e-03 6.3170665314457334e-03 -1.3021847910472313e-02
187 -2.9921353921228371e-04 6.5137632405363067e-03 4.1684000157398132e-03
188 -4.4036802464292434e-03 -7.1967016903850623e-03 5.6183995528910819e-04
209 1.6348915118638491e-03 -3.4959882179019354e-03 -2.7123101310680610e-05
252 -1.0420262128666359e-03 4.9083913963117211e-03 -4.8630160515128916e-03
280 -3.9779489828457935e-04 -4.4929600268189982e-03 -1.0381353183066919e-02
281 7.8501708757541247e-04 -6.9738593474509948e-03 -8.9957286791782459e-04
284 2.0217771978980662e-03 3.8843115951891351e-03 -5.9108551323098103e-04
285 -7.3447487902700212e-03 -6.8523891363666050e-03 3.8645739399850729e-03
288 4.7911621201645310e-03 -1.3054190725305585e-03 6.4479765001068711e-03
289 5.9269348765775285e-03 -9.0337674641631383e-03 5.6380398987630374e-04
291 -3.2566723296375017e-03 -1.4222450757396430e-03 6.4487243922737242e-03
292 -3.8186868646793973e-04 -3.9054525060040006e-03 -1.8006529462075162e-03
294 1.1651064548797302e-03 2.9631670282748591e-03 -1.1033384076782188e-02
317 -6.7591126319891163e-04 1.0888660690275461e-02 6.5430068705158058e-03
320 3.9458523310281273e-03 -1.8251824170726898e-03 2.1906057450396502e-03
321 4.6140044694897272e-03 -5.3915253570296171e-03 -1.2997644341284180e-03
324 -5.2467832400412929e-04 3.1225605063963813e-03 -2.8934716624021786e-03
325 -2.6296882600656689e-03 -1.1529255900873563e-03 8.8739891169330645e-03
328 -1.0149028368204346e-03 -1.5681546627713241e-03 8.1564003650491344e-03
329 -7.8097185323209341e-03 5.9702426675036580e-03 2.4885357834880562e-03
332 -1.2651578498964125e-02 -7.3849941785240408e-03 1.4836483923332683e-03
210 5.2780747224724549e-03 4.8753303943787785e-03 5.5608537436877849e-04
316 3.9423710885307939e-03 1.1440058766605313e-02 -2.1579017036143394e-03
351 -5.3893275776646342e-03 1.4589912155060715e-03 -2.1564804222622891e-03
354 3.9584095011245936e-03 4.8050650906001314e-03 -6.8321148461745717e-05
5 0.0000000000000000e+00 0.0000000000000000e+00 0.0000000000000000e+00
19 0.0000000000000000e+00 0.0000000000000000e+00 0.0000000000000000e+00
20 0.0000000000000000e+00 0.0000000000000000e+00 0.0000000000000000e+00
21 0.0000000000000000e+00 0.0000000000000000e+00 0.0000000000000000e+00
22 0.0000000000000000e+00 0.0000000000000000e+00 0.0000000000000000e+00
23 0.0000000000000000e+00 0.0000000000000000e+00 0.0000000000000000e+00
25 0.0000000000000000e+00 0.0000000000000000e+00 0.0000000000000000e+00
37 0.0000000000000000e+00 0.0000000000000000e+00 0.0000000000000000e+00
38 0.0000000000000000e+00 0.0000000000000000e+00 0.0000000000000000e+00
39 0.0000000000000000e+00 0.0000000000000000e+00 0.0000000000000000e+00
40 0.0000000000000000e+00 0.0000000000000000e+00 0.0000000000000000e+00
41 0.0000000000000000e+00 0.0000000000000000e+00 0.0000000000000000e+00
42 0.0000000000000000e+00 0.0000000000000000e+00 0.0000000000000000e+00
43 0.0000000000000000e+00 0.0000000000000000e+00 0.0000000000000000e+00
44 0.0000000000000000e+00 0.0000000000000000e+00 0.0000000000000000e+00
57 0.0000000000000000e+00 0.0000000000000000e+00 0.0000000000000000e+00
84 -1.3356684685228747e-03 2.6010907583001140e-03 -3.9548070950270168e-06
109 4.5506055668129855e-03 6.2148735928681297e-03 7.2123366987322550e-03
110 -3.3819209144563362e-03 -2.7526904981810723e-03 2.7496952865517788e-03
111 2.6084184918934031e-03 -7.3128530796444562e-03 -9.7152458997415356e-03
112 -1.6750075957170255e-04 -2.7376888775012828e-03 -5.8196784732671833e-03
114 2.9904965330591342e-03 -7.9664101827235066e-03 -5.7688553404027933e-05
115 -3.5318469591888485e-03 3.3257872637287644e-04 -3.9847727067251612e-03
116 -3.4414555986483469e-04 -4.9544361413701521e-03 -4.4551044904016538e-03
117 5.3647999402205481e-03 6.4880001382009635e-03 1.1420604373221874e-02
118 6.9529932377299423e-04 -6.4929451394834569e-03 -3.0468024256626973e-03
119 1.6735825537778388e-03 1.1743654969302490e-02 -2.6495080954100580e-03
120 7.8470183806950873e-03 -2.4937981845804910e-04 -3.4051099185371130e-03
122 -5.6883221983347870e-03 -3.5278338869361506e-03 6.2795056551085695e-04
126 -2.2354924952798913e-03 -2.1862671359334251e-03 5.5211537067541040e-03
151 -1.1617787768859900e-03 4.7133829958692320e-03 -1.8747162897525121e-03
152 4.7845836188747173e-03 -4.5942740256473755e-03 3.6762744388340223e-03
153 5.6573062500067791e-03 1.6897517988715658e-04 -1.0627630154709741e-02
154 -5.9159471797264667e-03 3.6733988690939331e-03 -1.2243810774642215e-03
155 -4.9137270171684191e-03 2.3927115996646435e-03 2.5014632596835952e-03
156 1.1004845000284747e-02 -8.6510451522551907e-03 -1.0812225623590256e-03
157 -2.6121692682722802e-04 4.6997263098366489e-03 -5.6236739364617329e-03
158 8.6332410469744034e-04 2.7146409454564795e-03 -3.8758457332486022e-03
159 6.1950683121099991e-03 -6.5214748485594234e-03 5.2198520608268146e-03
160 -8.7610629820340600e-03 3.0924804690088501e-04 -5.6653996273502523e-03
161 3.2256108944571599e-04 -4.3273304033304549e-03 6.2403122128071691e-03
162 -3.4811027337410378e-03 4.4458707542317328e-03 -5.3229537098466399e-03
163 4.3676857903739074e-03 -1.8905308247278833e-03 -2.3804581586836619e-03
165 7.3992174877614853e-03 7.8059080611410413e-03 7.0200598526791712e-05
189 -8.5717457202315519e-03 -7.4189799568101207e-03 2.4845550235606229e-03
253 -2.5260904922002766e-03 3.1425720203092085e-03 1.3559280077841669e-03
256 -5.1303876307975992e-03 4.1870990986667351e-04 -5.4357198389095524e-03
257 4.3439224931452851e-03 2.9232617198498329e-03 -8.8045548897235561e-03
260 -1.0080080726654497e-03 -3.8461209687016581e-03 -2.5672160645943440e-03
261 3.6495168262261979e-03 -9.0419447160458718e-04 1.3421544495772462e-03
264 -5.9145695001984223e-03 -2.0816205943503699e-03 1.9084973770216492e-03
297 1.9499222874290439e-03 3.7888355441279193e-05 -9.1164896507690189e-04
300 -1.3894682290349690e-04 -6.2171416539203404e-03 2.6287578892229923e-03
301 5.7277350584958031e-03 -3.2597241400596885e-03 1.3222594174016661e-03
304 -8.6034649340301153e-03 6.6583930235673636e-03 9.5363394241935080e-03
305 -9.8762478274776124e-04 6.7618865436561704e-03 -2.4337956266713640e-03
309 1.3048268024084017e-03 9.1965030492067057e-04 2.1335934975548298e-03
190 -2.5590751982600673e-03 1.5980759840981027e-04 1.9804503254676298e-03
335 -2.6681970932663861e-03 -1.5615200684481999e-03 -1.3507474609877896e-03
17 0.0000000000000000e+00 0.0000000000000000e+00 0.0000000000000000e+00
18 0.0000000000000000e+00 0.0000000000000000e+00 0.0000000000000000e+00
45 0.0000000000000000e+00 0.0000000000000000e+00 0.0000000000000000e+00
46 0.0000000000000000e+00 0.0000000000000000e+00 0.0000000000000000e+00
113 8.5299780589956110e-03 1.2790457232622929e-03 -2.3312421663966628e-03
166 2.2174904894517364e-03 -6.8340131999750199e-03 2.0152385772061643e-03
167 -2.3681950124583551e-03 -9.1271877847062940e-04 -3.0159729837635706e-03
47 0.0000000000000000e+00 0.0000000000000000e+00 0.0000000000000000e+00
49 0.0000000000000000e+00 0.0000000000000000e+00 0.0000000000000000e+00
58 0.0000000000000000e+00 0.0000000000000000e+00 0.0000000000000000e+00
59 0.0000000000000000e+00 0.0000000000000000e+00 0.0000000000000000e+00
60 0.0000000000000000e+00 0.0000000000000000e+00 0.0000000000000000e+00
61 0.0000000000000000e+00 0.0000000000000000e+00 0.0000000000000000e+00
62 0.0000000000000000e+00 0.0000000000000000e+00 0.0000000000000000e+00
63 0.0000000000000000e+00 0.0000000000000000e+00 0.0000000000000000e+00
64 0.0000000000000000e+00 0.0000000000000000e+00 0.0000000000000000e+00
65 0.0000000000000000e+00 0.0000000000000000e+00 0.0000000000000000e+00
66 0.0000000000000000e+00 0.0000000000000000e+00 0.0000000000000000e+00
67 0.0000000000000000e+00 0.0000000000000000e+00 0.0000000000000000e+00
69 0.0000000000000000e+00 0.0000000000000000e+00 0.0000000000000000e+00
70 0.0000000000000000e+00 0.0000000000000000e+00 0.0000000000000000e+00
71 0.0000000000000000e+00 0.0000000000000000e+00 0.0000000000000000e+00
72 0.0000000000000000e+00 0.0000000000000000e+00 0.0000000000000000e+00
164 -2.6120665667677101e-03 -8.2988034096476634e-03 1.8051176522822612e-03
168 -5.5110684708126797e-03 -2.5562353643881919e-03 5.7055319278320358e-03
170 1.3752192899462465e-03 1.0869896491693683e-02 3.4067230474582265e-03
172 1.1700367752172695e-02 -9.3477661304343842e-03 -3.0161748973232182e-04
174 -5.5355771676320808e-03 -1.7408349413736420e-04 -4.4821879409294814e-03
191 -2.3958235706188638e-03 2.0623880607182404e-03 1.5204168884396874e-03
192 1.1214560452280275e-03 7.9492655531878866e-03 -4.3167177545154278e-04
193 3.9103544136641294e-03 -6.3088126429863367e-05 1.3581554166314033e-02
194 -2.5190247537939334e-03 -9.0825113894979440e-03 8.3255334588975985e-04
195 2.9996072420246387e-03 1.6982984814461286e-03 2.4975144865364406e-03
196 1.1997110980853995e-02 8.6609330321206241e-04 -3.7112310534978929e-03
197 -7.5357311646899209e-03 -7.0730817454591581e-03 4.9139135355330630e-04
198 4.4304416576806532e-03 -1.9231487808956005e-03 -5.2524447413257276e-03
199 -2.9765396134815672e-04 3.7447697766888012e-03 -1.4365782891209513e-04
200 5.0381362256650217e-03 5.3016830098838712e-03 8.5646125415072660e-04
201 -2.6366407187053890e-03 6.4267938974806645e-03 -2.3490865127612720e-03
202 5.9735629476926899e-03 4.5251805041542177e-03 -9.4697699224554500e-03
203 -3.1206712560876114e-03 -7.1424515492605686e-03 -4.9902367979690870e-03
204 -4.6818966789511337e-03 6.0862045730730621e-04 4.9771016535898596e-03
205 5.1307143704874105e-03 -1.5299225456632360e-02 -3.5708438140414278e-03
206 -9.7859612250306201e-03 -9.8121259022666135e-03 4.2038787977955974e-04
207 -1.7472014775940686e-03 -4.2067483997996410e-03 8.5178783096922558e-03
208 5.6751481385526013e-03 -2.6960259807706755e-03 4.4588887505956337e-03
211 -5.7137057390923814e-03 -2.0191758900540767e-03 6.2347503482139662e-03
212 4.6969658888525896e-03 6.4686395310009160e-04 4.5743841737720912e-03
213 3.3182009920357095e-04 -3.0412202592451161e-03 1.3481491128711164e-03
214 4.7409903311565228e-03 4.3436753067865753e-03 -8.7147588949735705e-03
215 -5.9224519896094200e-03 3.2482797302197611e-03 -1.1541304440099001e-02
216 3.2502880613679026e-03 4.0690793782859804e-03 1.3239526990878080e-03
308 -4.8766995801347050e-03 -2.4734133614551161e-03 -1.2075262778363548e-03
312 1.6543959689405013e-03 5.7720831052933373e-03 6.1026731604808373e-03
338 -6.8656241080389422e-03 3.7282770565003494e-03 4.7737036220099989e-03
339 8.4819710247309409e-03 2.0653565328805049e-03 1.3630329937960790e-03
342 3.7034706210555724e-03 5.6601533323547585e-03 -1.9855618103545823e-03
343 4.1929421054642535e-03 -2.9571494432086396e-03 1.0857354860205530e-02
346 -5.2754917911964089e-03 -2.5282458433229286e-03 -6.6589321515834196e-04
347 1.9485296214926567e-03 4.7316053025790771e-03 -2.4826346475138308e-03
350 -1.0580983013137922e-03 -7.7096050607862749e-03 -2.5880078767836199e-03
357 -4.3471522024862881e-03 1.1085836054353876e-02 -3.0055675710052290e-03
360 3.6484650094236880e-03 1.4861392867909946e-03 -7.0597848962275847e-03
218 -6.4068542536826578e-05 -1.6121770251236558e-03 1.7800982158011147e-03
222 1.1239924188500613e-02 -1.7567429885143866e-03 1.2649245251084909e-03
225 3.6272509953009001e-03 1.4219029801438084e-03 5.1684663459031248e-03
229 -5.9905068920501868e-03 6.7654894673853487e-03 -1.0691651710923417e-02
232 -1.5330682349166535e-03 5.1529502240621593e-03 7.2162869607324167e-04
233 7.1452358110410323e-05 8.2904259448704793e-03 -5.0912986251397318e-03
236 -1.1461775756562303e-03 -2.4505639116044024e-03 5.0399805935446746e-06
237 3.2622298687026039e-03 2.0699076619120917e-03 -1.0815576114391670e-03
240 -1.2154554693496720e-03 9.9897857061601886e-03 -5.8844173258387582e-03
241 1.1106245868859304e-03 4.3766710735014154e-03 3.6717778996334409e-03
244 4.1940940959087174e-03 3.4143096242332813e-03 -3.8367042982518908e-04
245 3.9992756313273108e-03 8.8167443102429629e-03 7.8866621305308353e-03
248 6.6712778185912276e-03 4.3987169824665027e-03 -8.6777092189201481e-03
267 -3.9996552763603213e-03 -6.7973690433283558e-03 -9.6743905949786275e-04
271 -3.4523344274505034e-03 -1.4911783655725957e-04 9.7895747089531311e-04
274 -1.9273525764566170e-03 1.9238136092093619e-03 1.8901261268306779e-03
275 -2.2310610014541214e-03 3.0213575307866795e-03 -2.7548883611248887e-03
361 2.5780311778108647e-03 5.1388729363841283e-03 3.6885092279233876e-03
362 -5.2277672089854474e-03 -3.3566040855734568e-03 8.6337754387868257e-04
363 -1.5091171227527727e-03 3.4697245075320121e-03 -7.9589657563540004e-03
364 -5.9366534583167449e-03 7.9790880399568786e-03 -2.0432041923417318e-03
366 -3.9970441051208156e-03 4.0601793785924357e-03 7.5445896898429911e-04
367 3.5655151648301519e-04 -1.1059491757847365e-03 -1.6188598726299068e-03
369 -5.1828178440850980e-03 7.7892051481774248e-03 2.8937653930121601e-03
370 -1.2923218949273396e-04 2.3443508121038076e-03 3.9714230213171763e-03
371 5.6824911341413556e-03 1.4520590776677831e-03 6.5256008612108781e-03
373 7.6340809273436911e-03 -1.2979469034860752e-02 -5.2902303941329051e-03
375 -5.7495452335297919e-03 4.2647769811182641e-04 -3.6171060053632464e-03
376 8.5541979292070476e-03 4.9022371388066982e-03 1.6850418187569793e-03
377 9.7547688903572771e-05 4.6745810835905075e-03 -2.7227463114247066e-03
378 -1.8316341948260558e-03 -6.2155633788264048e-04 -5.7551964103080390e-03
379 -3.7720856346462974e-04 1.1742160436793051e-02 5.8304230752091084e-03
380 3.0104140494249601e-03 3.1965428323225324e-04 -2.0931932811278078e-03
381 2.9814402460562467e-03 -5.8366781145299477e-03 -5.1370000332599775e-04
382 3.3006022530672743e-03 8.2951376252947545e-03 -1.3104581531686150e-03
383 3.9371488672740529e-04 -5.0791610346254470e-03 -2.5083910814336064e-03
384 -9.4774001111312147e-04 6.2689430640771428e-03 -3.0138968405194625e-03
385 3.8246585116589707e-03 3.5315574421469218e-03 8.5667936719224392e-03
386 -1.2211215942259874e-02 9.7418620803744061e-04 -2.5439633126869530e-04
387 -7.3227077944581082e-03 2.9156231117697822e-03 -2.9845484798401113e-03
388 -1.8255996802218179e-03 3.9770364655448785e-03 -4.4267379186622817e-03
389 -1.5988227035982595e-03 -7.8415832682673372e-04 -5.6454205420036980e-03
390 -7.8105768894977097e-04 -6.2680305473147933e-04 3.7827077461366930e-03
391 1.9487544747880125e-03 -6.0190695395942869e-03 -8.0021437214168496e-03
392 -1.9122832620932821e-03 6.7290253520166966e-03 6.6223984606754403e-03
394 3.6781293335388602e-03 -1.0149224006579570e-03 7.2162144759793196e-03
411 7.1732397920238411e-03 3.8420352138889024e-03 1.4927864320730317e-03
412 -3.3634982182386454e-03 2.1284647564382688e-03 6.1268037863305745e-03
415 -2.0993071922955184e-03 -3.6664709150247402e-03 -2.7801479012033591e-03
417 -7.6586938436145572e-04 -1.7487520120257349e-03 -1.3354963672591743e-03
418 1.2423522622021701e-03 1.1912740420930920e-03 6.6708114287065421e-03
419 5.7724533844042336e-03 -1.0659740486955675e-03 -2.7131654409147704e-03
420 -3.1515821797724023e-03 -9.4125791024509767e-05 8.1128550614555268e-03
421 4.6376130873363210e-03 6.6480334753528164e-04 2.1745826196817790e-03
505 7.9410589752015662e-03 3.7326608748049033e-04 3.1196734837795935e-03
522 -2.7473144702561728e-03 -3.3134358594137732e-03 -2.0722626294280618e-03
527 -1.6223828179371723e-03 5.6243850752517770e-03 4.8277652528637832e-03
530 -3.9630799411954163e-03 6.1290642201316742e-03 -6.6507195622549512e-03
561 1.0695217668506942e-03 -4.6215230417330135e-03 -2.8990608178864666e-03
409 8.3046201914036902e-03 2.6575732363344840e-03 -8.7331769845142525e-04
219 3.6351482867417110e-03 -3.1591271241822112e-03 -5.6986458960970503e-03
279 5.7718141177851862e-03 -2.0600100321730500e-03 -5.8768004584063525e-03
393 6.1599347235838887e-03 -3.2984072725890275e-03 -1.2046404243108999e-04
423 2.4044352131298960e-03 -4.2409711402431388e-03 -1.8288169774649469e-03
457 4.6479715955172923e-04 -9.9692284452996497e-03 -8.2234213091841122e-03
519 7.4695289406337614e-03 -2.7095944679569649e-03 -1.2238532687784008e-03
564 1.3069687881905731e-03 -2.2604013986590476e-03 -6.1162891352209339e-03
251 2.3184663955697479e-03 -7.1160719358039494e-04 -3.9449000984195949e-04
278 5.7388061239935419e-03 -1.3354220406960669e-03 -2.3854813257638986e-03
282 7.1544464415010216e-04 -9.5421144508307989e-03 -1.9915304751919444e-03
283 3.7282900237531457e-03 6.7395983353091835e-04 1.1489722019505435e-02
286 -1.6290886260437560e-03 -1.9088511671252143e-03 3.3446851161747053e-03
287 3.4290079587971762e-03 9.2886755870069923e-05 -3.4639598516708076e-03
290 5.0715789419093649e-03 -1.9482297288991364e-04 -1.7635058306786696e-03
293 -1.8903906576770314e-03 -3.2041238455689357e-03 -3.4492100261570981e-03
315 2.9162178793558685e-03 3.3687041063418422e-03 9.9942827894717329e-03
319 8.0797976788046127e-04 5.6670420489361301e-03 8.8038071379265611e-03
322 8.5097510371661821e-04 3.8491197484154483e-03 -2.1913787540417907e-03
323 -7.0838010206981227e-03 2.7152033083144452e-04 1.2012368172915843e-03
326 -6.7946668439221236e-03 -2.7126743668173859e-03 8.0160856038094270e-03
327 3.2850557413415118e-04 -5.8246851978794728e-03 -2.2261847389113292e-03
330 -9.8029933333637653e-04 -3.8616055788610526e-03 -7.7129651138647592e-03
331 -9.9662312482319704e-03 1.1483980388578470e-03 -2.0615208256553759e-03
353 5.7481726013039660e-03 -4.2671618748160159e-03 5.4431486546383696e-03
395 -4.3638712314748884e-04 5.8303932405621697e-03 -1.1307749281354925e-03
396 3.2901793671908462e-03 -2.5444345962400876e-03 -4.8877761651076801e-03
422 9.9000123351150222e-03 -7.5724178774632103e-03 1.0476450582082505e-03
424 -4.8269902473111506e-04 -1.6646588201626375e-03 -3.5316703265141336e-03
425 3.4298959982194399e-03 -4.5055046375258503e-03 2.0906463345741208e-03
426 -3.5542900499013603e-03 -7.3624037495373558e-03 5.6819574298308129e-03
427 -8.1340009295636870e-03 -3.9832765215636308e-03 -2.6213482029950113e-03
428 1.0920124652317243e-03 1.3031500055987182e-03 -6.7557240910168384e-03
429 6.3565102606779288e-04 2.2923496582577334e-03 -8.5555904327422137e-03
430 -1.4491532527046798e-03 4.6142204051043776e-03 -6.7418659819023655e-03
431 -2.5156886322577681e-03 -5.4617462280920619e-04 3.8066086935368663e-03
432 8.4572973376483597e-03 7.8840625406886215e-04 -4.8141045132373293e-04
433 2.0981494704800656e-03 -9.5227303329711616e-04 -6.6494226846694022e-03
434 -1.2128197130300000e-03 -2.9122273824908115e-03 -2.7089402201722402e-04
436 -4.3579010539461661e-03 1.0797569918455027e-02 -3.1912185462373301e-04
437 4.7327255907008365e-03 -5.9843226662892601e-03 -9.1199129217834664e-03
459 1.1191578647400885e-02 -4.2558403993114653e-03 -1.7351356033041276e-03
463 -2.2930636984816112e-03 6.1175082430216113e-03 -8.9643923749402094e-04
465 5.8597314474118775e-03 -3.1179277975565884e-03 -4.1883790394683424e-04
466 -4.8213644710024305e-03 -1.2548474387013445e-03 2.9972655948027851e-04
467 -7.2026929488323312e-04 -8.4295451200748304e-03 1.0258548349040394e-03
468 5.0985646516819502e-04 -2.7763801561073416e-03 2.9521242714803837e-03
469 2.0266140332170050e-03 4.6115771813219223e-03 -9.5368214096664943e-03
470 -2.7246215555079278e-03 -6.6214739635777056e-03 4.9226056311149728e-03
471 -1.4633463891551280e-03 2.9109613638273945e-03 2.2873574667716498e-03
472 2.1081621317943547e-03 -7.8926164412984057e-03 5.3709259850601735e-03
473 -2.9254916327834729e-03 3.0280806090211669e-04 7.2464901901264579e-04
474 -1.5777850316123984e-03 -7.0682896549884033e-04 -1.9574498182133365e-03
475 9.9386078082415777e-04 -3.2571173888415504e-03 3.2624671252545218e-03
476 1.7785108781174046e-03 -1.4942675268268717e-03 3.1077253460167630e-03
497 -1.2593708626209885e-02 3.4314363095248063e-03 7.5962089026156594e-03
569 -1.6032525243257554e-03 2.4750711627770580e-03 3.3727442168897864e-04
572 -9.3216632880757325e-03 -7.3129562194121768e-04 -2.2863144383042386e-03
577 1.8047350114334156e-03 1.8775136862519612e-03 -6.7889922969929682e-03
579 8.3772984580300343e-04 -1.1262876186675310e-03 2.1138393558464688e-03
609 -2.2962542180688310e-03 -9.3448691005093185e-04 2.2966916491956682e-03
612 9.9451257638941692e-03 -7.4579885483840719e-04 6.8883521743097441e-03
617 -8.3710385341688523e-03 -8.2658230258219148e-04 7.1408038227013229e-04
368 9.9329501568289538e-03 -3.7103142683172193e-03 5.5791378462762744e-03
413 1.1398252791105720e-03 3.5639546483320849e-03 -2.5342191330220104e-03
509 -8.2485939527114660e-04 5.2055590265574882e-03 1.6748814996283415e-03
511 2.5199425204879516e-03 -5.7152926845640091e-03 7.4212211216409865e-04
535 7.3372594687865795e-03 -7.3492629625779900e-04 1.1100202057722607e-03
556 -1.2840456093589900e-02 -3.2773311653916657e-03 -7.2615920096609742e-03
228 -2.6436852073774244e-04 -7.1635226900930672e-03 3.8224677154394212e-03
258 1.0509671042160574e-02 3.2056022134628890e-03 -5.0799335872604885e-03
259 8.0102576173349798e-03 6.8319071916328445e-04 5.5092529221612381e-03
262 9.1795653381224294e-04 -5.0728415755459284e-03 1.0841187832626637e-03
263 -3.1129979743478018e-03 -5.6409238912029560e-03 -7.1580802827648964e-03
266 -5.2037537841014662e-03 -7.1912167692894944e-03 6.3069081611723272e-03
270 3.4068792076061287e-03 -7.7760341019482305e-03 -1.0337872622685861e-02
295 -2.0438407194185225e-03 1.6132240046451494e-03 -5.7183407433631130e-03
296 6.1918652317586209e-04 1.0254886984952126e-02 4.1119159582487996e-03
298 -3.9986432890666722e-03 -9.4320018765641153e-03 -3.2745178013967873e-03
299 5.5554534276690288e-03 4.6160807487678019e-03 7.2132151748081647e-03
302 -6.9556642860517711e-03 6.7909453209306142e-03 -4.0768713738993170e-03
303 -7.3440487913011424e-03 -1.3072581498663487e-03 -1.6859028747263818e-03
306 6.8711968040469480e-05 -4.0379002260520830e-03 1.8068014661653340e-03
307 -1.5473828550348107e-03 -8.8653541487697417e-04 7.8379482567646711e-03
333 -1.1172702672998048e-02 -2.5631026219602297e-04 -1.8539330244325210e-03
372 -5.3633217625610116e-03 6.6797515406601950e-04 2.9883719993604122e-03
374 -1.1523152616853616e-03 1.7653921028444397e-03 3.9595957022497643e-04
398 5.3878694872469624e-03 -3.2340463051290201e-03 -3.3172649424286476e-03
399 -6.1920688436182441e-03 3.7144282801613378e-03 -5.9780926431862540e-04
400 -2.0734851371174666e-03 -6.9389315608206405e-03 2.0919307753398124e-03
402 -2.1107316214213183e-03 -3.0659149271267333e-03 4.5730225286867527e-03
403 4.8760726424357534e-03 -2.1217035477649492e-03 -7.5549270542868861e-03
404 -3.7840554768072661e-03 -2.2629658476022497e-03 -5.9934019670524726e-03
405 4.0406404750015033e-03 -1.9774372212789911e-03 2.6764363606924502e-03
406 -4.1454438477540106e-03 -5.2347113359487172e-03 1.0256416021416373e-02
407 -9.7816947452028622e-04 6.7381219992634972e-03 -1.0123193003532089e-03
408 3.3295702036055951e-03 3.0554602910587594e-03 -7.7843972239444838e-03
410 -1.6029247340870474e-03 -3.9177149391247199e-03 4.5715351193237807e-03
414 -4.9636066591928468e-03 -8.5476592807018522e-04 -2.3628333172791816e-03
416 -1.8813402753225430e-03 3.6646036139584772e-03 6.6373570403798349e-03
439 5.1605040727746333e-03 2.7958877360625104e-03 -1.4340040376669058e-03
440 7.7400923778983702e-03 5.2827830239376089e-03 -2.9637842615612420e-03
441 2.3901090011109582e-03 3.3982366431957230e-03 1.5729729793613019e-03
442 7.6244769272774135e-03 3.5927617869487209e-03 3.9826773682360571e-04
443 -4.0098719653825325e-03 -4.4499555488535410e-03 2.6938238845749161e-03
444 -4.3249234329154253e-03 -2.9500907391641789e-03 -3.3949847442783991e-03
445 9.5723848421790418e-04 3.4690597831200367e-03 -3.7757480331847271e-04
446 -7.2563905421183547e-04 -1.8130713352051697e-03 -5.0659289946685107e-03
447 1.8728052832676803e-03 -7.7619683921171852e-03 2.0266927937687943e-04
448 -2.3967527057991295e-03 -3.0613471525406231e-05 -6.5704077811683760e-03
449 3.2883165132570707e-05 -5.3930604814445187e-03 5.2110207146342418e-03
450 2.3014353270570894e-03 4.1813236049675976e-04 -3.0965831931986801e-03
451 -3.6177056000390602e-03 4.1807972138196261e-03 -5.9472324798197267e-03
453 -2.2848732340925134e-03 4.5904510759624522e-03 -7.3328167888698859e-03
477 -1.0334858803308330e-03 -1.3872644327187822e-02 -8.8438758195712056e-04
541 -6.0241679505841387e-03 1.7314766739218680e-03 -4.3606629744334120e-03
545 6.3579371897758878e-03 7.0509257206168964e-03 -4.9068341200148046e-04
548 2.6899566260212346e-04 2.5955284338623414e-04 2.0902003791116999e-03
553 1.3599223634798716e-03 7.2835313274990463e-03 -1.6564306583185429e-03
585 3.8428979023543376e-03 2.7244416842873084e-03 -1.8017354047032469e-03
588 2.5533550296615368e-04 -4.3497489122263913e-03 -1.0037216711846228e-02
593 2.9710088186796609e-04 -5.0606906235965542e-03 7.2445736878643148e-04
623 2.1717414217297512e-05 2.9758440456531766e-03 -3.5430811788180537e-03
365 -6.5041255598492927e-04 -1.9891004256379738e-03 -4.4890380788059955e-03
515 2.8551263611652530e-03 -6.2029229533106976e-04 6.0138526746362022e-04
537 2.1568604856717186e-03 -1.8952997863348614e-03 1.9628386529527732e-03
601 -7.7551314717023050e-03 -6.6411983749913332e-03 2.4296671733323809e-03
435 -2.5282410285899690e-03 8.9344592158677079e-03 -1.0872149946274896e-02
438 -2.2850194384152857e-05 -3.4312601086741576e-03 2.3778073990577742e-03
461 5.6165298077551851e-03 -5.9710196536766676e-03 1.0892623430582072e-03
464 -2.7977199290018682e-03 -1.1371188678838882e-02 -8.3289082072086438e-03
254 -1.5467806599390706e-03 6.1722712135783343e-04 -3.7967217920483283e-03
255 7.3993206537441994e-03 -9.5676108874959715e-03 -2.6303949336855116e-03
310 1.0133024040939798e-02 1.3573223281345996e-03 -4.2407833436408308e-03
311 -1.8206263557929649e-03 4.5756594454671087e-03 -1.0066425908884586e-02
397 -2.3486161536538236e-03 2.3540370588149744e-03 9.7536250146630400e-03
401 -5.1307744002394261e-03 -4.7743270561020571e-03 2.6789072970580790e-03
454 3.1721071785362669e-03 -7.7913581748149385e-03 -6.8193428857784991e-03
455 -4.1054280229454506e-03 -5.9452218076699384e-03 7.9397579645323103e-03
314 3.8125521038240577e-04 1.8483159100046716e-03 -2.8552159959466471e-03
318 -1.5221593989225544e-03 -3.9659826598683620e-03 -2.9307479944007840e-03
334 7.9527882661341066e-03 -4.9403482872793130e-04 1.5876692389427741e-03
336 2.1437363959242719e-03 -5.3915467742548153e-03 -2.9213234136991092e-03
337 -8.5768869024347629e-03 -2.7189969316173792e-03 6.4125361966409569e-03
340 2.5091968009992712e-03 1.1225266949287698e-02 -3.6250832090559764e-03
341 -3.6531599862689871e-03 -1.7477517050402357e-03 -4.5125247197939228e-03
344 -7.1427113873978804e-04 1.8285604513675121e-03 4.1204636131551399e-03
345 -2.2184342076908082e-03 -1.9418181427197465e-03 2.9895158646076753e-03
348 -4.8520961141676616e-03 -1.9157411196965267e-03 1.0754232380778305e-03
349 8.7234723260142394e-03 -2.0525043363864327e-03 3.8433546943347783e-03
352 -4.4502299314036486e-03 2.2303701676503517e-03 2.3039119308926824e-03
355 2.1411592859228857e-03 6.0829153797178400e-03 -2.9283999136897857e-03
356 -3.2831277133910063e-03 1.9275161425035066e-03 -5.2988995604885845e-03
358 3.0791042619534702e-03 5.6406421168602519e-03 -1.1881683563224853e-03
359 -1.9948460851098868e-03 -4.0333886310231519e-03 4.5252267051940961e-03
452 7.4492742059275507e-03 2.6717349485080710e-03 -2.8282963273275033e-03
456 1.3515476578397220e-03 9.2166206199883072e-04 5.2090339659912575e-03
458 8.9540889709434270e-03 -9.6280336609014788e-03 1.2619047141233542e-04
460 1.1154022753872778e-03 -1.7446105444721016e-04 1.3778397437120655e-03
462 -7.1886765676617429e-03 -3.7279677854551978e-03 2.9096357621505383e-03
478 1.1078581492107191e-02 -1.7496869486377416e-03 9.7943147481309510e-04
479 2.8252410969765480e-04 5.3087444612975399e-03 -2.4852344555734832e-03
480 8.2274746973358935e-04 -6.4061274612779179e-03 4.6169309684727048e-03
481 4.5653628301605166e-03 -5.1379228369399625e-04 9.4695680407958123e-03
482 2.4648288035030333e-03 5.3238200258749714e-03 1.1536133681404029e-03
483 -2.4667717210235211e-05 5.8670786474313919e-03 -7.7437241097874452e-03
484 -5.0019502746684336e-03 2.2478452751767100e-03 -4.6529931369938861e-03
485 -3.9835925477319225e-03 -1.0647869225644551e-02 -5.9727711543104559e-03
486 -7.8314881572123872e-04 3.5645109421110852e-03 2.7630990150414622e-03
487 1.1540030982973939e-03 -3.6493981681176954e-03 -1.1463393173361317e-03
488 -4.0106375571291345e-03 -5.8476224811628060e-03 5.2838388922641323e-03
489 -2.5082200245434712e-03 7.9762516062567689e-03 -3.9286553691655650e-03
490 1.4500294901928763e-03 5.7668278440231686e-03 2.0756184045729560e-04
491 -1.1560498974364317e-03 -1.0737707246537399e-02 -1.7392414955485936e-03
492 -5.1005141451354380e-04 -1.3872439690003520e-03 -5.6092982884020162e-03
493 2.1555912548933257e-03 -1.3231912784427632e-03 2.0817083618291728e-03
494 2.2719337352250213e-03 -5.3675245777978072e-03 2.7480522127656371e-03
495 5.3393426293019131e-03 3.2021986573276673e-04 1.2492669755255171e-03
496 -4.6857614484335204e-03 2.7597156486966375e-03 7.1366685114494033e-03
498 -2.8170228874294916e-03 -1.6749227336599313e-03 8.1499266829386709e-03
499 -7.9751070656845675e-03 7.3473894710066210e-03 6.7605705159258358e-06
500 3.9289144355490451e-03 -3.1542663603185898e-03 9.2117487103953529e-04
501 -3.2970709118783972e-04 8.1399842455506868e-03 -4.4448991996319312e-03
502 -9.6581511121744401e-03 1.9530544028291648e-03 -1.0919811101180240e-03
503 -3.1459171302454171e-03 -3.5408986933992909e-03 4.7987513319656967e-03
504 1.0272302599620520e-03 2.3934200118043989e-03 3.9182295941343525e-03
596 -3.1088432398204634e-03 -6.0032947864210864e-03 -4.4840667675338862e-04
604 1.1042998709146911e-02 3.6176519421742804e-03 -4.8355388947569087e-03
626 -2.6612395293663066e-03 8.6392066532244884e-03 -3.4438095254484002e-04
631 6.5249123243542968e-03 -3.9902955111527109e-03 7.7880712324749435e-03
634 -2.6655842679733891e-03 -6.5159300290257571e-03 4.5342986225299252e-03
639 3.9815621337873277e-03 -8.2378821331670869e-03 1.4436703368321225e-03
645 -3.4929362839374897e-03 2.3367071503467250e-03 -6.3988996951247976e-03
508 -3.1755076207942746e-03 1.7973390717358013e-03 7.3294092896632008e-03
510 1.5759549668398164e-03 -7.7419237658276959e-03 3.8917595376356490e-03
512 -2.2312026331699244e-04 1.7563698714539169e-03 -3.9695326560560589e-04
513 4.2501640371210168e-04 -1.4055686701392016e-03 -6.6921267625227952e-04
514 -2.3679088633013342e-03 -1.0390812394625410e-05 -5.9960531071705748e-03
520 1.3005096920637779e-03 2.5379905277079693e-03 -2.5029630521937424e-03
521 1.5060143041256385e-03 7.4011361472468206e-03 1.3425328234810135e-02
523 3.7529510231493501e-03 5.3312225494957901e-03 1.4039475257446919e-03
524 6.1636134994609848e-03 1.2942801619395737e-04 3.8611570116586086e-03
525 -5.3016238738713044e-03 -1.4719678396070180e-03 3.3401091393448061e-03
526 -1.5815320240587986e-03 -1.1212734992077346e-04 1.1120962723010965e-02
528 1.0071712416627309e-02 -1.0493807918840579e-02 -1.4508499335555982e-03
529 6.0449595025478305e-03 3.3849289680548469e-03 2.0832443711708243e-03
531 -4.5796203810975784e-03 3.2166724103803086e-03 6.8572092786733593e-04
532 -8.1496603138485058e-03 3.8008844987588281e-03 -1.4036114345841044e-02
533 7.6074906428153866e-03 5.3321414064065450e-03 2.0278505464546461e-05
534 8.0370694553425336e-03 8.0455470138153570e-03 1.1345201128338461e-04
536 -5.2313539117357600e-03 1.3614827414598065e-02 -3.2043850937043747e-03
538 1.3715974290710246e-03 -3.8355492940222494e-03 2.1334711538127486e-03
555 1.1373201065249128e-02 -4.1926241004170530e-03 4.2636013546225576e-03
557 5.3556576148598208e-03 2.8860177658664864e-03 -1.2163447416617153e-02
559 6.6351800199174963e-04 3.0625362250474471e-03 -1.5148713948959992e-03
562 -7.2810398853984330e-03 2.8441307140198860e-03 -5.0518356805659441e-03
563 2.6483457758734287e-03 -6.4862491156215648e-03 5.0247246297891552e-03
565 7.6254379789203605e-04 1.3335489377322076e-03 -4.0074154254803960e-03
567 2.6405041614371572e-03 3.4012873399567258e-03 -2.0037116330178293e-04
649 -2.0010618679182604e-03 7.8575175596526936e-03 9.7140149581255390e-05
653 -1.4440443728229238e-02 -3.9924121959036074e-03 2.6762240861737891e-03
654 1.0328067545825974e-03 -9.4755641090092779e-03 4.8386705898770706e-03
655 -3.3236758118553593e-03 5.3961976090580671e-03 3.8889761169854905e-03
656 -6.0959307981659795e-04 -8.4029107695089249e-03 -8.8492071608830050e-04
664 8.1689302555005318e-03 1.9026071042424565e-04 7.0497037671329093e-03
665 2.0103156007888474e-03 -2.4196567210391291e-03 -4.0051581034502388e-03
687 0.0000000000000000e+00 0.0000000000000000e+00 0.0000000000000000e+00
690 0.0000000000000000e+00 0.0000000000000000e+00 0.0000000000000000e+00
691 0.0000000000000000e+00 0.0000000000000000e+00 0.0000000000000000e+00
692 0.0000000000000000e+00 0.0000000000000000e+00 0.0000000000000000e+00
694 0.0000000000000000e+00 0.0000000000000000e+00 0.0000000000000000e+00
700 0.0000000000000000e+00 0.0000000000000000e+00 0.0000000000000000e+00
701 0.0000000000000000e+00 0.0000000000000000e+00 0.0000000000000000e+00
702 0.0000000000000000e+00 0.0000000000000000e+00 0.0000000000000000e+00
710 0.0000000000000000e+00 0.0000000000000000e+00 0.0000000000000000e+00
566 2.7180018448390466e-03 1.3023391727954820e-02 -6.2243090479001673e-03
666 1.5372717189044008e-03 3.3264959149514606e-03 -6.4953629412856515e-06
518 -6.2430524226639800e-03 -2.2431189921567462e-03 -9.2362852104585554e-03
560 1.3625904442253023e-03 2.3223976075892236e-03 -2.7303969752022678e-03
698 0.0000000000000000e+00 0.0000000000000000e+00 0.0000000000000000e+00
506 -2.2104264717906388e-03 -3.5702444265716922e-03 1.0567136062536854e-03
507 1.5587850216291720e-03 -5.9495738008438909e-03 2.9424794859645156e-03
517 -7.7686781844517510e-03 -7.0719395372058089e-05 -9.3540403947044485e-04
539 -3.4812282439027008e-03 -6.8838791313740504e-03 3.5490890434061693e-03
540 -6.3602723597099365e-03 -3.3672505409194729e-03 -5.4896222118992017e-04
568 -1.0245535233347476e-03 -9.4228764524097262e-03 3.5606937025099983e-03
570 3.1918113596735558e-03 1.6284282989385160e-03 -1.2437237151919989e-02
571 5.6352845125240449e-03 -5.6566208548526134e-03 1.8618509246304637e-03
573 -4.7071076323399836e-03 -2.7996876354794919e-03 -4.6090082125455701e-03
574 1.6062026571938388e-03 1.0817594448450851e-03 3.6294190549773759e-04
575 2.7276108266351901e-03 -3.4426552875523033e-03 2.0968958351278376e-03
576 -3.5928311151686774e-03 6.4671428347685004e-03 -3.0806414276125364e-03
578 9.1870902905594708e-03 -6.9355793319898868e-03 2.9143877085564709e-03
580 8.0240200115444039e-04 4.8179063525343223e-03 -4.9525976461144280e-03
581 -7.8256873811301444e-03 -2.7999615932500876e-03 3.2524965830843713e-03
582 -2.9001540523519130e-03 -7.1205688878347648e-03 5.0600552656595752e-04
603 -1.4934117606470907e-03 -3.0235274338168069e-03 6.6708714099441733e-03
605 5.4641757781110115e-04 -6.8741029601606957e-03 5.9190446476307132e-04
607 1.1723637678083158e-04 -1.2039001959763530e-02 -4.7191917067068200e-03
608 4.8803000609462218e-03 -5.0785530806749654e-03 4.2652077609063501e-03
610 7.5319069911700893e-03 -6.9322596183335179e-04 7.0143484773828339e-03
611 9.3079510004756578e-03 9.2158412085748317e-03 -6.3061592877998417e-03
613 -2.8565364669415399e-03 -2.6948878893303125e-03 7.8962425029850195e-03
614 -3.5525072553314733e-04 -1.3628202614996349e-03 -2.4988479423334702e-03
615 3.4805470105392189e-03 -2.3022123495788352e-03 -9.3610245097628334e-03
616 -1.0113603782879703e-02 -1.7527965970857457e-03 -4.1758237315858281e-04
618 -1.0652548086735388e-03 -5.1368772864833481e-03 5.0055403528753211e-03
619 1.2675104087665253e-03 1.6114981862219188e-03 -4.8829289327208094e-03
620 1.2878893167376680e-03 -3.0161804394167259e-03 -1.6666095903534147e-03
641 -4.3192391987694895e-03 1.2180455087140375e-03 -7.8375298229420981e-04
667 2.2447005821653650e-03 -3.5077209540924337e-03 1.6118336067772816e-03
676 4.8559956874814111e-04 -4.0418189849208752e-04 -9.1129361120730057e-03
677 7.7412741475336921e-03 -3.7287776995811998e-03 6.4286873375800288e-03
678 -4.2231385151808003e-03 -4.5104805754196267e-03 7.5302223158766370e-03
685 0.0000000000000000e+00 0.0000000000000000e+00 0.0000000000000000e+00
686 0.0000000000000000e+00 0.0000000000000000e+00 0.0000000000000000e+00
688 0.0000000000000000e+00 0.0000000000000000e+00 0.0000000000000000e+00
689 0.0000000000000000e+00 0.0000000000000000e+00 0.0000000000000000e+00
703 0.0000000000000000e+00 0.0000000000000000e+00 0.0000000000000000e+00
704 0.0000000000000000e+00 0.0000000000000000e+00 0.0000000000000000e+00
705 0.0000000000000000e+00 0.0000000000000000e+00 0.0000000000000000e+00
712 0.0000000000000000e+00 0.0000000000000000e+00 0.0000000000000000e+00
713 0.0000000000000000e+00 0.0000000000000000e+00 0.0000000000000000e+00
714 0.0000000000000000e+00 0.0000000000000000e+00 0.0000000000000000e+00
642 -4.4950815438385113e-03 1.0673878635432536e-02 -1.9674117936963951e-03
711 0.0000000000000000e+00 0.0000000000000000e+00 0.0000000000000000e+00
719 0.0000000000000000e+00 0.0000000000000000e+00 0.0000000000000000e+00
650 9.7833554898973732e-03 2.4304566115044032e-03 -5.5103531151286028e-04
651 3.5933438036757017e-03 4.3205633518754779e-03 4.3123929993358545e-03
652 -3.9832842294428529e-03 2.2944501492479230e-03 9.8583488679001852e-03
657 3.2169738093311083e-03 -8.2527631840937483e-04 6.2594644332414585e-03
658 -1.1665952917557299e-03 3.7830540393038142e-03 -7.5457470164409122e-03
663 -1.2772452564564704e-03 3.2794173931725607e-03 -2.9322066398821854e-04
693 0.0000000000000000e+00 0.0000000000000000e+00 0.0000000000000000e+00
699 0.0000000000000000e+00 0.0000000000000000e+00 0.0000000000000000e+00
516 9.5953560115894041e-03 -2.4736628482238817e-04 2.5388846031545475e-03
543 -7.3369715650263775e-03 1.1827313836582172e-03 3.9779243481063665e-03
544 -2.6401776456575700e-03 -5.2762241526389539e-03 2.2011392852719835e-03
546 -8.1086750085078560e-04 -3.1565236918973121e-03 -1.5575077642914895e-03
547 3.4908847756945252e-03 4.1868797176738224e-03 -5.9166555766980104e-03
549 5.1260942545997184e-03 1.2085255341185264e-02 -2.9487522759447311e-04
550 -2.0861589793665591e-03 -4.2678224012294589e-04 2.5119623860697274e-03
551 3.1176481404785608e-03 -5.8337875598886311e-03 -9.6637568974851634e-04
552 3.9178132678026915e-03 8.7038368207186401e-03 -2.6612774303602362e-03
554 -8.9560395641499098e-03 2.6840457207011272e-03 -1.5485961915028333e-03
558 6.8644610834167361e-05 1.2948819244030586e-03 2.5837983676080902e-03
583 7.8548423379122215e-03 6.2580220303260891e-03 -1.3260978610361674e-02
584 -7.5914237449287046e-03 -1.0420552070949803e-03 6.4064816780824783e-04
586 5.4126255360484469e-03 -6.8178966675831185e-03 -8.7237436773233302e-03
587 1.3132690172233362e-03 2.7339139543782510e-03 -9.4389089100127485e-03
589 4.0556702389731962e-03 -1.1475125552319616e-03 1.3787612159396707e-03
590 6.4538036301480866e-03 -9.6120286478908309e-04 5.5126425404505974e-03
591 5.8315296772962610e-03 2.3814968203345775e-03 -3.3137789528395502e-03
592 -1.6285519433928118e-03 -1.3379255636856698e-03 7.2387120062224024e-03
594 3.8507005169151672e-03 -1.8838470688713319e-03 -4.3272351004791359e-03
595 -8.1050470995464880e-03 -3.5239495359275846e-03 -1.1064158463047596e-02
597 -4.4845442075595911e-03 8.8209136060112339e-03 2.9310986450526706e-03
598 -2.3223798523842151e-03 -8.9222222331222952e-04 -1.7606046900221490e-03
599 1.5717727822251912e-03 -4.3216193195132905e-03 -7.0934526773757146e-03
621 -1.7890955946524489e-03 -7.8960124312271555e-03 6.9189328052910205e-03
661 -4.8304060270556477e-04 -6.2966701925998476e-04 5.5133394756474172e-03
662 5.7809506787177764e-03 -3.0225576290667301e-03 -3.3008529750145968e-03
670 -3.1871714751285896e-03 9.0983239316881175e-03 2.3379793492483747e-04
671 4.1290827778892947e-03 -1.3829515190640751e-05 -5.6836998851284657e-03
672 -4.8842633539518060e-03 -4.9900242279381527e-03 -7.5757770839121044e-03
697 0.0000000000000000e+00 0.0000000000000000e+00 0.0000000000000000e+00
706 0.0000000000000000e+00 0.0000000000000000e+00 0.0000000000000000e+00
707 0.0000000000000000e+00 0.0000000000000000e+00 0.0000000000000000e+00
708 0.0000000000000000e+00 0.0000000000000000e+00 0.0000000000000000e+00
709 0.0000000000000000e+00 0.0000000000000000e+00 0.0000000000000000e+00
715 0.0000000000000000e+00 0.0000000000000000e+00 0.0000000000000000e+00
622 -3.5860665863424266e-04 -4.1159282409224786e-03 -4.9653548836955611e-03
674 -6.5270877980509560e-03 3.4949941827733368e-03 5.4899869500436051e-03
668 -3.5637491382736874e-03 3.3400822616708962e-03 -3.1313728735708293e-03
669 1.8014612783219012e-03 4.5746777348218077e-03 8.1586606498419006e-03
542 -2.0675968438281832e-03 8.8590774916866982e-04 1.2397593921484125e-02
659 2.8002289092919619e-04 -8.2896287383466410e-03 4.7513086926918909e-03
660 2.6825470941707992e-03 -2.5911545198917772e-03 -3.0173253712796094e-03
600 -5.6328980003448020e-04 -3.7160425473397088e-03 3.6260816208152974e-03
602 3.2164433988051441e-04 5.8956872837365388e-03 4.1610096438081867e-03
606 6.3498737960283793e-04 4.7786117599801173e-03 3.7402709217508158e-03
624 1.0499070052498578e-02 -8.7952979476363174e-04 6.7847084187185776e-03
625 -5.2597106340056153e-03 1.6848596742066741e-03 5.3232086035908685e-03
627 -6.2867029797711148e-03 9.7070584331918567e-03 4.4404051749415367e-03
628 -6.6863677302392557e-03 2.5477557915436675e-03 -4.2685547229093330e-03
629 1.7518886688124508e-03 -3.7344238023159478e-04 9.7806779592885130e-03
630 5.2420133930746538e-03 -3.4303989577160001e-03 -8.3302600741447536e-03
632 -3.7864426421421499e-03 6.1096559209571277e-03 -1.3584228353215836e-03
633 3.9806884803367525e-04 8.1927661954236987e-03 -1.8440543037674651e-03
635 7.4918200110623947e-03 4.5313554469432558e-04 1.1845110345324876e-03
636 2.5356234055576442e-03 -5.0220315714344889e-03 -8.0791550437971354e-03
637 -2.9225398611397871e-03 -7.1578435496715519e-03 -7.1196969040894708e-03
638 -4.0693390628081744e-03 5.8251810866522275e-03 3.9753137562022365e-03
640 4.9967421739977947e-04 2.9009271522673530e-03 -5.6296932082452213e-03
643 1.8024273179710725e-03 1.4505862406951036e-03 3.6636244778028128e-03
644 5.3638027415594276e-03 1.1649878059718830e-02 -7.4406578694245166e-04
646 -4.3982209732747630e-04 -1.6048463880583925e-03 -1.9067320312797330e-04
647 -1.0770136052978146e-03 1.4510467953203839e-03 1.2335215460568590e-03
648 8.7971681946276258e-03 2.3323559521139466e-03 -1.8727760331683698e-03
673 -2.3600941548962270e-03 -1.5317053628545177e-03 -6.4434457513588036e-04
675 3.3262223363540290e-03 1.4411617784839792e-03 -1.8603320108956338e-04
679 -1.9179056859190799e-03 -5.2959321677431030e-03 6.1600611358932434e-03
680 -9.3565316812813486e-03 1.1414666097659138e-02 -6.9844429971784863e-04
681 2.6231997130441798e-03 9.4415138485647206e-03 1.5020084871917605e-02
682 -4.8661202878801102e-03 -1.8955473211142058e-03 1.7386017371109818e-03
683 -6.9906090601765645e-04 -2.8850133563001921e-03 -4.6420135867938431e-03
684 -2.0204382627630650e-03 8.6618416560913947e-03 6.8810849292229987e-04
695 0.0000000000000000e+00 0.0000000000000000e+00 0.0000000000000000e+00
696 0.0000000000000000e+00 0.0000000000000000e+00 0.0000000000000000e+00
716 0.0000000000000000e+00 0.0000000000000000e+00 0.0000000000000000e+00
717 0.0000000000000000e+00 0.0000000000000000e+00 0.0000000000000000e+00
718 0.0000000000000000e+00 0.0000000000000000e+00 0.0000000000000000e+00
720 0.0000000000000000e+00 0.0000000000000000e+00 0.0000000000000000e+00
