LAMMPS (23 Jun 2022)
KOKKOS mode is enabled (src/KOKKOS/kokkos.cpp:105)
  will use up to 1 GPU(s) per node
WARNING: When using a single thread, the Kokkos Serial backend (i.e. Makefile.kokkos_mpi_only) gives better performance than the OpenMP backend (src/KOKKOS/kokkos.cpp:217)
  using 1 OpenMP thread(s) per MPI task
package kokkos
package kokkos neigh/qeq full neigh half newton on
units		real
include     config.lmp
# DiamondEtchMD generated config
# orientation=110  surface=O
# species=O  energy=0.5eV  angle=0.0deg  T=300.0K

variable    ML equal 96            # atoms per monolayer
variable    end_fluence equal 50   # in ML

variable    energ equal 0.5     # incident energy per atom (eV)
variable    angl equal 0.0       # incident particle angle (deg from normal)
variable    T equal 300.0    # substrate temperature (K)
variable    pot string REAX

variable    use_starting_data_file equal false
variable    starting_data_file string data.truncated

if "${pot} == REAX" then "variable    lat_a file lat_a.txt"
variable    lat_a file lat_a.txt

variable    x equal 4
variable    y equal 6
variable    lat_top equal 5
variable    z equal ${lat_top}+5
variable    z equal 5+5

variable    reconstruct equal false
variable    O_terminate equal true
variable    O_ether_terminate equal false

variable    i_above equal 6.0    # Å above surface to inject particle
variable    impact_time equal 2000.0
variable    thermalization_time equal 500.0

variable    M_C equal 12.011
variable    M_H equal 1.00784
variable    M_O equal 16.0
variable    M_Ar equal 39.948
variable    M_incident equal ${M_O}
variable    M_incident equal 16
variable    incident_type_index equal 3  # O

variable    seed_adjust equal 0
variable    simdepo equal 1
atom_style charge

boundary	p p m

variable    bottom equal -5/8 # edge is in the gap between layers to avoid flop issues
print       'BOTTOM ${bottom}'
BOTTOM -0.625

# Create the entire simulation space "big box" with 3 types of atoms (C, H, O)
# Diamond (110): surface normal along [110]
#   x = [-1 1 0]  spacing 2/sqrt(2)
#   y = [ 0 0 1]  spacing 1
#   z = [ 1 1 0]  spacing 3/sqrt(2)
lattice    diamond ${lat_a} orient z 1 1 0 orient x -1 1 0 orient y 0 0 1 spacing $(2/sqrt(2)) 1 $(3/sqrt(2)) origin 0 0 0
lattice    diamond 3.5653871687699 orient z 1 1 0 orient x -1 1 0 orient y 0 0 1 spacing $(2/sqrt(2)) 1 $(3/sqrt(2)) origin 0 0 0
lattice    diamond 3.5653871687699 orient z 1 1 0 orient x -1 1 0 orient y 0 0 1 spacing 1.4142135623730949234 1 $(3/sqrt(2)) origin 0 0 0
lattice    diamond 3.5653871687699 orient z 1 1 0 orient x -1 1 0 orient y 0 0 1 spacing 1.4142135623730949234 1 2.1213203435596423851 origin 0 0 0
Lattice spacing in x,y,z = 5.0422189 3.5653872 7.5633283
region     bbox block 0 ${x} 0 ${y} ${bottom} ${z} units lattice
region     bbox block 0 4 0 ${y} ${bottom} ${z} units lattice
region     bbox block 0 4 0 6 ${bottom} ${z} units lattice
region     bbox block 0 4 0 6 -0.625 ${z} units lattice
region     bbox block 0 4 0 6 -0.625 10 units lattice
create_box 3 bbox
Created orthogonal box = (0 0 -4.7270802) to (20.168876 21.392323 75.633283)
  1 by 1 by 1 MPI processor grid

# Create diamond cubic lattice in a subregion of bbox
region	        lbox block  -1e-6 ${x} -1e-6 ${y} ${bottom} ${lat_top} units lattice
region	        lbox block  -1e-6 4 -1e-6 ${y} ${bottom} ${lat_top} units lattice
region	        lbox block  -1e-6 4 -1e-6 6 ${bottom} ${lat_top} units lattice
region	        lbox block  -1e-6 4 -1e-6 6 -0.625 ${lat_top} units lattice
region	        lbox block  -1e-6 4 -1e-6 6 -0.625 5 units lattice
variable        sublat equal ${bottom}+1/2 # 2 layers == half a unit cell
variable        sublat equal -0.625+1/2 
region          anchor block INF INF INF INF ${bottom} ${sublat} units lattice # anchor bottom 2 layers
region          anchor block INF INF INF INF -0.625 ${sublat} units lattice 
region          anchor block INF INF INF INF -0.625 -0.125 units lattice 

if "${use_starting_data_file}" then     "read_data       ${starting_data_file} add merge"     "group carbon type 1"     "variable        n_lat_0  equal $(count(carbon)) # n_lat_0 is the starting number of carbon" else     "create_atoms    1 region lbox"     "variable        n_lat_0  equal $(24*v_x*v_y*v_lat_top) # 24 times the number of unit cells for 110"
create_atoms    1 region lbox
Created 3264 atoms
  using lattice units in orthogonal box = (0 0 -4.7270802) to (20.168876 21.392323 75.633283)
  create_atoms CPU = 0.006 seconds
variable        n_lat_0  equal $(24*v_x*v_y*v_lat_top) # 24 times the number of unit cells for 110
variable        n_lat_0  equal 2880 

set group all charge 0.0
Setting atom values ...
  3264 settings made for charge
print 'N_LAT_0 ${n_lat_0}'
N_LAT_0 2880

# Groups
group 	anchor region anchor
288 atoms in group anchor
group	insert empty
0 atoms in group insert
group 	mobile subtract all anchor
2976 atoms in group mobile
group   carbon type 1
3264 atoms in group carbon

# Particle masses
mass        1 ${M_C}
mass        1 12.011
mass        2 ${M_H}
mass        2 1.00784
mass        3 ${M_O}
mass        3 16

# Potential
pair_style reaxff NULL
pair_coeff * * ffield.reax C H O
Reading potential file ffield.reax with DATE: 2011-02-18
WARNING: Changed valency_val to valency_boc for X (src/REAXFF/reaxff_ffield.cpp:296)
fix reax_qeq all qeq/reaxff 1 0.0 6.0 1e-6 reaxff

change_box all x final 0 ${x} y final 0 ${y} z final ${bottom} ${z}
change_box all x final 0 4 y final 0 ${y} z final ${bottom} ${z}
change_box all x final 0 4 y final 0 6 z final ${bottom} ${z}
change_box all x final 0 4 y final 0 6 z final -0.625 ${z}
change_box all x final 0 4 y final 0 6 z final -0.625 10
Changing box ...
  orthogonal box = (0 0 -4.7270802) to (20.168876 21.392323 75.633283)
  orthogonal box = (0 0 -4.7270802) to (20.168876 21.392323 75.633283)
  orthogonal box = (0 0 -4.7270802) to (20.168876 21.392323 75.633283)
delete_atoms overlap $(sqrt(3)/8) all all
delete_atoms overlap 0.21650635094610964915 all all
System init for delete_atoms ...
Neighbor list info ...
  update every 1 steps, delay 10 steps, check yes
  max neighbors/atom: 2000, page size: 100000
  master list distance cutoff = 12
  ghost atom cutoff = 12
  binsize = 12, bins = 2 2 7
  3 neighbor lists, perpetual/occasional/extra = 2 1 0
  (1) command delete_atoms, occasional
      attributes: full, newton on
      pair build: full/bin/atomonly
      stencil: full/bin/3d
      bin: standard
  (2) pair reaxff/kk, perpetual
      attributes: half, newton off, ghost, kokkos_device
      pair build: half/bin/ghost/kk/device
      stencil: full/ghost/bin/3d
      bin: kk/device
  (3) fix qeq/reaxff/kk, perpetual
      attributes: full, newton off, kokkos_device
      pair build: full/bin/kk/device
      stencil: full/bin/3d
      bin: kk/device
WARNING: Fixes cannot yet send exchange data in Kokkos communication, switching to classic exchange/border communication (src/KOKKOS/comm_kokkos.cpp:581)
Deleted 0 atoms, new total = 3264

# no reconstruction for 110

if "${O_terminate} && !${use_starting_data_file}" then "variable term_top equal ${lat_top}+1/8" "variable term_bottom equal ${lat_top}" "region term block 0 ${x} 0 ${y} ${term_bottom} ${term_top} units lattice" "create_atoms 3 region term" "group O type 3" "displace_atoms O move 0.0 0.0 $(1/4) units lattice" "group O delete"
variable term_top equal ${lat_top}+1/8
variable term_top equal 5+1/8
variable term_bottom equal ${lat_top}
variable term_bottom equal 5
region term block 0 ${x} 0 ${y} ${term_bottom} ${term_top} units lattice
region term block 0 4 0 ${y} ${term_bottom} ${term_top} units lattice
region term block 0 4 0 6 ${term_bottom} ${term_top} units lattice
region term block 0 4 0 6 5 ${term_top} units lattice
region term block 0 4 0 6 5 5.125 units lattice
create_atoms 3 region term
Created 96 atoms
  using lattice units in orthogonal box = (0 0 -4.7270802) to (20.168876 21.392323 75.633283)
  create_atoms CPU = 0.001 seconds
group O type 3
96 atoms in group O
displace_atoms O move 0.0 0.0 $(1/4) units lattice
displace_atoms O move 0.0 0.0 0.25 units lattice
Displacing atoms ...
group O delete

minimize 1.0e-5 1.0e-6 1000 10000

CITE-CITE-CITE-CITE-CITE-CITE-CITE-CITE-CITE-CITE-CITE-CITE-CITE

Your simulation uses code contributions which should be cited:

- pair reaxff command:

@Article{Aktulga12,
 author = {H. M. Aktulga, J. C. Fogarty, S. A. Pandit, A. Y. Grama},
 title = {Parallel reactive molecular dynamics: Numerical methods and algorithmic techniques},
 journal = {Parallel Computing},
 year =    2012,
 volume =  38,
 pages =   {245--259}
}

- fix qeq/reaxff command:

@Article{Aktulga12,
 author = {H. M. Aktulga, J. C. Fogarty, S. A. Pandit, A. Y. Grama},
 title = {Parallel reactive molecular dynamics: Numerical methods and algorithmic techniques},
 journal = {Parallel Computing},
 year =    2012,
 volume =  38,
 pages =   {245--259}
}

CITE-CITE-CITE-CITE-CITE-CITE-CITE-CITE-CITE-CITE-CITE-CITE-CITE

WARNING: Using 'neigh_modify every 1 delay 0 check yes' setting during minimization (src/min.cpp:187)
Neighbor list info ...
  update every 1 steps, delay 0 steps, check yes
  max neighbors/atom: 2000, page size: 100000
  master list distance cutoff = 12
  ghost atom cutoff = 12
  binsize = 12, bins = 2 2 7
  2 neighbor lists, perpetual/occasional/extra = 2 0 0
  (1) pair reaxff/kk, perpetual
      attributes: half, newton off, ghost, kokkos_device
      pair build: half/bin/ghost/kk/device
      stencil: full/ghost/bin/3d
      bin: kk/device
  (2) fix qeq/reaxff/kk, perpetual
      attributes: full, newton off, kokkos_device
      pair build: full/bin/kk/device
      stencil: full/bin/3d
      bin: kk/device
Per MPI rank memory allocation (min/avg/max) = 122.9 | 122.9 | 122.9 Mbytes
   Step          Temp          E_pair         E_mol          TotEng         Press          Volume    
         0   0             -594754.5       0             -594754.5       97621.422      34672.21     
         1   0             -594754.5       0             -594754.5       97621.403      34672.21     
Loop time of 0.680943 on 1 procs for 1 steps with 3360 atoms

99.5% CPU use with 1 MPI tasks x 1 OpenMP threads

Minimization stats:
  Stopping criterion = energy tolerance
  Energy initial, next-to-last, final = 
     -594754.499035704  -594754.499035704  -594754.502788542
  Force two-norm initial, final = 1443.0167 1443.0167
  Force max component initial, final = 71.557732 71.557761
  Final line search alpha, max atom move = 1.0411985e-11 7.4505836e-10
  Iterations, force evaluations = 1 39

MPI task timing breakdown:
Section |  min time  |  avg time  |  max time  |%varavg| %total
---------------------------------------------------------------
Pair    | 0.51128    | 0.51128    | 0.51128    |   0.0 | 75.08
Neigh   | 0          | 0          | 0          |   0.0 |  0.00
Comm    | 0.00076621 | 0.00076621 | 0.00076621 |   0.0 |  0.11
Output  | 0          | 0          | 0          |   0.0 |  0.00
Modify  | 0.15028    | 0.15028    | 0.15028    |   0.0 | 22.07
Other   |            | 0.01862    |            |       |  2.73

Nlocal:           3360 ave        3360 max        3360 min
Histogram: 1 0 0 0 0 0 0 0 0 0
Nghost:          12259 ave       12259 max       12259 min
Histogram: 1 0 0 0 0 0 0 0 0 0
Neighs:    2.70759e+06 ave 2.70759e+06 max 2.70759e+06 min
Histogram: 1 0 0 0 0 0 0 0 0 0
FullNghs:   3.8807e+06 ave  3.8807e+06 max  3.8807e+06 min
Histogram: 1 0 0 0 0 0 0 0 0 0

Total # of neighbors = 3880704
Ave neighs/atom = 1154.9714
Neighbor list builds = 0
Dangerous builds = 0
reset_timestep  0 time 0.0
write_data      110_0K.dat nofix nocoeff
System init for write_data ...

# initial thermalization w/ nose-hoover since it's easy
if "!${use_starting_data_file}" then "thermo          1000" "thermo_style    custom step time temp" "compute     	 mtemp mobile temp" "compute_modify  mtemp dynamic/dof yes" "thermo_modify   temp mtemp" "thermo_modify   lost warn flush yes" "velocity        mobile create ${T} 459087" "fix             1 mobile nvt temp $T $T $(100*dt)" "timestep        1" "run             10000" "unfix           1" "reset_timestep  0 time 0.0 # pretend this never happened"
thermo          1000
thermo_style    custom step time temp
compute     	 mtemp mobile temp
compute_modify  mtemp dynamic/dof yes
thermo_modify   temp mtemp
WARNING: Temperature for thermo pressure is not for group all (src/thermo.cpp:520)
thermo_modify   lost warn flush yes
velocity        mobile create ${T} 459087
velocity        mobile create 300 459087
fix             1 mobile nvt temp $T $T $(100*dt)
fix             1 mobile nvt temp 300 $T $(100*dt)
fix             1 mobile nvt temp 300 300 $(100*dt)
fix             1 mobile nvt temp 300 300 100
timestep        1
run             10000
Per MPI rank memory allocation (min/avg/max) = 121.9 | 121.9 | 121.9 Mbytes
   Step          Time           Temp     
         0   0              300          
      1000   1000           335.72795    
      2000   2000           357.19239    
      3000   3000           365.44337    
      4000   4000           347.54355    
      5000   5000           326.36385    
      6000   6000           314.78381    
      7000   7000           321.46427    
      8000   8000           328.81702    
      9000   9000           328.33415    
     10000   10000          322.92743    
Loop time of 153.019 on 1 procs for 10000 steps with 3360 atoms

Performance: 5.646 ns/day, 4.251 hours/ns, 65.351 timesteps/s
99.8% CPU use with 1 MPI tasks x 1 OpenMP threads

MPI task timing breakdown:
Section |  min time  |  avg time  |  max time  |%varavg| %total
---------------------------------------------------------------
Pair    | 114.77     | 114.77     | 114.77     |   0.0 | 75.00
Neigh   | 0.01264    | 0.01264    | 0.01264    |   0.0 |  0.01
Comm    | 4.3195     | 4.3195     | 4.3195     |   0.0 |  2.82
Output  | 0.0039365  | 0.0039365  | 0.0039365  |   0.0 |  0.00
Modify  | 33.602     | 33.602     | 33.602     |   0.0 | 21.96
Other   |            | 0.3159     |            |       |  0.21

Nlocal:           3360 ave        3360 max        3360 min
Histogram: 1 0 0 0 0 0 0 0 0 0
Nghost:          12259 ave       12259 max       12259 min
Histogram: 1 0 0 0 0 0 0 0 0 0
Neighs:    2.74331e+06 ave 2.74331e+06 max 2.74331e+06 min
Histogram: 1 0 0 0 0 0 0 0 0 0
FullNghs:  3.92591e+06 ave 3.92591e+06 max 3.92591e+06 min
Histogram: 1 0 0 0 0 0 0 0 0 0

Total # of neighbors = 3925912
Ave neighs/atom = 1168.4262
Neighbor list builds = 1
Dangerous builds = 0
unfix           1
reset_timestep  0 time 0.0 # pretend this never happened

# write initial values
write_data      110_${T}K.dat nofix nocoeff
write_data      110_300K.dat nofix nocoeff
System init for write_data ...
write_data      data_files/0.data nofix nocoeff
System init for write_data ...
write_dump      all custom dumps/dump.dump id type x y z vx vy vz modify sort id

print "0 ${n_lat_0} 0 0" append ncarbon.txt
0 2880 0 0
print "0 ${bottom} ${n_lat_0}" append bottom_tracker.txt
0 -0.625 2880
Total wall time: 0:02:34
