# head.lmp — generated by DiamondEtchMD (multi-ion)
# orientation=100  ions=[Ar@50.0eV×30%, O2@50.0eV×70%]
# T=300.0K  angle=0.0deg
package kokkos neigh/qeq full neigh half newton on
units		real
include     config.lmp
if "${pot} == COMB3" then &
"atom_style charge" &
elif "${pot} == REAX" &
"atom_style charge" &
else &
"atom_style atomic"

boundary	p p m

region      dummy_region block 0 1 0 1 0 1
create_box  4 dummy_region
read_data   ${data_file} add merge

variable 	lp equal $(v_end_fluence*v_ML)-${n_complete}
variable    a loop ${lp}
variable    bottom equal $(zlo/(v_lat_a))
print       'BOTTOM ${bottom}'
print       'N_LAT_0 ${n_lat_0}'

lattice    diamond ${lat_a} orient z 0 0 1 orient x 1 1 0 orient y -1 1 0 spacing $(1/sqrt(2)) $(1/sqrt(2)) 1 origin 0 0 0
region          bbox block EDGE EDGE EDGE EDGE EDGE EDGE
variable        sublat equal ${bottom}+1/2
region          anchor block INF INF INF INF ${bottom} ${sublat} units lattice

group 	anchor region anchor
group	insert empty
group 	mobile subtract all anchor
group   carbon type 1

mass        1 ${M_C}
mass        2 ${M_H}
mass        3 ${M_O}
mass        4 ${M_Ar}

if "${pot} == REAX" then &
"pair_style  hybrid reaxff NULL mincap 200 safezone 1.5 zbl 5.0 6.0" &
"pair_coeff * * reaxff ffield.reax C H O NULL" &
"pair_coeff 1 4 zbl 6.0 18.0" &
"pair_coeff 2 4 zbl 1.0 18.0" &
"pair_coeff 3 4 zbl 8.0 18.0" &
"pair_coeff 4 4 zbl 18.0 18.0" &
"group nonargon type 1 2 3" &
"fix reax_qeq nonargon qeq/reaxff 1 0.0 6.0 1e-6 reaxff"

variable c equal ${n_complete}
variable event_count equal ${n_events}
variable    cn_start equal ${neut_complete}
variable    cn equal 0

variable	nfixed   equal count(anchor)
variable	nmobile  equal count(mobile)
variable 	ninject  equal count(insert)

compute     ake all ke
compute     ape all pe
compute     ike insert ke
variable    ate equal c_ake+c_ape+ecouple

variable	checkevery equal 1000
compute	    clusts all cluster/atom 3.0
compute	    clust_min all reduce min c_clusts
compute	    clust_max all reduce max c_clusts
variable    one_clust equal "c_clust_min == c_clust_max"
fix		    stopclust all halt ${checkevery} v_one_clust == 0 error continue message yes

compute     cclusts carbon cluster/atom 1.8
compute     cc1 carbon chunk/atom c_cclusts compress yes
compute     nclusts carbon reduce max c_cc1

thermo_style    custom step time v_ninject temp c_ike dt ecouple v_ate v_one_clust c_nclusts
compute     	mtemp mobile temp
compute_modify  mtemp dynamic/dof yes
thermo_modify   temp mtemp
thermo_modify   lost warn flush yes

print "${c}" file begin.txt
molecule O2 O2.molecule

# ========================= Begin Per-Impact Outer Loop =========================
label		loop
if "${cn_start} > 0" then "variable cn equal ${cn_start}" else "variable cn equal 0"

dump current_dump all custom 100 etch_event_trajs/event_dump_${event_count}.dump id type x y z vx vy vz fx fy fz q

group       insert clear
group 	    mobile subtract all anchor
group nonargon type 1 2 3

# ========= Begin RIE-etch O• radical deposition loop =========
if "${cn_start} > 0 && ${cn_start} < ${flux_ratio}" then &
"variable neutral_lp loop $(v_flux_ratio-v_cn_start)" &
elif "${cn_start} == ${flux_ratio}" &
"jump SELF skip_radicals" &
else &
"variable neutral_lp loop ${flux_ratio}"

label       neutral_loop
variable    cn equal ${cn}+1
variable    deposeed equal floor(random(1,72099+${seed_adjust},${cn}))
group       insert clear
group       mobile subtract all anchor

# Deposit O• radical (always type 3)
variable    vel_chem equal sqrt(2*${radical_energy}*6.02214129*1.0e+7/${M_O}/6242)/1000
variable    velz_chem equal cos(${angl}*PI/180)*${vel_chem}
variable    vely_chem equal sin(${angl}*PI/180)*${vel_chem}
fix         depo insert deposit 1 3 1 ${deposeed} global ${chemical_i_above} ${chemical_i_above} vx 0.0 0.0 vy ${vely_chem} ${vely_chem} vz -${velz_chem} -${velz_chem} region bbox units box
fix         2 mobile nve
fix         3 insert nve
dump        current_dump_n all custom 100 etch_event_trajs/event_dump_n${event_count}.dump id type x y z vx vy vz fx fy fz q

timestep    1e-10
run         1 post no
run         0
fix         ats_n all dt/reset 1 NULL 1.00 0.01 units box
variable    starting_nclusts equal $(c_nclusts)
variable    t0 equal $(time)
variable    time_elapsed equal time-${t0}
fix         thalt all halt 1 v_time_elapsed > ${inter_neutral_time} error continue message yes

# ===================== Radical inner loop =====================
label       continue_n_impact
run         500 pre no post no
run         0
if "$(c_nclusts) > ${starting_nclusts}" then &
"variable event_count equal ${event_count}+1" &
"variable starting_nclusts equal $(c_nclusts)"
if "${one_clust} == 0" then "include sweep.lmp"
if "$(time-v_t0) < ${inter_neutral_time}" then "jump SELF continue_n_impact"

group       carbon type 1
group       hydrogen type 2
group       oxygen type 3
variable    ncarbon equal count(carbon)
variable    nhydrogen equal count(hydrogen)
variable    noxygen equal count(oxygen)

print       "Neutral run ${cn} complete"
print       "C_COUNT_neutral: ${ncarbon}"
print       "${c} ${cn} ${ncarbon} ${nhydrogen} ${noxygen}" append ncarbon.txt
write_data  impact_snaps/${c}_${cn}.data nofix nocoeff

unfix       thalt
unfix       ats_n
undump      current_dump_n
unfix       depo
unfix       2
unfix       3
# ===================== End radical inner loop =====================
next        neutral_lp
jump        SELF neutral_loop

label       skip_radicals
variable    cn_start equal 0
variable    cn equal 0
# ========= End RIE-etch O• radical deposition loop =========

# Thermalize between radicals and ion
include     thermalize.lmp

variable    c equal ${c}+1
variable    deposeed equal floor(random(1,72099+${seed_adjust},${c}))
# ── Stochastic ion selection ─────────────────────────────────────────────────
variable    r equal random(0,1,${c}+50000+${seed_adjust})

if "${r} < 0.30000000" then "jump SELF ion_sel_0"
jump        SELF ion_sel_1

label       ion_sel_0
variable    cur_ion string Ar
variable    energ equal 50.0
variable    M_incident equal ${M_Ar}
variable    incident_type_index equal 4
variable    cur_ion_is_mol equal 0
jump        SELF ion_sel_done

label       ion_sel_1
variable    cur_ion string O2
variable    energ equal 25.0
variable    M_incident equal ${M_O}
variable    incident_type_index equal 3
variable    cur_ion_is_mol equal 1
jump        SELF ion_sel_done

label       ion_sel_done
print       "${c} ${cur_ion}" append ion_impacts.txt
variable    vel equal sqrt(2*${energ}*6.02214129*1.0e+7/${M_incident}/6242)/1000
variable    velz equal cos(${angl}*PI/180)*${vel}
variable    vely equal sin(${angl}*PI/180)*${vel}
# ─────────────────────────────────────────────────────────────────────────────

if "${cur_ion_is_mol} == 1" then &
"fix     depo insert deposit 1 0 10000000000 ${deposeed} global ${i_above} ${i_above} vx 0.0 0.0 vy ${vely} ${vely} vz -${velz} -${velz} region bbox units box mol O2" &
else &
"fix     depo insert deposit 1 ${incident_type_index} 10000000000 ${deposeed} global ${i_above} ${i_above} vx 0.0 0.0 vy ${vely} ${vely} vz -${velz} -${velz} region bbox units box"

fix     2 mobile nve
fix     3 insert nve

timestep 1e-10
run 1 post no
variable starting_nclusts equal $(c_nclusts)

fix ats all dt/reset 1 NULL 1.00 0.01 units box
thermo      100

variable    t0 equal $(time)
variable    time_elapsed equal time-${t0}
fix         thalt all halt 1 v_time_elapsed > ${impact_time} error continue message yes

run         0 post no
variable    n_channelled equal 0
# =========================== begin inner loop ===========================
label		continue_impact

run         1000000000 pre no post no
run         0
if "$(c_nclusts) > ${starting_nclusts}" then &
"variable event_count equal ${event_count}+1" &
"variable starting_nclusts equal $(c_nclusts)"
if "${one_clust} == 0" then &
"include sweep.lmp" &
"region channelled block INF INF INF INF INF ${bottom} units lattice" &
"group channelled_group region channelled" &
"variable n_channelled equal count(channelled_group)" &
"region channelled delete" &

if "${n_channelled} > 0" then &
"delete_atoms group channelled_group" &
"run 0" &
"group channelled_group delete" &
"variable n_channelled equal 0" &
"include notify_channeled.lmp"

if "$(time-v_t0) < ${impact_time}" then "jump SELF continue_impact"
unfix thalt
# ============================ end inner loop ============================

unfix   depo
unfix   ats

include thermalize.lmp

unfix       2
unfix       3

group       carbon type 1
group       hydrogen type 2
group       oxygen type 3
variable    ncarbon equal count(carbon)
variable    nhydrogen equal count(hydrogen)
variable    noxygen equal count(oxygen)
label addfix
if "${ncarbon}<${n_lat_0}" then &
"include addfix.lmp" &
"fix 2 mobile nve" &
"include thermalize.lmp" &
"unfix 2"
if "${ncarbon}<${n_lat_0}" then "jump SELF addfix"

print "Run ${c} complete"
print "C_COUNT: ${ncarbon}"
print "${c} 0 ${ncarbon} ${nhydrogen} ${noxygen}" append ncarbon.txt

write_data impact_snaps/${c}_0.data nofix nocoeff
if '$(v_c%v_ML) == 0' then "write_dump all custom ML_impacts.dump id type q x y z vx vy vz modify sort id append yes"

undump current_dump
# ========================= End Per-Impact Outer Loop =========================
next		a
jump		SELF loop
