# head.lmp — generated by DiamondEtchMD
# orientation=100  species=Ar  100.0eV  300.0K  ion_angle=0.0deg
package kokkos neigh/qeq full neigh half newton on
units		real
include     config.lmp
if "${pot} == COMB3" then &
"atom_style charge" &
elif "${pot} == REAX" &
"atom_style charge" &
else &
"atom_style atomic"

boundary	p p m

# create_box with 4 types then merge data file so type 4 (Ar) is available
region      dummy_region block 0 1 0 1 0 1
create_box  4 dummy_region
read_data   ${data_file} add merge

variable 	lp equal $(v_end_fluence*v_ML)-${n_complete} # impacts left
variable    a loop ${lp}
variable    bottom equal $(zlo/(v_lat_a))
print       'BOTTOM ${bottom}'
print       'N_LAT_0 ${n_lat_0}'

# Regions — lattice must match make_surf.lmp for this orientation
lattice    diamond ${lat_a} orient z 0 0 1 orient x 1 1 0 orient y -1 1 0 spacing $(1/sqrt(2)) $(1/sqrt(2)) 1 origin 0 0 0
region          bbox block EDGE EDGE EDGE EDGE EDGE EDGE
variable        sublat equal ${bottom}+1/2
region          anchor block INF INF INF INF ${bottom} ${sublat} units lattice

# Groups
group 	anchor region anchor
group	insert empty
group 	mobile subtract all anchor
group   carbon type 1

# Particle masses (4 types: C, H, O, Ar)
mass        1 ${M_C}
mass        2 ${M_H}
mass        3 ${M_O}
mass        4 ${M_Ar}

# Potential
if "${pot} == REAX" then &
"pair_style  hybrid reaxff NULL mincap 200 safezone 1.5 zbl 5.0 6.0" &
"pair_coeff * * reaxff ffield.reax C H O NULL" &
"pair_coeff 1 4 zbl 6.0 18.0" &
"pair_coeff 2 4 zbl 1.0 18.0" &
"pair_coeff 3 4 zbl 8.0 18.0" &
"pair_coeff 4 4 zbl 18.0 18.0" &
"group nonargon type 1 2 3" &
"fix reax_qeq nonargon qeq/reaxff 1 0.0 6.0 1e-6 reaxff"

# Pre-run counters
variable c equal ${n_complete}
variable event_count equal ${n_events}
variable    cn_start equal ${neut_complete}
variable    cn equal 0

# Atom counts
variable	nfixed   equal count(anchor)
variable	nmobile  equal count(mobile)
variable 	ninject  equal count(insert)

# Incident particle velocity components
variable 	vel equal sqrt(2*${energ}*6.02214129*1.0e+7/${M_incident}/6242)/1000
variable 	velz equal cos(${ion_angl}*PI/180)*${vel}
variable 	vely equal sin(${ion_angl}*PI/180)*${vel}

# Energy conservation check
compute     ake all ke
compute     ape all pe
compute     ike insert ke
variable    ate equal c_ake+c_ape+ecouple

# Clustering
variable	checkevery equal 1000
compute	    clusts all cluster/atom 3.0
compute	    clust_min all reduce min c_clusts
compute	    clust_max all reduce max c_clusts
variable    one_clust equal "c_clust_min == c_clust_max"
fix		    stopclust all halt ${checkevery} v_one_clust == 0 error continue message yes

# Carbon cluster event tracking
compute     cclusts carbon cluster/atom 1.8
compute     cc1 carbon chunk/atom c_cclusts compress yes
compute     nclusts carbon reduce max c_cc1

# Thermo
thermo_style    custom step time v_ninject temp c_ike dt ecouple v_ate v_one_clust c_nclusts
compute     	mtemp mobile temp
compute_modify  mtemp dynamic/dof yes
thermo_modify   temp mtemp
thermo_modify   lost warn flush yes

print "${c}" file begin.txt

# ========================= Begin Per-Impact Outer Loop =========================
label		loop
# Refresh bbox after thermalize shrinks the box (prevents stale-region errors)
region bbox delete
region bbox block EDGE EDGE EDGE EDGE EDGE EDGE
if "${cn_start} > 0" then "variable cn equal ${cn_start}" else "variable cn equal 0"


group       insert clear
group 	    mobile subtract all anchor
group nonargon type 1 2 3

# ========= Begin RIE-etch O• radical deposition loop =========
if "${cn_start} > 0 && ${cn_start} < ${flux_ratio}" then &
"variable neutral_lp loop $(v_flux_ratio-v_cn_start)" &
elif "${cn_start} == ${flux_ratio}" &
"jump SELF skip_radicals" &
else &
"variable neutral_lp loop ${flux_ratio}"

label       neutral_loop
# Refresh bbox: each radical can shrink zhi; must update before next deposit
region bbox delete
region bbox block EDGE EDGE EDGE EDGE EDGE EDGE
variable    cn equal ${cn}+1
variable    deposeed equal floor(random(1,72099+${seed_adjust},${cn}))
group       insert clear
group       mobile subtract all anchor

# Sample O• radical velocity
variable    sigma_rad equal sqrt(${kT_rad}*6.02214129e7/${M_O}/6242)/1000
variable    bms equal v_c*100000+v_cn+${seed_adjust}*1000000
variable    u1a equal $(random(1e-10,1.0,v_bms+1))
variable    u2a equal $(random(1e-10,1.0,v_bms+2))
variable    u1b equal $(random(1e-10,1.0,v_bms+3))
variable    u2b equal $(random(1e-10,1.0,v_bms+4))
variable    u1c equal $(random(1e-10,1.0,v_bms+5))
variable    u2c equal $(random(1e-10,1.0,v_bms+6))
variable    gx_sq equal (-2*ln(v_u1a))*(1+cos(4*PI*v_u2a))/2*v_sigma_rad*v_sigma_rad
variable    gy_sq equal (-2*ln(v_u1b))*(1+cos(4*PI*v_u2b))/2*v_sigma_rad*v_sigma_rad
variable    gz_sq equal (-2*ln(v_u1c))*(1+cos(4*PI*v_u2c))/2*v_sigma_rad*v_sigma_rad
variable    rad_speed equal sqrt(v_gx_sq+v_gy_sq+v_gz_sq)
variable    u_th equal $(random(0.0,1.0,v_bms+7))
variable    u_ph equal $(random(0.0,1.0,v_bms+8))
variable    cos_theta equal sqrt(v_u_th)
variable    sin_theta equal sqrt(1.0-v_u_th)
variable    phi_rad equal 2*PI*v_u_ph
variable    vx_rad equal v_rad_speed*v_sin_theta*cos(v_phi_rad)
variable    vy_rad equal v_rad_speed*v_sin_theta*sin(v_phi_rad)
variable    vz_rad equal -v_rad_speed*v_cos_theta
variable    rad_spd_sq equal v_gx_sq+v_gy_sq+v_gz_sq
variable    rad_energy_ev equal v_rad_spd_sq*${M_O}*6242*500000/6.02214129e7
variable    rad_polar_deg equal acos(v_cos_theta)*180/PI
variable    rad_azimuth_deg equal v_phi_rad*180/PI
print       "${c} ${cn} $(v_rad_energy_ev) $(v_rad_polar_deg) $(v_rad_azimuth_deg)" append radical_log.txt

# Deposit O• radical (type 3) with sampled velocity
fix         depo insert deposit 1 3 1 ${deposeed} global ${radical_i_above} ${radical_i_above} vx ${vx_rad} ${vx_rad} vy ${vy_rad} ${vy_rad} vz ${vz_rad} ${vz_rad} region bbox units box
fix         2 mobile nve
fix         3 insert nve
dump        current_dump_n all custom 100 etch_event_trajs/event_dump_n${c}_${cn}.dump id type x y z vx vy vz fx fy fz q

timestep    1e-10
run         1 post no
run         0
fix         ats_n all dt/reset 1 NULL 1.00 0.01 units box
variable    starting_nclusts equal $(c_nclusts)
variable    t0 equal $(time)
variable    time_elapsed equal time-${t0}
fix         thalt all halt 1 v_time_elapsed > ${max_inter_neutral_time} error continue message yes

# ===================== Radical inner loop =====================
label       continue_n_impact
run         500 pre no post no
run         0
if "$(c_nclusts) > ${starting_nclusts}" then &
"variable event_count equal ${event_count}+1" &
"variable starting_nclusts equal $(c_nclusts)"
if "${one_clust} == 0" then "include sweep.lmp"
if "$(time-v_t0) < ${max_inter_neutral_time}" then "jump SELF continue_n_impact"

group       carbon type 1
group       hydrogen type 2
group       oxygen type 3
variable    ncarbon equal count(carbon)
variable    nhydrogen equal count(hydrogen)
variable    noxygen equal count(oxygen)

print       "Neutral run ${cn} complete"
print       "C_COUNT_neutral: ${ncarbon}"
print       "${c} ${cn} ${ncarbon} ${nhydrogen} ${noxygen}" append ncarbon.txt
write_data  impact_snaps/${c}_${cn}.data nofix nocoeff

unfix       thalt
unfix       ats_n
undump      current_dump_n
unfix       depo
# Thermalize after each radical
include     thermalize.lmp
unfix       2
unfix       3
# ===================== End radical inner loop =====================
next        neutral_lp
jump        SELF neutral_loop

label       skip_radicals
variable    cn_start equal 0
variable    cn equal 0
# ========= End RIE-etch O• radical deposition loop =========

# Final thermalize before ion impact
include     thermalize.lmp

# Refresh bbox: thermalize (boundary p p m) may shrink zhi
region bbox delete
region bbox block EDGE EDGE EDGE EDGE EDGE EDGE

variable    c equal ${c}+1
dump current_dump all custom 100 etch_event_trajs/event_dump_${c}.dump id type x y z vx vy vz fx fy fz q
variable    deposeed equal floor(random(1,72099+${seed_adjust},${c}))
fix     depo insert deposit 1 ${incident_type_index} 10000000000 ${deposeed} global ${i_above} ${i_above} vx 0.0 0.0 vy ${vely} ${vely} vz -${velz} -${velz} region bbox units box

fix     2 mobile nve
fix     3 insert nve

# Run 1 fs timestep to place incident particle
timestep 1e-10
run 1 post no
variable starting_nclusts equal $(c_nclusts)

# Adaptive timestep
fix ats all dt/reset 1 NULL 1.00 0.01 units box
thermo      100

variable    t0 equal $(time)
variable    time_elapsed equal time-${t0}
fix         thalt all halt 1 v_time_elapsed > ${impact_time} error continue message yes

run         0 post no
variable    n_channelled equal 0
# =========================== begin inner loop ===========================
label		continue_impact

run         1000000000 pre no post no
run         0
if "$(c_nclusts) > ${starting_nclusts}" then &
"variable event_count equal ${event_count}+1" &
"variable starting_nclusts equal $(c_nclusts)"
if "${one_clust} == 0" then &
"include sweep.lmp" &
"region channelled block INF INF INF INF INF ${bottom} units lattice" &
"group channelled_group region channelled" &
"variable n_channelled equal count(channelled_group)" &
"region channelled delete" &

if "${n_channelled} > 0" then &
"variable event_count equal ${event_count}+1" &
"delete_atoms group channelled_group" &
"run 0" &
"group channelled_group delete" &
"variable n_channelled equal 0" &
"include notify_channeled.lmp"

if "$(time-v_t0) < ${impact_time}" then "jump SELF continue_impact"
unfix thalt
# ============================ end inner loop ============================

unfix   depo
unfix   ats

# Thermalize
include thermalize.lmp

unfix       2
unfix       3

# Remove any implanted Ar (does not bond; would accumulate across impacts)
group       argon type 4
delete_atoms group argon
group       argon delete

# Replenish carbon if etched below baseline
group       carbon type 1
group       hydrogen type 2
group       oxygen type 3
variable    ncarbon equal count(carbon)
variable    nhydrogen equal count(hydrogen)
variable    noxygen equal count(oxygen)
label addfix
if "${ncarbon}<${n_lat_0}" then &
"include addfix.lmp" &
"fix 2 mobile nve" &
"include thermalize.lmp" &
"unfix 2"
if "${ncarbon}<${n_lat_0}" then "jump SELF addfix"

print "Run ${c} complete"
print "C_COUNT: ${ncarbon}"
print "${c} 0 ${ncarbon} ${nhydrogen} ${noxygen}" append ncarbon.txt

write_data impact_snaps/${c}_0.data nofix nocoeff
if '$(v_c%v_ML) == 0' then "write_dump all custom ML_impacts.dump id type q x y z vx vy vz modify sort id append yes"

undump current_dump
# ========================= End Per-Impact Outer Loop =========================
next		a
jump		SELF loop
